12
Frame=0  time=0.500fs  energy=-306.20964241Ha  molecule=COOCCCHHHHHH
C       0.1337236179      0.3491784738     -0.0001917817
O       1.4127701144      0.3897326579      0.0023317704
O       2.1466165289     -0.7304119148     -0.0012187374
C      -0.6601794768     -0.8540780373     -0.0001891528
C      -0.2140285659     -2.1373877129     -0.0029867052
C      -0.5215467774      1.6922463984      0.0026931407
H      -1.7378949391     -0.6681128734      0.0100226630
H       0.8368073905     -2.3804064264      0.0045792175
H      -0.9751915114     -2.9268512363      0.0247367274
H       0.2326670142      2.4865543651     -0.0227679584
H      -1.1490978420      1.7972741767      0.8852778677
H      -1.1286500250      1.7925301764     -0.9114784137
12
Frame=1  time=1.000fs  energy=-306.20764221Ha  molecule=COOCCCHHHHHH
C       0.1319849029      0.3553527090     -0.0003570156
O       1.4145468396      0.3856227792      0.0046613637
O       2.1467729434     -0.7287910570     -0.0024419383
C      -0.6618167617     -0.8491332644     -0.0003823863
C      -0.2114769128     -2.1433718481     -0.0058675354
C      -0.5223209520      1.6922950911      0.0049943246
H      -1.7443358976     -0.6671864691      0.0199277514
H       0.8348763341     -2.4053642588      0.0087509716
H      -1.0065695739     -2.9106710252      0.0489063317
H       0.2248938490      2.4929877448     -0.0442577676
H      -1.1418190290      1.7896913820      0.8826268817
H      -1.1000416649      1.7792696007     -0.9319668745
12
Frame=2  time=1.500fs  energy=-306.20545901Ha  molecule=COOCCCHHHHHH
C       0.1305198508      0.3611364048     -0.0004788694
O       1.4161489208      0.3817528924      0.0069888565
O       2.1469284558     -0.7273116238     -0.0036730913
C      -0.6631972741     -0.8447492943     -0.0005823200
C      -0.2096741864     -2.1487603144     -0.0085774236
C      -0.5227471169      1.6924024495      0.0067082143
H      -1.7483979653     -0.6667748195      0.0296458925
H       0.8331173635     -2.4300517018      0.0122611518
H      -1.0338617863     -2.8934949743      0.0721651377
H       0.2170627318      2.4985611893     -0.0636899014
H      -1.1377195857      1.7838623492      0.8814810720
H      -1.0735897686      1.7663384270     -0.9495749822
12
Frame=3  time=2.000fs  energy=-306.20362359Ha  molecule=COOCCCHHHHHH
C       0.1293563328      0.3664717914     -0.0005511886
O       1.4175638991      0.3781516230      0.0093144240
O       2.1470862049     -0.7259940578     -0.0049133110
C      -0.6642575175     -0.8409836016     -0.0007898488
C      -0.2086369701     -2.1534594548     -0.0110950413
C      -0.5228244611      1.6925710037      0.0078372111
H      -1.7502329583     -0.6668552215      0.0391525987
H       0.8313043827     -2.4543437285      0.0150269699
H      -1.0571491416     -2.8757879085      0.0944009887
H       0.2095850855      2.5035224997     -0.0808298464
H      -1.1368948948      1.7798829066      0.8817797361
H      -1.0499043439      1.7538073229     -0.9645876515
12
Frame=4  time=2.500fs  energy=-306.20217744Ha  molecule=COOCCCHHHHHH
C       0.1284725515      0.3713713726     -0.0005752926
O       1.4188081777      0.3748078438      0.0116382544
O       2.1472482347     -0.7248327296     -0.0061621649
C      -0.6649829984     -0.8377933734     -0.0010048639
C      -0.2082550280     -2.1574831907     -0.0134286417
C      -0.5226129483      1.6927966058      0.0084836981
H      -1.7503868616     -0.6673197837      0.0484541748
H       0.8291975289     -2.4781607419      0.0170808505
H      -1.0771833591     -2.8581389678      0.1156593954
H       0.2026831039      2.5081216032     -0.0958048160
H      -1.1387562062      1.7775394701      0.8829811939
H      -1.0290636152      1.7416850137     -0.9775373464
12
Frame=5  time=3.000fs  energy=-306.20082712Ha  molecule=COOCCCHHHHHH
C       0.1275564718      0.3762285640     -0.0005564817
O       1.4200451944      0.3716601712      0.0139605360
O       2.1474223639     -0.7238238846     -0.0074184965
C      -0.6652043795     -0.8363267832     -0.0012269290
C      -0.2086516075     -2.1599350880     -0.0156017323
C      -0.5221364967      1.6930178306      0.0087714067
H      -1.7486779121     -0.6665259497      0.0575734097
H       0.8257686041     -2.5024310940      0.0185139633
H      -1.0936129465     -2.8411575429      0.1360684063
H       0.1962591419      2.5126578767     -0.1089212433
H      -1.1423956927      1.7764648622      0.8845918959
H      -1.0106470475      1.7298929241     -0.9890237776
12
Frame=6  time=3.500fs  energy=-306.20009996Ha  molecule=COOCCCHHHHHH
C       0.1282614736      0.3813326244     -0.0005992516
O       1.4204796520      0.3686290125      0.0162822839
O       2.1475918678     -0.7229665289     -0.0086819635
C      -0.6650392951     -0.8371131030     -0.0014359340
C      -0.2099714683     -2.1600808498     -0.0176397396
C      -0.5212214274      1.6933911528      0.0085149214
H      -1.7456292375     -0.6654752221      0.0665009610
H       0.8199011011     -2.5294031618      0.0194307869
H      -1.1047773610     -2.8265495021      0.1557300593
H       0.1930579450      2.5148537630     -0.1166166318
H      -1.1508708932      1.7793057838      0.8829366439
H      -1.0001186981      1.7165105718     -0.9956349231
12
Frame=7  time=4.000fs  energy=-306.20029632Ha  molecule=COOCCCHHHHHH
C       0.1298917145      0.3851516103     -0.0007533316
O       1.4204999723      0.3659573850      0.0186040056
O       2.1477437990     -0.7222857415     -0.0099524654
C      -0.6638720451     -0.8377300837     -0.0016226468
C      -0.2125454211     -2.1587464572     -0.0195544134
C      -0.5195806519      1.6940609476      0.0076297665
H      -1.7426042164     -0.6718182702      0.0752312244
H       0.8118529160     -2.5577106452      0.0198786659
H      -1.1103075603     -2.8164404668      0.1746936869
H       0.1922435356      2.5159448788     -0.1171799229
H      -1.1650381591      1.7877690016      0.8763924925
H      -0.9995336801      1.7010592852     -0.9959303812
12
Frame=8  time=4.500fs  energy=-306.20004077Ha  molecule=COOCCCHHHHHH
C       0.1318050087      0.3863074172     -0.0008703256
O       1.4203393886      0.3640336914      0.0209244465
O       2.1478557971     -0.7218959003     -0.0112289771
C      -0.6615164979     -0.8387565279     -0.0018173690
C      -0.2160837905     -2.1560559434     -0.0213413263
C      -0.5175874620      1.6954279859      0.0065575238
H      -1.7389747882     -0.6829775683      0.0838093276
H       0.8029343328     -2.5827660053      0.0198288626
H      -1.1150493657     -2.8065238473      0.1929963319
H       0.1899407490      2.5198811759     -0.1163468375
H      -1.1814556294      1.7983918294      0.8680342566
H      -1.0024674642      1.6872521063     -0.9940211019
12
Frame=9  time=5.000fs  energy=-306.19948471Ha  molecule=COOCCCHHHHHH
C       0.1343268727      0.3855378175     -0.0002749950
O       1.4200312565      0.3633315936      0.0232052589
O       2.1479936767     -0.7221367135     -0.0125368728
C      -0.6588168250     -0.8406869652     -0.0021326542
C      -0.2203508843     -2.1532894625     -0.0230356346
C      -0.5154545507      1.6978262120      0.0046125291
H      -1.7345833427     -0.6922217659      0.0920394494
H       0.7944373284     -2.6013939730      0.0190599793
H      -1.1187282065     -2.7984361745      0.2113037911
H       0.1862388629      2.5267639369     -0.1129229038
H      -1.1972357541      1.8073333428      0.8596515532
H      -1.0092887426      1.6768091690     -0.9902439039
12
Frame=10  time=5.500fs  energy=-306.19949536Ha  molecule=COOCCCHHHHHH
C       0.1374578437      0.3843426574      0.0013458193
O       1.4198977306      0.3635544511      0.0254461097
O       2.1481019226     -0.7229351918     -0.0138983296
C      -0.6557828986     -0.8432138180     -0.0028610564
C      -0.2258316819     -2.1514176435     -0.0242064193
C      -0.5136385234      1.7008651390      0.0014526828
H      -1.7293245694     -0.6971747423      0.1009047546
H       0.7865979583     -2.6113577426      0.0163286634
H      -1.1176749862     -2.7972393568      0.2275709040
H       0.1828485457      2.5342104942     -0.1061725108
H      -1.2107854727      1.8137943868      0.8520785090
H      -1.0202125352      1.6715929075     -0.9848098141
12
Frame=11  time=6.000fs  energy=-306.20054628Ha  molecule=COOCCCHHHHHH
C       0.1410753601      0.3827149927      0.0037351230
O       1.4202520838      0.3648758361      0.0276567841
O       2.1482590051     -0.7244572072     -0.0153089338
C      -0.6524215697     -0.8462428844     -0.0040964965
C      -0.2324951832     -2.1503383624     -0.0240793218
C      -0.5127257603      1.7042727696     -0.0026079101
H      -1.7234441327     -0.6980291418      0.1097373088
H       0.7793240382     -2.6127206207      0.0083007894
H      -1.1121592417     -2.8029783395      0.2383983375
H       0.1815256362      2.5398633204     -0.0967441021
H      -1.2222232900      1.8204108875      0.8451017381
H      -1.0343266686      1.6724880737     -0.9784698922
12
Frame=12  time=6.500fs  energy=-306.20177960Ha  molecule=COOCCCHHHHHH
C       0.1449438293      0.3804780770      0.0062420386
O       1.4212961701      0.3672277447      0.0298631805
O       2.1484935290     -0.7266336360     -0.0167410484
C      -0.6490942644     -0.8496499880     -0.0056309409
C      -0.2396989643     -2.1494313647     -0.0225296216
C      -0.5128074267      1.7077627081     -0.0068192031
H      -1.7179837154     -0.6970784890      0.1176862829
H       0.7720829351     -2.6094262844     -0.0057021703
H      -1.1047365435     -2.8128212028      0.2429755069
H       0.1828246870      2.5429824888     -0.0861846757
H      -1.2327262263      1.8299112066      0.8376057247
H      -1.0499915574      1.6775417959     -0.9722184188
12
Frame=13  time=7.000fs  energy=-306.20265862Ha  molecule=COOCCCHHHHHH
C       0.1487096259      0.3777620268      0.0088218547
O       1.4223497704      0.3702156053      0.0320560291
O       2.1489153370     -0.7292904633     -0.0181834022
C      -0.6453937370     -0.8530566500     -0.0071562149
C      -0.2470411331     -2.1482521262     -0.0202097617
C      -0.5133201556      1.7110268644     -0.0111033273
H      -1.7131015969     -0.6954064633      0.1239384759
H       0.7644119309     -2.6042275907     -0.0234539825
H      -1.0976698442     -2.8246769213      0.2442508887
H       0.1860830752      2.5445111632     -0.0745626587
H      -1.2418998015      1.8406199938      0.8289342686
H      -1.0671429004      1.6850462415     -0.9660167250
12
Frame=14  time=7.500fs  energy=-306.20345728Ha  molecule=COOCCCHHHHHH
C       0.1524541952      0.3746149888      0.0114224470
O       1.4233995949      0.3735177560      0.0342550551
O       2.1493402394     -0.7321261098     -0.0196359683
C      -0.6413826511     -0.8564214588     -0.0086222747
C      -0.2544621076     -2.1469209015     -0.0175777552
C      -0.5139735777      1.7141980178     -0.0154148887
H      -1.7091316570     -0.6929757570      0.1296706973
H       0.7563782367     -2.5968257410     -0.0423224165
H      -1.0911219536     -2.8390209920      0.2435912429
H       0.1901496994      2.5459533773     -0.0619508535
H      -1.2493953459      1.8512706677      0.8185745277
H      -1.0858081644      1.6940056619     -0.9598267687
12
Frame=15  time=8.000fs  energy=-306.20417315Ha  molecule=COOCCCHHHHHH
C       0.1561062896      0.3710371360      0.0140107017
O       1.4244772182      0.3771392496      0.0364635368
O       2.1497559823     -0.7351343809     -0.0210981785
C      -0.6371090444     -0.8596130797     -0.0099860015
C      -0.2618998600     -2.1455527389     -0.0146247791
C      -0.5147951975      1.7172291077     -0.0197265557
H      -1.7061629784     -0.6896532963      0.1347916693
H       0.7481877208     -2.5869557407     -0.0622681893
H      -1.0853003446     -2.8557687588      0.2407535784
H       0.1948851703      2.5471636854     -0.0485369395
H      -1.2547151444      1.8615873774      0.8064832265
H      -1.1055516106      1.7045447550     -0.9537337222
12
Frame=16  time=8.500fs  energy=-306.20461849Ha  molecule=COOCCCHHHHHH
C       0.1595766782      0.3670716708      0.0165198074
O       1.4256257696      0.3810592880      0.0386942218
O       2.1501466673     -0.7382920227     -0.0225720268
C      -0.6326867508     -0.8624643915     -0.0111749961
C      -0.2692928536     -2.1443337099     -0.0113707292
C      -0.5157919534      1.7200718256     -0.0240365543
H      -1.7040254932     -0.6853628262      0.1392012748
H       0.7402476838     -2.5745063835     -0.0830989477
H      -1.0801906743     -2.8743224628      0.2355377859
H       0.1999832473      2.5479087345     -0.0346535473
H      -1.2575800924      1.8712230809      0.7930933021
H      -1.1256008631      1.7167063781     -0.9477513504
12
Frame=17  time=9.000fs  energy=-306.20469051Ha  molecule=COOCCCHHHHHH
C       0.1627736272      0.3628104577      0.0187235340
O       1.4268927363      0.3852274395      0.0410244089
O       2.1504949163     -0.7415584707     -0.0240840460
C      -0.6282870141     -0.8648039186     -0.0119638492
C      -0.2765906641     -2.1434924940     -0.0078866900
C      -0.5169412618      1.7226820052     -0.0283941699
H      -1.7022865744     -0.6801066953      0.1426570464
H       0.7331318697     -2.5595948438     -0.1042244757
H      -1.0755257163     -2.8935919830      0.2274726200
H       0.2050241906      2.5479193314     -0.0206637830
H      -1.2579881092      1.8796494768      0.7794301873
H      -1.1450260331      1.7305873236     -0.9417801352
12
Frame=18  time=9.500fs  energy=-306.20442370Ha  molecule=COOCCCHHHHHH
C       0.1656249478      0.3583830727      0.0205261411
O       1.4283183737      0.3895697824      0.0434752341
O       2.1507853295     -0.7448820067     -0.0256382829
C      -0.6241012747     -0.8665012726     -0.0122659778
C      -0.2837554525     -2.1432401567     -0.0042497266
C      -0.5181949272      1.7250244619     -0.0328431326
H      -1.7003933844     -0.6739559011      0.1451111798
H       0.7274256869     -2.5425693876     -0.1252134165
H      -1.0709003377     -2.9122781203      0.2166236352
H       0.2096046487      2.5469887460     -0.0070521436
H      -1.2563635425      1.8865786438      0.7667789690
H      -1.1628210432      1.7459913197     -0.9357924649
12
Frame=19  time=10.000fs  energy=-306.20393480Ha  molecule=COOCCCHHHHHH
C       0.1680944568      0.3539319466      0.0219857000
O       1.4299259680      0.3940037657      0.0460051269
O       2.1510074361     -0.7482101858     -0.0272144709
C      -0.6202938907     -0.8675001516     -0.0121549362
C      -0.2907535577     -2.1437117377     -0.0005262638
C      -0.5194956114      1.7270755047     -0.0373971783
H      -1.6978812926     -0.6670117266      0.1467228966
H       0.7235236865     -2.5239208649     -0.1458882480
H      -1.0659687691     -2.9292741956      0.2035858341
H       0.2134664082      2.5450509116      0.0056753657
H      -1.2533843220      1.8920116752      0.7562948944
H      -1.1781527734      1.7624699859     -0.9298914443
12
Frame=20  time=10.500fs  energy=-306.20337217Ha  molecule=COOCCCHHHHHH
C       0.1701836111      0.3495881147      0.0232621777
O       1.4317195343      0.3984531727      0.0485337106
O       2.1511564654     -0.7514985488     -0.0287779131
C      -0.6169738981     -0.8678193642     -0.0118087081
C      -0.2975460433     -2.1449456051      0.0032350683
C      -0.5207940577      1.7288223925     -0.0420320130
H      -1.6945088476     -0.6593662730      0.1477769221
H       0.7215171627     -2.5041611693     -0.1662815882
H      -1.0605827439     -2.9439242940      0.1892460679
H       0.2165411844      2.5421840779      0.0170914896
H      -1.2497302768      1.8961537755      0.7487180824
H      -1.1905111207      1.7794637336     -0.9242991282
12
Frame=21  time=11.000fs  energy=-306.20284444Ha  molecule=COOCCCHHHHHH
C       0.1719217702      0.3454586481      0.0243533106
O       1.4336879558      0.4028559978      0.0510543343
O       2.1512322138     -0.7547139573     -0.0303239311
C      -0.6141942085     -0.8675302805     -0.0112416421
C      -0.3040863456     -2.1469002249      0.0069744520
C      -0.5220571630      1.7302611008     -0.0467231964
H      -1.6902683865     -0.6510853731      0.1483615816
H       0.7212218512     -2.4837434080     -0.1861755668
H      -1.0548061362     -2.9560404519      0.1739773311
H       0.2189124840      2.5385585518      0.0270204672
H      -1.2458012730      1.8990433693      0.7443978364
H      -1.1998282443      1.7966806127     -0.9192174161
12
Frame=22  time=11.500fs  energy=-306.20237523Ha  molecule=COOCCCHHHHHH
C       0.1733538018      0.3416246394      0.0252622408
O       1.4358111403      0.4071654914      0.0535612013
O       2.1512373434     -0.7578337502     -0.0318488846
C      -0.6119657129     -0.8667301463     -0.0104716214
C      -0.3103249788     -2.1494846389      0.0106459102
C      -0.5232673493      1.7313941028     -0.0514249275
H      -1.6853217711     -0.6422134783      0.1485575019
H       0.7222860754     -2.4630401044     -0.2054134740
H      -1.0488493030     -2.9657754776      0.1580964032
H       0.2207485130      2.5343774835      0.0353968680
H      -1.2418003465      1.9007435275      0.7432829865
H      -1.2062727902      1.8138856637     -0.9148718283
12
Frame=23  time=12.000fs  energy=-306.20195066Ha  molecule=COOCCCHHHHHH
C       0.1745309776      0.3381426093      0.0259950035
O       1.4380648079      0.4113484384      0.0560495486
O       2.1511762477     -0.7608437732     -0.0333500760
C      -0.6102711527     -0.8655235144     -0.0095174747
C      -0.3162178274     -2.1525833128      0.0142152330
C      -0.5244183982      1.7322299011     -0.0560801244
H      -1.6799237982     -0.6327897747      0.1484354054
H       0.7242999818     -2.4423539744     -0.2238871764
H      -1.0429871973     -2.9734785197      0.1418632080
H       0.2222460826      2.5298381075      0.0422366559
H      -1.2377772482      1.9013315556      0.7450394934
H      -1.2101529913      1.8308922466     -0.9114703896
12
Frame=24  time=12.500fs  energy=-306.20155109Ha  molecule=COOCCCHHHHHH
C       0.1755052733      0.3350450329      0.0265597992
O       1.4404235606      0.4153836709      0.0585157716
O       2.1510545930     -0.7637370082     -0.0348257609
C      -0.6090739405     -0.8640115075     -0.0083984549
C      -0.3217346797     -2.1560726290      0.0176581088
C      -0.5255111980      1.7327838948     -0.0606312869
H      -1.6743579986     -0.6228642337      0.1480576768
H       0.7268745283     -2.4219316988     -0.2415287694
H      -1.0374907523     -2.9795831828      0.1254884856
H       0.2235924162      2.5251115674      0.0476192885
H      -1.2336889026      1.9009009612      0.7491619426
H      -1.2118472180      1.8475520214     -0.9091624316
12
Frame=25  time=13.000fs  energy=-306.20113394Ha  molecule=COOCCCHHHHHH
C       0.1763255795      0.3323400156      0.0269672288
O       1.4428629135      0.4192613955      0.0609575825
O       2.1508791993     -0.7665129227     -0.0362752558
C      -0.6083234662     -0.8622853498     -0.0071345041
C      -0.3268656441     -2.1598325414      0.0209592998
C      -0.5265503399      1.7330792503     -0.0650302411
H      -1.6688871218     -0.6125070473      0.1474802540
H       0.7296894111     -2.4019686228     -0.2583077708
H      -1.0325775552     -2.9845285387      0.1091395738
H       0.2249405184      2.5203332705      0.0516759411
H      -1.2294553683      1.8995659366      0.7550703657
H      -1.2117562302      1.8637508962     -0.9080086143
12
Frame=26  time=13.500fs  energy=-306.20068298Ha  molecule=COOCCCHHHHHH
C       0.1769267313      0.3307332375      0.0272306289
O       1.4454887020      0.4228012088      0.0633741685
O       2.1506586257     -0.7691107821     -0.0376990496
C      -0.6079935860     -0.8603401977     -0.0057463961
C      -0.3317209760     -2.1638812604      0.0241124005
C      -0.5275708798      1.7328956662     -0.0692451678
H      -1.6640113911     -0.6030532896      0.1467534786
H       0.7324436709     -2.3826336538     -0.2742305480
H      -1.0278743514     -2.9893955516      0.0929425995
H       0.2269693524      2.5147634930      0.0545771439
H      -1.2247801590      1.8972329377      0.7623525336
H      -1.2100467605      1.8791819092     -0.9081308969
12
Frame=27  time=14.000fs  energy=-306.19965865Ha  molecule=COOCCCHHHHHH
C       0.1772667605      0.3307591323      0.0270414015
O       1.4483479401      0.4258834686      0.0657848370
O       2.1504136552     -0.7715010013     -0.0390863800
C      -0.6081873487     -0.8580837299     -0.0042007140
C      -0.3362742076     -2.1683229875      0.0271422120
C      -0.5286018024      1.7320620575     -0.0729059052
H      -1.6600484858     -0.5943435473      0.1460109390
H       0.7349192106     -2.3649078639     -0.2892498833
H      -1.0227378881     -2.9952994252      0.0766254453
H       0.2301560401      2.5078226451      0.0557266965
H      -1.2202227685      1.8950833857      0.7702409406
H      -1.2060619774      1.8924213277     -0.9099789209
12
Frame=28  time=14.500fs  energy=-306.19822503Ha  molecule=COOCCCHHHHHH
C       0.1771258119      0.3316346291      0.0257483253
O       1.4514547587      0.4286700084      0.0682297582
O       2.1502499776     -0.7737144748     -0.0404141225
C      -0.6095270432     -0.8555632472     -0.0024043014
C      -0.3395021262     -2.1721075181      0.0301021281
C      -0.5293829673      1.7305212562     -0.0752793973
H      -1.6582290960     -0.5894587572      0.1454732971
H       0.7363975154     -2.3553173002     -0.3032409120
H      -1.0212391501     -2.9969397731      0.0595069494
H       0.2339136209      2.5002819769      0.0536882289
H      -1.2175651696      1.8954375215      0.7772661022
H      -1.1985722831      1.9006674974     -0.9140373923
12
Frame=29  time=15.000fs  energy=-306.19763525Ha  molecule=COOCCCHHHHHH
C       0.1764850387      0.3327316429      0.0232588519
O       1.4544713122      0.4305656837      0.0706871747
O       2.1499952182     -0.7752402137     -0.0416607937
C      -0.6118722274     -0.8527665481      0.0001272097
C      -0.3409326145     -2.1744791696      0.0319977368
C      -0.5292989199      1.7284402310     -0.0762249935
H      -1.6588272834     -0.5905423687      0.1434435566
H       0.7364620899     -2.3569614701     -0.3132258970
H      -1.0262597691     -2.9907193636      0.0465115112
H       0.2363764931      2.4946544115      0.0482605350
H      -1.2174641650      1.8972450859      0.7825822578
H      -1.1877932784      1.9017837065     -0.9199554656
12
Frame=30  time=15.500fs  energy=-306.19861712Ha  molecule=COOCCCHHHHHH
C       0.1755175805      0.3341905882      0.0200877053
O       1.4568625372      0.4306921584      0.0731391259
O       2.1493856218     -0.7754669961     -0.0428392306
C      -0.6144958168     -0.8495239849      0.0034831494
C      -0.3408913184     -2.1756371821      0.0316739841
C      -0.5278483576      1.7260124191     -0.0763177954
H      -1.6609673876     -0.5958636521      0.1412287924
H       0.7352094290     -2.3681065028     -0.3140516490
H      -1.0369390478     -2.9781115698      0.0426074456
H       0.2360040026      2.4931003010      0.0407607748
H      -1.2187315591      1.8967887149      0.7864405349
H      -1.1753463411      1.8959499724     -0.9268220927
12
Frame=31  time=16.000fs  energy=-306.20057280Ha  molecule=COOCCCHHHHHH
C       0.1744817927      0.3360680999      0.0167186523
O       1.4582690574      0.4287715913      0.0755717355
O       2.1483141214     -0.7742745712     -0.0439702648
C      -0.6163999667     -0.8457599161      0.0073984021
C      -0.3402335163     -2.1762080428      0.0291003825
C      -0.5252447492      1.7234161435     -0.0760771383
H      -1.6631617714     -0.6012260176      0.1404341974
H       0.7331269273     -2.3830705905     -0.3048260716
H      -1.0505053367     -2.9633833236      0.0476750832
H       0.2330918853      2.4954818268      0.0323747319
H      -1.2199133180      1.8925354901      0.7893575827
H      -1.1625578431      1.8854912276     -0.9342200446
12
Frame=32  time=16.500fs  energy=-306.20159748Ha  molecule=COOCCCHHHHHH
C       0.1734923601      0.3383315921      0.0132047364
O       1.4592547578      0.4258334739      0.0779872276
O       2.1469774275     -0.7723590982     -0.0450640683
C      -0.6181847412     -0.8419042192      0.0114103977
C      -0.3390733317     -2.1764284038      0.0254079592
C      -0.5220851187      1.7207170047     -0.0755089801
H      -1.6662277481     -0.6062559515      0.1421838323
H       0.7303864563     -2.4000316294     -0.2893721064
H      -1.0661013326     -2.9483821080      0.0563478771
H       0.2291300326      2.5001709561      0.0231835101
H      -1.2203941926      1.8859059127      0.7913183173
H      -1.1495594215      1.8725251117     -0.9425504413
12
Frame=33  time=17.000fs  energy=-306.20235623Ha  molecule=COOCCCHHHHHH
C       0.1725753705      0.3409522918      0.0096034881
O       1.4601602710      0.4226667262      0.0803305519
O       2.1455830561     -0.7702978947     -0.0461075583
C      -0.6201883681     -0.8382473784      0.0155153783
C      -0.3374490197     -2.1763413791      0.0214598165
C      -0.5189119893      1.7178529689     -0.0745422627
H      -1.6707763334     -0.6105337808      0.1439450284
H       0.7269920346     -2.4179184386     -0.2725658298
H      -1.0834253598     -2.9343115691      0.0656841067
H       0.2257212678      2.5053644078      0.0131289925
H      -1.2195550327      1.8783429048      0.7921054872
H      -1.1363281169      1.8588233837     -0.9522938851
12
Frame=34  time=17.500fs  energy=-306.20327389Ha  molecule=COOCCCHHHHHH
C       0.1717872203      0.3439880693      0.0059258292
O       1.4609425256      0.4192407351      0.0825737991
O       2.1441239826     -0.7680804170     -0.0470850668
C      -0.6224262412     -0.8349059778      0.0197135351
C      -0.3353068881     -2.1758162789      0.0172406617
C      -0.5157437579      1.7148101645     -0.0731024197
H      -1.6770467368     -0.6137926838      0.1456952403
H       0.7227907716     -2.4368235506     -0.2543095179
H      -1.1026408858     -2.9214938334      0.0756872157
H       0.2230315413      2.5110224082      0.0021535414
H      -1.2170164750      1.8697015310      0.7912010068
H      -1.1229676978      1.8443447590     -0.9635977227
12
Frame=35  time=18.000fs  energy=-306.20427660Ha  molecule=COOCCCHHHHHH
C       0.1712019912      0.3474800893      0.0021968608
O       1.4615451604      0.4155344166      0.0846820035
O       2.1425961509     -0.7657062836     -0.0479781223
C      -0.6249163633     -0.8320185337      0.0239949393
C      -0.3326462764     -2.1747166227      0.0127488976
C      -0.5125903980      1.7115932586     -0.0711567465
H      -1.6850099973     -0.6157845701      0.1474076513
H       0.7177349778     -2.4568172212     -0.2345672905
H      -1.1235497975     -2.9100192381      0.0863146053
H       0.2211504750      2.5169524180     -0.0097288070
H      -1.2125672865      1.8599146554      0.7882261239
H      -1.1095566863      1.8290681359     -0.9763533788
12
Frame=36  time=18.500fs  energy=-306.20514712Ha  molecule=COOCCCHHHHHH
C       0.1709049517      0.3514312630     -0.0015399629
O       1.4619025769      0.4115467007      0.0866147615
O       2.1410010778     -0.7631918485     -0.0487668920
C      -0.6276790365     -0.8297231954      0.0283350081
C      -0.3295566103     -2.1729308135      0.0080063456
C      -0.5094415981      1.7082350627     -0.0687537980
H      -1.6942025138     -0.6163487286      0.1490514166
H       0.7120064010     -2.4779188154     -0.2134128869
H      -1.1453847255     -2.8995560193      0.0974512440
H       0.2200217844      2.5227493811     -0.0223917178
H      -1.2063642336      1.8490650321      0.7831889620
H      -1.0961089894      1.8130099981     -0.9900554911
12
Frame=37  time=19.000fs  energy=-306.20559837Ha  molecule=COOCCCHHHHHH
C       0.1709724287      0.3557794936     -0.0052228691
O       1.4619537134      0.4073092106      0.0883326877
O       2.1393489417     -0.7605760494     -0.0494340854
C      -0.6307267039     -0.8281132047      0.0326918895
C      -0.3262387073     -2.1704157960      0.0030678964
C      -0.5062583131      1.7047998445     -0.0660521008
H      -1.7036765189     -0.6154967714      0.1505937438
H       0.7061103485     -2.5000458376     -0.1910804435
H      -1.1667583009     -2.8892740664      0.1088888236
H       0.2194108060      2.5278211902     -0.0355650430
H      -1.1990909009      1.8374486937      0.7767083015
H      -1.0825726529      1.7962537009     -1.0037694566
12
Frame=38  time=19.500fs  energy=-306.20550644Ha  molecule=COOCCCHHHHHH
C       0.1714430001      0.3603885210     -0.0087812576
O       1.4616624849      0.4028899099      0.0898075374
O       2.1376593633     -0.7579181785     -0.0499700397
C      -0.6340461468     -0.8271902568      0.0370110820
C      -0.3229670097     -2.1672251673     -0.0019799888
C      -0.5029804338      1.7013696931     -0.0632987279
H      -1.7122314009     -0.6134479007      0.1520045372
H       0.7007724536     -2.5229631610     -0.1679641986
H      -1.1859944232     -2.8780792101      0.1203414626
H       0.2189807479      2.5315679342     -0.0488587015
H      -1.1918729857      1.8255533577      0.7699682228
H      -1.0688893515      1.7789681130     -1.0163421972
12
Frame=39  time=20.000fs  energy=-306.20501483Ha  molecule=COOCCCHHHHHH
C       0.1723017366      0.3650752381     -0.0121514101
O       1.4610298481      0.3983792326      0.0910288909
O       2.1359578389     -0.7552850317     -0.0503750427
C      -0.6375861753     -0.8268578386      0.0412372455
C      -0.3199928881     -2.1634879489     -0.0070369931
C      -0.4995521378      1.6980180788     -0.0607499761
H      -1.7188621761     -0.6105542962      0.1532612697
H       0.6966019455     -2.5462761595     -0.1445379085
H      -1.2017465788     -2.8651105362      0.1315046376
H       0.2184556706      2.5336230126     -0.0618519954
H      -1.1858907695      1.8139230868      0.7642938197
H      -1.0550853423      1.7613910584     -1.0267898597
12
Frame=40  time=20.500fs  energy=-306.20434998Ha  molecule=COOCCCHHHHHH
C       0.1734906544      0.3696552894     -0.0152869518
O       1.4600877524      0.3938682644      0.0920022563
O       2.1342702104     -0.7527366229     -0.0506570381
C      -0.6412616986     -0.8269622316      0.0453247178
C      -0.3174633406     -2.1593528098     -0.0120102397
C      -0.4959449755      1.6947913875     -0.0585905175
H      -1.7230845637     -0.6071685674      0.1543503572
H       0.6937910507     -2.5694827271     -0.1212511210
H      -1.2134260656     -2.8501115594      0.1421145108
H       0.2177336071      2.5339568834     -0.0741845220
H      -1.1819651867      1.8030053106      0.7606478498
H      -1.0413306097      1.7437893955     -1.0345845971
12
Frame=41  time=21.000fs  energy=-306.20363534Ha  molecule=COOCCCHHHHHH
C       0.1749312767      0.3739747392     -0.0181599127
O       1.4588844815      0.3894344544      0.0927428098
O       2.1326189068     -0.7503193452     -0.0508277370
C      -0.6449693281     -0.8273411623      0.0492411206
C      -0.3154091828     -2.1549455799     -0.0168253061
C      -0.4921636873      1.6917079706     -0.0569013204
H      -1.7249538109     -0.6035571623      0.1552650393
H       0.6920961838     -2.5920544080     -0.0984718506
H      -1.2211961290     -2.8334368841      0.1519720867
H       0.2168819088      2.5328080898     -0.0855957228
H      -1.1803856421      1.7930790963      0.7593915267
H      -1.0279365923      1.7264265533     -1.0396988840
12
Frame=42  time=21.500fs  energy=-306.20289347Ha  molecule=COOCCCHHHHHH
C       0.1765421381      0.3779230832     -0.0207586968
O       1.4574738132      0.3851366389      0.0932712433
O       2.1310212966     -0.7480648137     -0.0509003830
C      -0.6486055980     -0.8278518661      0.0529672172
C      -0.3137805873     -2.1503582395     -0.0214285057
C      -0.4882398647      1.6887658593     -0.0556709249
H      -1.7248994389     -0.5998849992      0.1560029343
H       0.6910366214     -2.6135200520     -0.0764728757
H      -1.2257213547     -2.8158202668      0.1609444976
H       0.2160667885      2.5305572136     -0.0959302237
H      -1.1809642143      1.7842568280      0.7603286982
H      -1.0152913725      1.7095401242     -1.0424873948
12
Frame=43  time=22.000fs  energy=-306.20213319Ha  molecule=COOCCCHHHHHH
C       0.1782491702      0.3814393086     -0.0230878780
O       1.4559095415      0.3810131448      0.0936128276
O       2.1294886445     -0.7459894182     -0.0508893130
C      -0.6520850311     -0.8283825230      0.0564971446
C      -0.3124899310     -2.1456559487     -0.0257877669
C      -0.4842214337      1.6859504413     -0.0548263763
H      -1.7235241497     -0.5962357052      0.1565651823
H       0.6901256143     -2.6335431730     -0.0554273158
H      -1.2278884493     -2.7980894546      0.1689663326
H       0.2154733167      2.5276160815     -0.1051400066
H      -1.1832012712      1.7765134813      0.7629048781
H      -1.0037451707      1.6933151394     -1.0435069937
12
Frame=44  time=22.500fs  energy=-306.20139651Ha  molecule=COOCCCHHHHHH
C       0.1799929176      0.3845145660     -0.0251685266
O       1.4542416139      0.3770805543      0.0937971358
O       2.1280252866     -0.7440938008     -0.0508098696
C      -0.6553552708     -0.8288572128      0.0598388816
C      -0.3114444691     -2.1408866688     -0.0298937844
C      -0.4801604115      1.6832403351     -0.0542683918
H      -1.7214262367     -0.5926377897      0.1569566880
H       0.6890238890     -2.6519766067     -0.0354033765
H      -1.2285734306     -2.7809254837      0.1760428586
H       0.2152403968      2.5243419832     -0.1132836790
H      -1.1864853271      1.7697241841      0.7664541521
H      -0.9934971602      1.6778556276     -1.0433389781
12
Frame=45  time=23.000fs  energy=-306.20017319Ha  molecule=COOCCCHHHHHH
C       0.1817332772      0.3871872617     -0.0270359894
O       1.4525123222      0.3733348604      0.0938564675
O       2.1266287288     -0.7423641621     -0.0506777509
C      -0.6584036865     -0.8292365856      0.0630128815
C      -0.3105657444     -2.1360869746     -0.0337588247
C      -0.4761012996      1.6806119179     -0.0539004856
H      -1.7190754439     -0.5890867124      0.1571861696
H       0.6875878528     -2.6688714006     -0.0163691215
H      -1.2284826126     -2.7647234279      0.1822449403
H       0.2154263318      2.5209841513     -0.1205093796
H      -1.1902659083      1.7637065781      0.7704054989
H      -0.9845454362      1.6631716206     -1.0424653335
12
Frame=46  time=23.500fs  energy=-306.19772778Ha  molecule=COOCCCHHHHHH
C       0.1834408864      0.3893056791     -0.0285293018
O       1.4509402997      0.3701846536      0.0938294334
O       2.1254399949     -0.7411632028     -0.0505326160
C      -0.6608734384     -0.8294605707      0.0655731133
C      -0.3102060126     -2.1314783433     -0.0362505122
C      -0.4729059257      1.6778979131     -0.0538859317
H      -1.7160296054     -0.5835586660      0.1581228959
H       0.6860975274     -2.6816869920     -0.0024122221
H      -1.2268197327     -2.7512143765      0.1824485427
H       0.2182323630      2.5146769167     -0.1264899570
H      -1.1933214407      1.7600630956      0.7750851466
H      -0.9769749474      1.6526892958     -1.0413315858
12
Frame=47  time=24.000fs  energy=-306.19731323Ha  molecule=COOCCCHHHHHH
C       0.1852703750      0.3909530442     -0.0290380441
O       1.4496961629      0.3685036528      0.0936906530
O       2.1246594123     -0.7411515094     -0.0504149324
C      -0.6626419808     -0.8297765637      0.0672699712
C      -0.3110500394     -2.1277736413     -0.0364310638
C      -0.4711316664      1.6752323237     -0.0548673131
H      -1.7117844427     -0.5734094995      0.1583570031
H       0.6852623452     -2.6854918964      0.0016654971
H      -1.2210571724     -2.7440820955      0.1734615535
H       0.2248852990      2.5039100395     -0.1298837300
H      -1.1937645068      1.7579214089      0.7813917782
H      -0.9720303165      1.6503705759     -1.0395464150
12
Frame=48  time=24.500fs  energy=-306.19893320Ha  molecule=COOCCCHHHHHH
C       0.1873714017      0.3922673441     -0.0284491649
O       1.4489983534      0.3686283717      0.0934259402
O       2.1242703256     -0.7424836763     -0.0503268372
C      -0.6641839777     -0.8304663579      0.0682711633
C      -0.3131426750     -2.1252485773     -0.0345007994
C      -0.4706223247      1.6728489625     -0.0569408889
H      -1.7069320827     -0.5589589501      0.1566527669
H       0.6853292621     -2.6795505568     -0.0041113953
H      -1.2106422772     -2.7442844812      0.1566752014
H       0.2346315251      2.4898016569     -0.1304992952
H      -1.1913559932      1.7562260813      0.7892440833
H      -0.9700614347      1.6560201327     -1.0369523774
12
Frame=49  time=25.000fs  energy=-306.19986523Ha  molecule=COOCCCHHHHHH
C       0.1898428142      0.3930954219     -0.0272173619
O       1.4491589491      0.3702424746      0.0930481767
O       2.1239866481     -0.7447143630     -0.0502350032
C      -0.6658320491     -0.8321037635      0.0690794938
C      -0.3163546674     -2.1232484023     -0.0316969409
C      -0.4705995172      1.6711252684     -0.0595758011
H      -1.7031227068     -0.5476899677      0.1525928546
H       0.6861322468     -2.6640807613     -0.0148984903
H      -1.1986776219     -2.7485309106      0.1373619647
H       0.2449727954      2.4759163425     -0.1294452634
H      -1.1876703548      1.7543195830      0.7973196703
H      -0.9705193843      1.6654562182     -1.0337074425
12
Frame=50  time=25.500fs  energy=-306.20027497Ha  molecule=COOCCCHHHHHH
C       0.1925864576      0.3933519827     -0.0258786654
O       1.4500223679      0.3725802971      0.0926081778
O       2.1236139743     -0.7472680329     -0.0501175585
C      -0.6674671056     -0.8344539495      0.0697955765
C      -0.3202833613     -2.1213115552     -0.0287804018
C      -0.4706775329      1.6699915511     -0.0621835084
H      -1.7008052462     -0.5413994197      0.1484139739
H       0.6872662255     -2.6418522546     -0.0261683967
H      -1.1872100663     -2.7546653017      0.1177357366
H       0.2549428464      2.4636095417     -0.1279054747
H      -1.1839423431      1.7529610574      0.8045009256
H      -0.9723908775      1.6755410602     -1.0303992750
12
Frame=51  time=26.000fs  energy=-306.20036782Ha  molecule=COOCCCHHHHHH
C       0.1956016512      0.3923933071     -0.0244280581
O       1.4506819809      0.3751880181      0.0920990588
O       2.1232725457     -0.7499343719     -0.0499707950
C      -0.6690195872     -0.8352255537      0.0704121889
C      -0.3238836471     -2.1203933503     -0.0257608039
C      -0.4707869664      1.6690785660     -0.0647254225
H      -1.7001228121     -0.5369672611      0.1441350956
H       0.6892108196     -2.6172022632     -0.0378798957
H      -1.1783354627     -2.7616763585      0.0978614387
H       0.2647579279      2.4525447321     -0.1258301776
H      -1.1800409430      1.7524511357      0.8103107753
H      -0.9758833213      1.6865316181     -1.0269941366
12
Frame=52  time=26.500fs  energy=-306.20082914Ha  molecule=COOCCCHHHHHH
C       0.1988862774      0.3900878737     -0.0228547501
O       1.4510881332      0.3780884237      0.0915100214
O       2.1229860954     -0.7527314174     -0.0497892035
C      -0.6705361913     -0.8338286962      0.0709170344
C      -0.3270320976     -2.1208224943     -0.0226439418
C      -0.4707924147      1.6681289331     -0.0671574144
H      -1.7015799689     -0.5347743887      0.1397729999
H       0.6920214491     -2.5905312870     -0.0500118640
H      -1.1720828068     -2.7704153981      0.0778000742
H       0.2735915048      2.4436029273     -0.1231435813
H      -1.1761445600      1.7539140468      0.8138406349
H      -0.9816047975      1.6995020441     -1.0231130402
12
Frame=53  time=27.000fs  energy=-306.20126142Ha  molecule=COOCCCHHHHHH
C       0.2019276922      0.3872955912     -0.0211369597
O       1.4515467865      0.3811224726      0.0908222991
O       2.1227643852     -0.7556375139     -0.0495635086
C      -0.6717322399     -0.8320273805      0.0712880096
C      -0.3301073590     -2.1212573325     -0.0194309670
C      -0.4707393636      1.6670975332     -0.0694269999
H      -1.7044886289     -0.5331160420      0.1353438223
H       0.6942932479     -2.5629706370     -0.0625699721
H      -1.1669203764     -2.7817016186      0.0576179250
H       0.2821755474      2.4362423763     -0.1197167943
H      -1.1713576067      1.7565344457      0.8151651356
H      -0.9892386284      1.7135594315     -1.0194934695
12
Frame=54  time=27.500fs  energy=-306.20184687Ha  molecule=COOCCCHHHHHH
C       0.2046318268      0.3839278362     -0.0192469845
O       1.4521035492      0.3842842771      0.0900109521
O       2.1226111911     -0.7586522435     -0.0492812769
C      -0.6725770066     -0.8298386898      0.0714967612
C      -0.3330474359     -2.1216873633     -0.0161255736
C      -0.4707167773      1.6661694260     -0.0714839265
H      -1.7089822590     -0.5317609626      0.1308677892
H       0.6959074566     -2.5343065964     -0.0755548037
H      -1.1632823223     -2.7956386748      0.0374132877
H       0.2909989814      2.4303270585     -0.1153985947
H      -1.1651591471      1.7597858437      0.8141136958
H      -0.9988159883      1.7280410502     -1.0165825390
12
Frame=55  time=28.000fs  energy=-306.20260025Ha  molecule=COOCCCHHHHHH
C       0.2068462343      0.3798925598     -0.0169888230
O       1.4528124292      0.3875700379      0.0889741197
O       2.1225426809     -0.7617854620     -0.0488987027
C      -0.6730240244     -0.8272219317      0.0713449215
C      -0.3358345403     -2.1220940608     -0.0127152626
C      -0.4707138956      1.6653885714     -0.0732671932
H      -1.7150360422     -0.5307307737      0.1265615496
H       0.6966756184     -2.5045674008     -0.0892454840
H      -1.1611485081     -2.8124123854      0.0177991902
H       0.2999271221      2.4261458072     -0.1101325023
H      -1.1574183875      1.7640094114      0.8102429894
H      -1.0103806773      1.7426366971     -1.0144701114
12
Frame=56  time=28.500fs  energy=-306.20345597Ha  molecule=COOCCCHHHHHH
C       0.2083893657      0.3751092960     -0.0141990037
O       1.4537378364      0.3909623375      0.0876179660
O       2.1225774279     -0.7650431097     -0.0483739554
C      -0.6730550840     -0.8241480090      0.0706646544
C      -0.3384793143     -2.1224727607     -0.0092052531
C      -0.4707013211      1.6648198593     -0.0747547345
H      -1.7223294524     -0.5300629035      0.1226129235
H       0.6965283858     -2.4739172765     -0.1038083654
H      -1.1601652500     -2.8318343201     -0.0006305999
H       0.3086552164      2.4238953897     -0.1038633850
H      -1.1481903107      1.7695379309      0.8034189929
H      -1.0237720890      1.7569840975     -1.0130157893
12
Frame=57  time=29.000fs  energy=-306.20416212Ha  molecule=COOCCCHHHHHH
C       0.2090857531      0.3695509057     -0.0108499559
O       1.4549408549      0.3944202085      0.0859026658
O       2.1227324256     -0.7684203352     -0.0476856718
C      -0.6727080909     -0.8206279055      0.0694209060
C      -0.3410429743     -2.1228363464     -0.0056379533
C      -0.4706228767      1.6645456069     -0.0759994166
H      -1.7301368825     -0.5297931379      0.1190736966
H       0.6956898052     -2.4427573284     -0.1190918757
H      -1.1594924758     -2.8530967848     -0.0175581834
H       0.3166670127      2.4235453198     -0.0965491767
H      -1.1378320323      1.7765476465      0.7941146624
H      -1.0385432173      1.7707668541     -1.0117383039
12
Frame=58  time=29.500fs  energy=-306.20440635Ha  molecule=COOCCCHHHHHH
C       0.2088328116      0.3632921947     -0.0070778588
O       1.4564538516      0.3978750107      0.0838606102
O       2.1230164306     -0.7718951477     -0.0468413943
C      -0.6720961862     -0.8167423703      0.0677387056
C      -0.3436435069     -2.1232116901     -0.0020943944
C      -0.4704000480      1.6646453859     -0.0771383978
H      -1.7373748720     -0.5299242517      0.1158375826
H       0.6947938124     -2.4117576056     -0.1345922404
H      -1.1578371195     -2.8747102990     -0.0330222695
H       0.3233166516      2.4247414018     -0.0882340740
H      -1.1270888462      1.7849784848      0.7835656733
H      -1.0539250776      1.7837658691     -1.0098494398
12
Frame=59  time=30.000fs  energy=-306.20416069Ha  molecule=COOCCCHHHHHH
C       0.2076558887      0.3565185304     -0.0030895261
O       1.4582602376      0.4012420033      0.0815648888
O       2.1234252519     -0.7754297244     -0.0458667990
C      -0.6713864860     -0.8126412774      0.0658114886
C      -0.3464178862     -2.1236233169      0.0013326077
C      -0.4699569932      1.6651650019     -0.0783472914
H      -1.7429324312     -0.5303970453      0.1127435597
H       0.6947262265     -2.3817132026     -0.1496834224
H      -1.1538508650     -2.8949046995     -0.0472258606
H       0.3280641244      2.4268948598     -0.0791248776
H      -1.1169794906      1.7945992065      0.7734847528
H      -1.0689563695      1.7958350836     -1.0065116074
12
Frame=60  time=30.500fs  energy=-306.20367027Ha  molecule=COOCCCHHHHHH
C       0.2056934042      0.3494712457      0.0010573729
O       1.4603011372      0.4044421345      0.0790384331
O       2.1239441420     -0.7789806901     -0.0447704501
C      -0.6707425047     -0.8085025172      0.0636839019
C      -0.3494556945     -2.1240735208      0.0045848223
C      -0.4692489333      1.6661011939     -0.0797501703
H      -1.7460884014     -0.5310878139      0.1098111333
H       0.6962084797     -2.3532927175     -0.1640792903
H      -1.1466652301     -2.9123018383     -0.0600095560
H       0.3306840193      2.4294313519     -0.0696304115
H      -1.1085235407      1.8052690648      0.7653924061
H      -1.0827016250      1.8067328138     -1.0012019915
12
Frame=61  time=31.000fs  energy=-306.20316374Ha  molecule=COOCCCHHHHHH
C       0.2031285617      0.3423793932      0.0053035638
O       1.4625016019      0.4074148763      0.0763138157
O       2.1245549019     -0.7825091309     -0.0435664657
C      -0.6702804485     -0.8044879832      0.0614053816
C      -0.3527601840     -2.1245351466      0.0076211583
C      -0.4682686628      1.6674148312     -0.0814061897
H      -1.7466647409     -0.5318302980      0.1070483880
H       0.6994770412     -2.3268962506     -0.1775613236
H      -1.1361092890     -2.9262817220     -0.0713149545
H       0.3312655767      2.4319738026     -0.0601345986
H      -1.1023457714      1.8167689834      0.7602565149
H      -1.0945777024      1.8163545513     -0.9937706755
12
Frame=62  time=31.500fs  energy=-306.20271090Ha  molecule=COOCCCHHHHHH
C       0.2001354137      0.3354293240      0.0095979127
O       1.4647906800      0.4101170802      0.0734230300
O       2.1252409358     -0.7859837110     -0.0422692283
C      -0.6700638192     -0.8007272277      0.0590202100
C      -0.3562559518     -2.1249576073      0.0104134498
C      -0.4670356438      1.6690521921     -0.0833012772
H      -1.7449116658     -0.5324388452      0.1044593472
H       0.7042699066     -2.3026815472     -0.1899687828
H      -1.1225766338     -2.9369019199     -0.0811350264
H       0.3300888008      2.4343612528     -0.0509442037
H      -1.0986156248      1.8288444415      0.7584014945
H      -1.1043836803      1.8246934562     -0.9844370524
12
Frame=63  time=32.000fs  energy=-306.20226566Ha  molecule=COOCCCHHHHHH
C       0.1968619936      0.3287638021      0.0138986915
O       1.4671078945      0.4125189610      0.0703944908
O       2.1259882686     -0.7893799433     -0.0408917130
C      -0.6701164719     -0.7973174754      0.0565654740
C      -0.3598205150     -2.1252785135      0.0129424496
C      -0.4655857156      1.6709563331     -0.0853601030
H      -1.7413350844     -0.5327280356      0.1020472760
H       0.7100148494     -2.2806450684     -0.2011837475
H      -1.1067988032     -2.9446558508     -0.0894877593
H       0.3275267905      2.4365903159     -0.0422879301
H      -1.0971165421      1.8412245028      0.7596091794
H      -1.1122300079      1.8318048512     -0.9737155214
12
Frame=64  time=32.500fs  energy=-306.20173023Ha  molecule=COOCCCHHHHHH
C       0.1934316342      0.3224825979      0.0181727851
O       1.4694040683      0.4146056953      0.0672544378
O       2.1267845534     -0.7926804102     -0.0394463527
C      -0.6704340124     -0.7943201870      0.0540719219
C      -0.3633207575     -2.1254385198      0.0151997121
C      -0.4639662315      1.6730696141     -0.0874722197
H      -1.7365598073     -0.5325393462      0.0998124324
H       0.7160611395     -2.2606701268     -0.2111395877
H      -1.0896522964     -2.9502611301     -0.0964267055
H       0.3239967662      2.4387510284     -0.0343196772
H      -1.0973643946      1.8536406676      0.7632842682
H      -1.1184334508      1.8377915935     -0.9622766583
12
Frame=65  time=33.000fs  energy=-306.20074619Ha  molecule=COOCCCHHHHHH
C       0.1899669544      0.3167822225      0.0223861686
O       1.4716554400      0.4161253733      0.0640398886
O       2.1274924733     -0.7956572109     -0.0379482929
C      -0.6709886780     -0.7921096144      0.0515168768
C      -0.3667113184     -2.1251939027      0.0170612234
C      -0.4619813144      1.6754470965     -0.0895311397
H      -1.7310735911     -0.5314609684      0.0985904090
H       0.7216534999     -2.2428183704     -0.2188276312
H      -1.0715533652     -2.9546795493     -0.1017872009
H       0.3190353684      2.4421336391     -0.0271030902
H      -1.0988451309      1.8650345672      0.7685517119
H      -1.1234953116      1.8419721146     -0.9506533435
12
Frame=66  time=33.500fs  energy=-306.19994728Ha  molecule=COOCCCHHHHHH
C       0.1863230216      0.3119835036      0.0264794923
O       1.4736267002      0.4164401184      0.0607764805
O       2.1279565096     -0.7978734503     -0.0364005606
C      -0.6713078879     -0.7914033711      0.0491521342
C      -0.3700295362     -2.1236550136      0.0176809653
C      -0.4592568149      1.6779939227     -0.0914127235
H      -1.7245731579     -0.5284509964      0.0986585297
H       0.7256525894     -2.2285333991     -0.2206879477
H      -1.0528248038     -2.9579547712     -0.1020610458
H       0.3118926945      2.4482073718     -0.0207312814
H      -1.1011039859      1.8741415063      0.7745166909
H      -1.1276759475      1.8430346413     -0.9392530662
12
Frame=67  time=34.000fs  energy=-306.19979363Ha  molecule=COOCCCHHHHHH
C       0.1825787298      0.3076779905      0.0304336458
O       1.4747134758      0.4151662071      0.0574731206
O       2.1282211438     -0.7991218580     -0.0348068213
C      -0.6709764873     -0.7904954531      0.0471365422
C      -0.3728196329     -2.1214839885      0.0167919943
C      -0.4558212369      1.6804305772     -0.0930453279
H      -1.7176545529     -0.5251107313      0.0994259560
H       0.7285736470     -2.2181576058     -0.2159889721
H      -1.0363748604     -2.9587969522     -0.0959335748
H       0.3033603873      2.4562741676     -0.0152222102
H      -1.1038084738      1.8808925680      0.7805637626
H      -1.1312021249      1.8409597650     -0.9283189109
12
Frame=68  time=34.500fs  energy=-306.19971879Ha  molecule=COOCCCHHHHHH
C       0.1785352013      0.3037390905      0.0342748028
O       1.4747616539      0.4125136746      0.0541328129
O       2.1284868129     -0.7996511762     -0.0331775002
C      -0.6696686183     -0.7891283078      0.0454133484
C      -0.3750217509     -2.1184907244      0.0149016172
C      -0.4520169353      1.6824319097     -0.0944203794
H      -1.7102592980     -0.5213728371      0.1000599791
H       0.7302966586     -2.2120662482     -0.2072403855
H      -1.0231269035     -2.9566774468     -0.0853550340
H       0.2949654378      2.4644780293     -0.0104892341
H      -1.1063997625      1.8862851020      0.7865441436
H      -1.1340568656      1.8370485152     -0.9181613413
12
Frame=69  time=35.000fs  energy=-306.19956569Ha  molecule=COOCCCHHHHHH
C       0.1742688861      0.3002575485      0.0379034559
O       1.4740206077      0.4090050062      0.0507785226
O       2.1288847261     -0.7998083030     -0.0315254695
C      -0.6683042731     -0.7874318643      0.0437282229
C      -0.3760097957     -2.1150280760      0.0129074932
C      -0.4485807389      1.6846660538     -0.0954212382
H      -1.7029288958     -0.5138600601      0.1007586969
H       0.7312320565     -2.2120401385     -0.1978592462
H      -1.0139721536     -2.9509682573     -0.0744202908
H       0.2903300214      2.4694308060     -0.0067060392
H      -1.1075971040      1.8881578946      0.7938944000
H      -1.1347902446      1.8285486732     -0.9107599367
12
Frame=70  time=35.500fs  energy=-306.19919361Ha  molecule=COOCCCHHHHHH
C       0.1704939732      0.2980708219      0.0408853773
O       1.4730882305      0.4049660839      0.0474427366
O       2.1293189601     -0.7997104789     -0.0298389778
C      -0.6681458158     -0.7859521140      0.0421497095
C      -0.3756278500     -2.1113195545      0.0108774291
C      -0.4457371523      1.6873328375     -0.0955631086
H      -1.6975100360     -0.5054888016      0.1016332705
H       0.7315459893     -2.2185693504     -0.1878848461
H      -1.0086152810     -2.9422566985     -0.0637813421
H       0.2907543824      2.4699399321     -0.0048781081
H      -1.1086366476      1.8874506263      0.8019254008
H      -1.1326993209      1.8132041529     -0.9067695373
12
Frame=71  time=36.000fs  energy=-306.19972098Ha  molecule=COOCCCHHHHHH
C       0.1696859268      0.2989155297      0.0431443103
O       1.4713162765      0.4003331357      0.0441334981
O       2.1297183427     -0.7994090644     -0.0281173926
C      -0.6696031180     -0.7853731712      0.0406896523
C      -0.3746659892     -2.1072019162      0.0088353332
C      -0.4431916502      1.6894141936     -0.0947402107
H      -1.6957522404     -0.5038414483      0.1026924015
H       0.7308274042     -2.2295423488     -0.1773772482
H      -1.0045745995     -2.9335766108     -0.0536081969
H       0.2961867315      2.4654404303     -0.0051930660
H      -1.1133686531      1.8886748307      0.8067986533
H      -1.1314930944      1.7950449431     -0.9028582143
12
Frame=72  time=36.500fs  energy=-306.20035397Ha  molecule=COOCCCHHHHHH
C       0.1706106644      0.3021192537      0.0450062342
O       1.4689935403      0.3951386761      0.0408366143
O       2.1301088854     -0.7989222681     -0.0263714795
C      -0.6718312518     -0.7852755041      0.0392938866
C      -0.3734408791     -2.1029480441      0.0067620385
C      -0.4408930857      1.6909027274     -0.0916963550
H      -1.6966730593     -0.5062295476      0.1038537885
H       0.7292969158     -2.2425615420     -0.1664291017
H      -1.0013303719     -2.9264586354     -0.0435711956
H       0.3048701798      2.4578781010     -0.0066775034
H      -1.1123128757      1.8896132586      0.8000084410
H      -1.1378132814      1.7769133969     -0.9092320894
12
Frame=73  time=37.000fs  energy=-306.20100974Ha  molecule=COOCCCHHHHHH
C       0.1723260542      0.3057812910      0.0468599163
O       1.4661657304      0.3898193454      0.0375272467
O       2.1305500787     -0.7984217532     -0.0246124565
C      -0.6740210108     -0.7855200290      0.0379014509
C      -0.3709079350     -2.0982800214      0.0046210836
C      -0.4390308184      1.6921018673     -0.0881270835
H      -1.7021639407     -0.5082875858      0.1050217783
H       0.7198671106     -2.2545313087     -0.1550752846
H      -1.0043187731     -2.9250709789     -0.0332208889
H       0.3123071399      2.4521479421     -0.0119385514
H      -1.1083660114      1.8891870125      0.7943786995
H      -1.1401275893      1.7615591107     -0.9191215988
12
Frame=74  time=37.500fs  energy=-306.20204963Ha  molecule=COOCCCHHHHHH
C       0.1746232223      0.3103659238      0.0486787545
O       1.4629832820      0.3842559828      0.0342026900
O       2.1310405053     -0.7978748873     -0.0228347134
C      -0.6765468330     -0.7863560642      0.0365262537
C      -0.3676912492     -2.0936486244      0.0023917725
C      -0.4375181560      1.6927977649     -0.0839542048
H      -1.7099387616     -0.5090419635      0.1061808752
H       0.7102681364     -2.2660748511     -0.1431978759
H      -1.0118347696     -2.9239664225     -0.0224869553
H       0.3190307093      2.4486124195     -0.0217950783
H      -1.1025232219      1.8873071896      0.7890209440
H      -1.1387057768      1.7496426974     -0.9315721258
12
Frame=75  time=38.000fs  energy=-306.20330438Ha  molecule=COOCCCHHHHHH
C       0.1771247837      0.3159480941      0.0503266070
O       1.4596977724      0.3784019530      0.0308624086
O       2.1315901075     -0.7972673975     -0.0210326764
C      -0.6794247189     -0.7877659975      0.0352093850
C      -0.3636925259     -2.0891070658      0.0000547439
C      -0.4362339802      1.6930980469     -0.0794093475
H      -1.7201489004     -0.5080872169      0.1072640572
H       0.7007812944     -2.2774475159     -0.1306658860
H      -1.0244258618     -2.9231911450     -0.0113597863
H       0.3265593821      2.4469535764     -0.0334449602
H      -1.0959598026      1.8853744084      0.7830195738
H      -1.1355514511      1.7387399186     -0.9445001742
12
Frame=76  time=38.500fs  energy=-306.20450179Ha  molecule=COOCCCHHHHHH
C       0.1798631638      0.3223264686      0.0517401291
O       1.4562788608      0.3722962096      0.0275088160
O       2.1322151336     -0.7966318938     -0.0192014628
C      -0.6826579188     -0.7895326694      0.0339814576
C      -0.3590697407     -2.0845738034     -0.0023985779
C      -0.4353053760      1.6931757608     -0.0745831487
H      -1.7325344265     -0.5065134541      0.1082120500
H       0.6917845537     -2.2900542819     -0.1173934928
H      -1.0406402495     -2.9231708290      0.0001386950
H       0.3352824537      2.4474072412     -0.0472893106
H      -1.0891510982      1.8830321994      0.7773582730
H      -1.1293953407      1.7285691097     -0.9570364460
12
Frame=77  time=39.000fs  energy=-306.20527663Ha  molecule=COOCCCHHHHHH
C       0.1827322578      0.3294799185      0.0528629255
O       1.4527806089      0.3659578328      0.0241493048
O       2.1329309711     -0.7959961102     -0.0173403533
C      -0.6863672426     -0.7915539545      0.0328716466
C      -0.3540162931     -2.0802749885     -0.0049532158
C      -0.4347150451      1.6930603659     -0.0696970262
H      -1.7459369676     -0.5046268000      0.1089476849
H       0.6848659988     -2.3041914466     -0.1033996795
H      -1.0592373320     -2.9221810148      0.0118784036
H       0.3446840707      2.4499142066     -0.0634615201
H      -1.0831381575      1.8805977736      0.7735047808
H      -1.1189674737      1.7192662656     -0.9676334231
12
Frame=78  time=39.500fs  energy=-306.20558316Ha  molecule=COOCCCHHHHHH
C       0.1855499087      0.3372322018      0.0536632732
O       1.4492967704      0.3594573400      0.0207952991
O       2.1337452760     -0.7954014744     -0.0154539684
C      -0.6906271961     -0.7936360905      0.0318985469
C      -0.3488938621     -2.0764899835     -0.0075685623
C      -0.4343450869      1.6928518116     -0.0650286238
H      -1.7586156288     -0.5029284677      0.1093928315
H       0.6819512895     -2.3200378664     -0.0888290159
H      -1.0779738497     -2.9179248075      0.0236304947
H       0.3537018416      2.4538013856     -0.0816937489
H      -1.0791334426      1.8785298233      0.7730790826
H      -1.1035490354      1.7108963903     -0.9748543246
12
Frame=79  time=40.000fs  energy=-306.20571834Ha  molecule=COOCCCHHHHHH
C       0.1880991704      0.3453047112      0.0541351783
O       1.4459384731      0.3528967604      0.0174597092
O       2.1346588532     -0.7948938693     -0.0135503959
C      -0.6954386241     -0.7955490309      0.0310686186
C      -0.3440675002     -2.0734687531     -0.0101892718
C      -0.4340192917      1.6926868491     -0.0607654248
H      -1.7688592638     -0.5019544001      0.1094820211
H       0.6843234228     -2.3375088483     -0.0739058291
H      -1.0944938210     -2.9084186959      0.0351218454
H       0.3610930509      2.4580885024     -0.1013994035
H      -1.0778820495      1.8772554997      0.7770127699
H      -1.0834334392      1.7035169007     -0.9781619075
12
Frame=80  time=40.500fs  energy=-306.20581909Ha  molecule=COOCCCHHHHHH
C       0.1901570549      0.3533838294      0.0542843813
O       1.4428184731      0.3463882984      0.0141555630
O       2.1356712104     -0.7945189644     -0.0116385849
C      -0.7007301956     -0.7970721962      0.0303823743
C      -0.3397352295     -2.0713869022     -0.0127557029
C      -0.4335574502      1.6927018934     -0.0569315638
H      -1.7754659116     -0.5021439290      0.1091594793
H       0.6917347099     -2.3561340720     -0.0588798690
H      -1.1071842671     -2.8926901757      0.0460714319
H       0.3657625140      2.4618664054     -0.1218430769
H      -1.0793570343      1.8770715114      0.7851770150
H      -1.0598821875      1.6972563175     -0.9781385840
12
Frame=81  time=41.000fs  energy=-306.20566756Ha  molecule=COOCCCHHHHHH
C       0.1915075429      0.3611482148      0.0541216410
O       1.4400443673      0.3400467829      0.0108956692
O       2.1367827037     -0.7943214842     -0.0097274770
C      -0.7063488957     -0.7980197888      0.0298374270
C      -0.3358773468     -2.0703140726     -0.0152070546
C      -0.4328074494      1.6930139008     -0.0534178454
H      -1.7780487391     -0.5037626259      0.1083751305
H       0.7023207119     -2.3750645176     -0.0440084334
H      -1.1155834138     -2.8711263111      0.0561993737
H       0.3669560655      2.4645162126     -0.1422199570
H      -1.0828811549      1.8781488042      0.7965468400
H      -1.0348127052      1.6923048057     -0.9761638118
12
Frame=82  time=41.500fs  energy=-306.20499637Ha  molecule=COOCCCHHHHHH
C       0.1919842820      0.3683025389      0.0536703786
O       1.4376980250      0.3339774541      0.0076906902
O       2.1379903861     -0.7943380869     -0.0078257701
C      -0.7120541539     -0.7982825819      0.0294244807
C      -0.3323211110     -2.0701644242     -0.0174876798
C      -0.4316820183      1.6936966092     -0.0500418123
H      -1.7772508948     -0.5068244680      0.1070980545
H       0.7134483643     -2.3933081738     -0.0295370083
H      -1.1204405061     -2.8455206015      0.0652657043
H       0.3645357688      2.4658956170     -0.1617217979
H      -1.0873555205      1.8805233061      0.8094805483
H      -1.0103960344      1.6888116727     -0.9739246222
12
Frame=83  time=42.000fs  energy=-306.20386996Ha  molecule=COOCCCHHHHHH
C       0.1915396145      0.3746509329      0.0529746525
O       1.4358026085      0.3282487052      0.0045455129
O       2.1392830574     -0.7945834750     -0.0059406313
C      -0.7175774434     -0.7978709541      0.0291231790
C      -0.3288566349     -2.0706963966     -0.0195619670
C      -0.4301919791      1.6947556890     -0.0466173401
H      -1.7745026722     -0.5110814788      0.1053387621
H       0.7228971569     -2.4100979781     -0.0156459638
H      -1.1233101484     -2.8184829213      0.0731489583
H       0.3591491965      2.4663973423     -0.1797071758
H      -1.0915857399      1.8840681117      0.8221595470
H      -0.9884626994      1.6867653372     -0.9728410513
12
Frame=84  time=42.500fs  energy=-306.20264383Ha  molecule=COOCCCHHHHHH
C       0.1902662026      0.3801499394      0.0520930298
O       1.4343129090      0.3228727167      0.0014574579
O       2.1406421273     -0.7950439569     -0.0040760634
C      -0.7227234513     -0.7969026877      0.0289052387
C      -0.3253364396     -2.0716084311     -0.0214251482
C      -0.4284272108      1.6961369897     -0.0430223391
H      -1.7713086314     -0.5161473587      0.1031529968
H       0.7295906902     -2.4251304956     -0.0024032400
H      -1.1257605231     -2.7923424024      0.0798893611
H       0.3519223501      2.4666715190     -0.1958726404
H      -1.0946956969      1.8885347683      0.8332010081
H      -0.9699710004      1.6859660326     -0.9736282529
12
Frame=85  time=43.000fs  energy=-306.20161146Ha  molecule=COOCCCHHHHHH
C       0.1883400836      0.3848815806      0.0510830333
O       1.4331435254      0.3178153988     -0.0015815957
O       2.1420474951     -0.7956864120     -0.0022326717
C      -0.7274152268     -0.7955380112      0.0287425321
C      -0.3217050418     -2.0726491650     -0.0230981489
C      -0.4264969457      1.6977643204     -0.0392225035
H      -1.7687076210     -0.5216569673      0.1006203667
H       0.7335309798     -2.4385168958      0.0102262781
H      -1.1288141997     -2.7684502919      0.0856465612
H       0.3439172347      2.4672469633     -0.2102500882
H      -1.0963376742      1.8936550384      0.8419993424
H      -0.9549708397      1.6861103581     -0.9762943258
12
Frame=86  time=43.500fs  energy=-306.20071667Ha  molecule=COOCCCHHHHHH
C       0.1859467723      0.3889844789      0.0499905882
O       1.4322047092      0.3130216355     -0.0045816451
O       2.1434824584     -0.7964723582     -0.0004087821
C      -0.7316661822     -0.7939220650      0.0286126364
C      -0.3179708915     -2.0736589157     -0.0246138535
C      -0.4244873938      1.6995696475     -0.0352479347
H      -1.7672149167     -0.5273443720      0.0978199701
H       0.7353062071     -2.4505805473      0.0223337903
H      -1.1329124516     -2.7472389471      0.0906230914
H       0.3358455174      2.4683853736     -0.2230692334
H      -1.0965966889      1.8992137134      0.8486102387
H      -0.9429536411      1.6868912006     -0.9804354606
12
Frame=87  time=44.000fs  energy=-306.19976296Ha  molecule=COOCCCHHHHHH
C       0.1827996401      0.3925364966      0.0488333112
O       1.4317117656      0.3084289473     -0.0075500981
O       2.1449411685     -0.7973466554      0.0013993865
C      -0.7354438109     -0.7920780009      0.0285021858
C      -0.3133806901     -2.0745699485     -0.0260069048
C      -0.4222228604      1.7016624877     -0.0301826952
H      -1.7672438328     -0.5325346444      0.0948226941
H       0.7284388218     -2.4599215415      0.0340332964
H      -1.1403138446     -2.7309130121      0.0950043668
H       0.3293827826      2.4691822391     -0.2336824905
H      -1.0930287938      1.9041164829      0.8456738989
H      -0.9402562334      1.6877895292     -0.9902046881
12
Frame=88  time=44.500fs  energy=-306.19948562Ha  molecule=COOCCCHHHHHH
C       0.1789681094      0.3932495007      0.0474450643
O       1.4315266150      0.3045443061     -0.0104924653
O       2.1463896337     -0.7984749948      0.0031902925
C      -0.7381080907     -0.7894553156      0.0284407559
C      -0.3091551116     -2.0743039942     -0.0272897975
C      -0.4197034074      1.7053143366     -0.0256950328
H      -1.7700026440     -0.5380645302      0.0915814746
H       0.7204759685     -2.4725030805      0.0453659489
H      -1.1460718085     -2.7214587688      0.0987995510
H       0.3261130363      2.4694832577     -0.2353368691
H      -1.0909892861      1.9117569650      0.8396235299
H      -0.9455687310      1.6816406921     -0.9970238112
12
Frame=89  time=45.000fs  energy=-306.20013942Ha  molecule=COOCCCHHHHHH
C       0.1753780511      0.3909684809      0.0459008164
O       1.4315563231      0.3018156779     -0.0134103767
O       2.1477730146     -0.8000722122      0.0049641692
C      -0.7391095065     -0.7867545828      0.0284107691
C      -0.3053635233     -2.0719061190     -0.0284634048
C      -0.4172980419      1.7107005735     -0.0216707494
H      -1.7884446991     -0.5424727871      0.0881290099
H       0.7182704336     -2.4888689066      0.0563197189
H      -1.1573164754     -2.7302087019      0.1020505914
H       0.3235732710      2.4709923117     -0.2306012365
H      -1.0886584050      1.9214693183      0.8331405924
H      -0.9550290188      1.6708473842     -1.0030801910
12
Frame=90  time=45.500fs  energy=-306.19948433Ha  molecule=COOCCCHHHHHH
C       0.1719895093      0.3879933233      0.0446999996
O       1.4320797998      0.3001126428     -0.0163197610
O       2.1491431454     -0.8021997015      0.0067049874
C      -0.7400960270     -0.7847551174      0.0283233929
C      -0.3022895332     -2.0697708650     -0.0295256975
C      -0.4149662501      1.7167258769     -0.0181708212
H      -1.8077047839     -0.5482353051      0.0843943097
H       0.7164210178     -2.4992686003      0.0666775991
H      -1.1677284914     -2.7425977976      0.1050827612
H       0.3211825798      2.4752210106     -0.2239789670
H      -1.0855215379      1.9300799884      0.8263816718
H      -0.9665933017      1.6617435044     -1.0077474742
12
Frame=91  time=46.000fs  energy=-306.19959758Ha  molecule=COOCCCHHHHHH
C       0.1689194016      0.3845594369      0.0444530403
O       1.4327227649      0.2989396236     -0.0192525039
O       2.1503966391     -0.8046293839      0.0083877455
C      -0.7398722081     -0.7832838835      0.0280749788
C      -0.3009166315     -2.0683703747     -0.0305013409
C      -0.4129837757      1.7233259435     -0.0159241489
H      -1.8253210378     -0.5533367139      0.0802013967
H       0.7153318836     -2.4980922252      0.0762039743
H      -1.1746072269     -2.7609802385      0.1084811765
H       0.3198864543      2.4815953485     -0.2140844679
H      -1.0801161902      1.9357956212      0.8205231364
H      -0.9812873115      1.6571965890     -1.0099173540
12
Frame=92  time=46.500fs  energy=-306.20037887Ha  molecule=COOCCCHHHHHH
C       0.1661493908      0.3807754331      0.0451873825
O       1.4332349154      0.2978127918     -0.0222066307
O       2.1514774681     -0.8070946345      0.0100073744
C      -0.7383052924     -0.7818844226      0.0275935629
C      -0.3010992180     -2.0678876631     -0.0311333649
C      -0.4115298310      1.7302554466     -0.0150201923
H      -1.8398667095     -0.5543812032      0.0754809263
H       0.7149758770     -2.4871434842      0.0838258100
H      -1.1766984196     -2.7853341532      0.1111624383
H       0.3203415508      2.4894511813     -0.2009726214
H      -1.0724043509      1.9389053569      0.8160880556
H      -0.9985601383      1.6577860278     -1.0092487235
12
Frame=93  time=47.000fs  energy=-306.19629699Ha  molecule=COOCCCHHHHHH
C       0.1634055683      0.3765729526      0.0463338918
O       1.4337262425      0.2966365492     -0.0251383585
O       2.1524792819     -0.8095586938      0.0115769300
C      -0.7358762160     -0.7803060876      0.0267913201
C      -0.3021299164     -2.0677608857     -0.0308995580
C      -0.4107836737      1.7370805694     -0.0149050912
H      -1.8512669013     -0.5529007152      0.0708010951
H       0.7149082040     -2.4717601838      0.0880126179
H      -1.1757096737     -2.8115582831      0.1102529470
H       0.3234828926      2.4973350555     -0.1861378313
H      -1.0638468609      1.9422058289      0.8129242341
H      -1.0163390944      1.6621732353     -1.0061555963
12
Frame=94  time=47.500fs  energy=-306.20171670Ha  molecule=COOCCCHHHHHH
C       0.1605634186      0.3722898060      0.0474923533
O       1.4342590459      0.2959210138     -0.0280235683
O       2.1536721706     -0.8123648319      0.0131078926
C      -0.7387447338     -0.7771854402      0.0257095547
C      -0.3042350087     -2.0729907949     -0.0297584008
C      -0.4108058483      1.7434743980     -0.0166937596
H      -1.8001488884     -0.5620649676      0.0664730781
H       0.6843315207     -2.4491555312      0.0889263882
H      -1.1308231381     -2.7890450500      0.1051970746
H       0.3311578666      2.5073320488     -0.1709472030
H      -1.0616618676      1.9474566787      0.8187384384
H      -1.0256189477      1.6668542452     -0.9903923337
12
Frame=95  time=48.000fs  energy=-306.16898327Ha  molecule=COOCCCHHHHHH
C       0.1575919205      0.3677156039      0.0486155109
O       1.4348375422      0.2956522850     -0.0308297629
O       2.1549392605     -0.8154782157      0.0145927609
C      -0.7411853482     -0.7742127283      0.0244981044
C      -0.3069268297     -2.0779805604     -0.0280421560
C      -0.4112269899      1.7495816941     -0.0189915456
H      -1.7491886985     -0.5710064304      0.0623441351
H       0.6571946692     -2.4259695001      0.0878753657
H      -1.0856546186     -2.7674265054      0.0974210463
H       0.3411519970      2.5180682907     -0.1550762258
H      -1.0601917901      1.9536807127      0.8258863959
H      -1.0337818771      1.6734820747     -0.9714999046
12
Frame=96  time=48.500fs  energy=-306.16042364Ha  molecule=COOCCCHHHHHH
C       0.1544156954      0.3625769030      0.0497058264
O       1.4354522343      0.2954818549     -0.0335987842
O       2.1560658117     -0.8186761740      0.0160560199
C      -0.7280496920     -0.7756615726      0.0232878836
C      -0.3078013378     -2.0676832133     -0.0261946705
C      -0.4108094895      1.7560900174     -0.0214279592
H      -1.8703892604     -0.5500767357      0.0580853333
H       0.7200252973     -2.4209631247      0.0863471476
H      -1.1610869428     -2.8820837683      0.0890648342
H       0.3453971759      2.5231880203     -0.1390365993
H      -1.0612697235      1.9608868580      0.8369492929
H      -1.0440200923      1.6815806154     -0.9552861410
12
Frame=97  time=49.000fs  energy=-306.20371125Ha  molecule=COOCCCHHHHHH
C       0.1514874924      0.3579670019      0.0507434056
O       1.4360269262      0.2954573288     -0.0363175247
O       2.1573231561     -0.8219137704      0.0174927105
C      -0.7321567172     -0.7723849832      0.0220875643
C      -0.3114174729     -2.0744174183     -0.0241885865
C      -0.4114889419      1.7619195391     -0.0239722627
H      -1.7978015855     -0.5625617702      0.0536767465
H       0.6863147949     -2.3954427692      0.0842429856
H      -1.0998546185     -2.8432266639      0.0799880181
H       0.3570744120      2.5352636931     -0.1229104939
H      -1.0597208648      1.9672732698      0.8440854544
H      -1.0514131859      1.6896744783     -0.9342560023
12
Frame=98  time=49.500fs  energy=-306.13651356Ha  molecule=COOCCCHHHHHH
C       0.1487245933      0.3534116232      0.0516228614
O       1.4365515723      0.2957475369     -0.0389013051
O       2.1585025872     -0.8253043041      0.0188657504
C      -0.7359565873     -0.7696218842      0.0209352344
C      -0.3159833133     -2.0808954253     -0.0217990390
C      -0.4122401457      1.7674101008     -0.0265938053
H      -1.7251758268     -0.5746083917      0.0489402668
H       0.6592220249     -2.3700467567      0.0807386639
H      -1.0371736131     -2.8033590587      0.0690977350
H       0.3687978243      2.5469295536     -0.1069900457
H      -1.0576822297      1.9737813634      0.8508372342
H      -1.0588735770      1.7006191690     -0.9125628850
12
Frame=99  time=50.000fs  energy=-306.02390082Ha  molecule=COOCCCHHHHHH
C       0.1456824240      0.3481495233      0.0524777586
O       1.4371199413      0.2960432003     -0.0414665766
O       2.1594889251     -0.8287393180      0.0202269924
C      -0.7175687107     -0.7731056281      0.0197837762
C      -0.3176035796     -2.0655174202     -0.0193751405
C      -0.4116783721      1.7735776700     -0.0292003306
H      -1.8997646924     -0.5438322256      0.0441467292
H       0.7592375532     -2.3709476218      0.0771305121
H      -1.1480488373     -2.9589240624      0.0580897770
H       0.3715078478      2.5498787999     -0.0910942391
H      -1.0589937856      1.9814826873      0.8627368680
H      -1.0697532295      1.7129626108     -0.8961269704
12
Frame=100  time=50.500fs  energy=-305.97647737Ha  molecule=COOCCCHHHHHH
C       0.1429492342      0.3438976559      0.0533988100
O       1.4376670956      0.2962816269     -0.0440772134
O       2.1608293491     -0.8320802513      0.0216032803
C      -0.7349237172     -0.7663085588      0.0185996618
C      -0.3238730962     -2.0853930947     -0.0170631438
C      -0.4132991048      1.7787258966     -0.0319627807
H      -1.6764051913     -0.5821761904      0.0394201221
H       0.6543787986     -2.3297594356      0.0739433319
H      -0.9797381954     -2.8002028325      0.0476846052
H       0.3895300524      2.5677263951     -0.0747665002
H      -1.0555339528      1.9873752627      0.8670439008
H      -1.0746062258      1.7220713008     -0.8703474648
12
Frame=101  time=51.000fs  energy=-305.95204803Ha  molecule=COOCCCHHHHHH
C       0.1391122304      0.3376648211      0.0545754178
O       1.4384962024      0.2962654046     -0.0468499450
O       2.1619730558     -0.8354143677      0.0230382246
C      -0.7116475622     -0.7700068829      0.0173039138
C      -0.3242222265     -2.0654809852     -0.0150770584
C      -0.4128348993      1.7855669296     -0.0354115942
H      -1.9054321817     -0.5431112210      0.0349328167
H       0.7786310487     -2.3367225097      0.0719313264
H      -1.1301422404     -3.0018598119      0.0389983997
H       0.3946775467      2.5742003241     -0.0565476477
H      -1.0607009515      1.9960947642      0.8833624943
H      -1.0837380127      1.7291555622     -0.8496145893
12
Frame=102  time=51.500fs  energy=-305.99912201Ha  molecule=COOCCCHHHHHH
C       0.1354831628      0.3324465126      0.0559936643
O       1.4393651397      0.2961857182     -0.0496801960
O       2.1635498434     -0.8386549566      0.0245097878
C      -0.7297035676     -0.7616747582      0.0159228427
C      -0.3300594425     -2.0866447764     -0.0132299985
C      -0.4141800395      1.7917525007     -0.0300656884
H      -1.6732595724     -0.5840853330      0.0306742836
H       0.6652104052     -2.2943125457      0.0704452125
H      -0.9558421525     -2.8380334423      0.0310726592
H       0.4119832206      2.5923851718     -0.0386163075
H      -1.0224517241      1.9944861474      0.8388535390
H      -1.1271705138      1.7414005258     -0.8739573150
12
Frame=103  time=52.000fs  energy=-306.07800035Ha  molecule=COOCCCHHHHHH
C       0.1304236057      0.3272050681      0.0580289368
O       1.4408065323      0.2955448790     -0.0526379247
O       2.1649394342     -0.8418000494      0.0260277389
C      -0.7100141363     -0.7646079518      0.0143622140
C      -0.3296991747     -2.0723983753     -0.0115835001
C      -0.4093689997      1.8005858477     -0.0236729656
H      -1.8675840003     -0.5452265828      0.0267246415
H       0.7680960873     -2.2886061051      0.0696233427
H      -1.0843907490     -2.9989838752      0.0244096983
H       0.3843966122      2.5694111663     -0.0335015370
H      -1.0012256024      1.9906302757      0.8106501996
H      -1.1817172792      1.7670946118     -0.9180352126
12
Frame=104  time=52.500fs  energy=-306.19919597Ha  molecule=COOCCCHHHHHH
C       0.1291588039      0.3255813706      0.0603603923
O       1.4402491951      0.2943932083     -0.0556504789
O       2.1665446789     -0.8447743135      0.0275294088
C      -0.7180755268     -0.7623465807      0.0127421727
C      -0.3317209011     -2.0851469733     -0.0099617542
C      -0.4066560171      1.8064649083     -0.0353017042
H      -1.7691705167     -0.5520291219      0.0227161718
H       0.7240506522     -2.2443224063      0.0687805481
H      -1.0170337438     -2.9195485351      0.0180992561
H       0.3617348328      2.5606790619     -0.0447309261
H      -1.0596295319      1.9986031396      0.8946786373
H      -1.1361128131      1.7906894696     -0.8449206521
12
Frame=105  time=53.000fs  energy=-305.86668892Ha  molecule=COOCCCHHHHHH
C       0.1337936340      0.3257966247      0.0625341098
O       1.4365793837      0.2933200638     -0.0585765453
O       2.1676653158     -0.8476055561      0.0290010894
C      -0.7271569076     -0.7630841865      0.0111777146
C      -0.3339097472     -2.0957907885     -0.0082604310
C      -0.4048367876      1.8105248622     -0.0444670013
H      -1.6723310399     -0.5587799592      0.0186465170
H       0.6800872202     -2.2017768437      0.0677156131
H      -0.9491891506     -2.8394158333      0.0113815960
H       0.3375783795      2.5525991350     -0.0565234336
H      -1.1007231011      2.0077689337      0.9679187291
H      -1.0937291640      1.8203307501     -0.7897471585
12
Frame=106  time=53.500fs  energy=-304.82538655Ha  molecule=COOCCCHHHHHH
C       0.1377500847      0.3245818136      0.0651151477
O       1.4331663831      0.2925616732     -0.0614906255
O       2.1679187692     -0.8502442705      0.0305541640
C      -0.6995587608     -0.7755568497      0.0094611276
C      -0.3313424883     -2.0677856631     -0.0066619024
C      -0.4044592718      1.8121289893     -0.0064856707
H      -1.9804827902     -0.4925704286      0.0151990979
H       0.8476326403     -2.2027401111      0.0671740717
H      -1.1726275242     -3.0912933649      0.0051619077
H       0.3350739933      2.5670014088     -0.0590793084
H      -0.9243085907      1.9787211842      0.7488370050
H      -1.2645509525      1.8857996125     -1.0182476367
12
Frame=107  time=54.000fs  energy=-302.41565733Ha  molecule=COOCCCHHHHHH
C       0.1423755833      0.3283114820      0.0673508341
O       1.4302635273      0.2916771571     -0.0645988169
O       2.1680663205     -0.8521405981      0.0320032582
C      -0.7499211140     -0.7661295572      0.0078641739
C      -0.3397823537     -2.1159216633     -0.0050447592
C      -0.4080175536      1.8090105310     -0.0605766204
H      -1.4243727314     -0.5797126912      0.0107668402
H       0.5717656608     -2.1108123506      0.0661393937
H      -0.7851756613     -2.6615246599     -0.0008823983
H       0.3669076277      2.6068696477     -0.0776287895
H      -1.1529983156      2.0162117159      1.0732636225
H      -1.0036624971      1.8720112928     -0.6685920943
12
Frame=108  time=54.500fs  energy=-293.17744197Ha  molecule=COOCCCHHHHHH
C       0.1449226648      0.3304694632      0.0701124939
O       1.4283526296      0.2903524429     -0.0674506903
O       2.1662271558     -0.8535909879      0.0335984951
C      -0.6606464587     -0.7953845547      0.0060851406
C      -0.3296443071     -2.0261846397     -0.0034750869
C      -0.4026878524      1.8079018023      0.0125642906
H      -2.4312996357     -0.4018132712      0.0077305406
H       1.0949530101     -2.1831473703      0.0658351770
H      -1.4915580491     -3.4704851529     -0.0070372349
H       0.3452975717      2.5867614196     -0.0738836044
H      -0.8230006953      1.9583341373      0.6560121464
H      -1.3409061857      1.9642119932     -1.1276332463
12
Frame=109  time=55.000fs  energy=-247.59875320Ha  molecule=COOCCCHHHHHH
C       0.1510729831      0.3424249190      0.0715431948
O       1.4269641766      0.2894676190     -0.0706167784
O       2.1660570593     -0.8540957529      0.0350078140
C      -0.8512230502     -0.7464919447      0.0046624936
C      -0.3567067692     -2.2100268274     -0.0017994402
C      -0.4134485344      1.7964653563     -0.0910307023
H      -0.3382592951     -0.7660083158      0.0029241222
H       0.0298599018     -1.9299868847      0.0646608314
H      -0.0192426405     -1.8231767235     -0.0136782626
H       0.4383454600      2.6726329673     -0.1026199485
H      -1.2573455546      2.0268393779      1.2538917576
H      -0.8267236676      1.8975444917     -0.4418554959
12
Frame=110  time=55.500fs  energy=4.08150065Ha  molecule=COOCCCHHHHHH
C       0.1493046702      0.3341751224      0.0727306209
O       1.4281183871      0.2889123743     -0.0731483897
O       2.1602542088     -0.8555823637      0.0367896516
C      -0.4316968977     -0.8698711078      0.0030715157
C      -0.2990816224     -1.7893071628     -0.0001195684
C      -0.3873851102      1.8040887400      0.0837277419
H      -5.0767135177      0.0447254886      0.0015365266
H       2.4587802179     -2.4091351008      0.0654177894
H      -3.3471464660     -5.5723036417     -0.0221210644
H       0.2818846537      2.5200909988     -0.0862201620
H      -0.5304651607      1.9139192425      0.3065035683
H      -1.6613457440      2.0771992409     -1.5875903526
12
Frame=111  time=56.000fs  energy=1466.93177309Ha  molecule=COOCCCHHHHHH
C       0.1659824505      0.3728001812      0.0704450079
O       1.4271394680      0.2902223945     -0.0765730963
O       2.1669836937     -0.8550781806      0.0380496192
C      -1.4476375733     -0.5911966291      0.0024309370
C      -0.4340713515     -2.7810456531      0.0018417189
C      -0.4383686964      1.7706598347     -0.2330964379
H       6.1453308552     -1.9074180663     -0.0048423979
H      -3.2934527231     -1.2079747482      0.0636993759
H       4.5513931483      3.3285578064     -0.0316817319
H       0.6444543499      2.8603099453     -0.1596064163
H      -1.8443732706      2.1214395999      2.0498519933
H      -0.0459072160      1.7860100543      0.5813630471
12
Frame=112  time=56.500fs  energy=10166.36534833Ha  molecule=COOCCCHHHHHH
C       0.1379079249      0.3000811107      0.0715361314
O       1.4330783109      0.2892780244     -0.0780219652
O       2.1442328821     -0.8606035037      0.0404649345
C       0.9891882371     -1.2849982793      0.0004932172
C      -0.1012526833     -0.3680302341      0.0035049635
C      -0.2840629181      1.8473412447      0.4242213249
H     -21.1101997357      2.8052161556     -0.0003883500
H      10.6475029834     -4.0943080672      0.0677265635
H     -14.5774300661    -18.2142205553     -0.0428841256
H      -0.3971953110      1.8561247689     -0.0641081043
H       0.7362969783      1.7475481549     -1.3308955017
H      -3.3830408284      2.4492293192     -3.9885892918
12
Frame=113  time=57.000fs  energy=62408.84574178Ha  molecule=COOCCCHHHHHH
C       0.2180088754      0.5012497238      0.0641348564
O       1.4214770342      0.2947562723     -0.0835273708
O       2.1942873402     -0.8523067957      0.0405007777
C      -5.0011168421      0.3853756803      0.0015135003
C      -0.9104695862     -6.2518410751      0.0058956739
C      -0.6504372815      1.6415966001     -0.9625486906
H      45.5530145300     -8.7291311972     -0.0182800917
H     -23.4580184261      2.9630124069      0.0600350255
H      32.2323123211     34.5092218156     -0.0521685787
H       2.1481262110      4.3003325336     -0.3265792835
H      -4.6404456076      2.5239087731      5.7068444291
H       3.9076370975      1.0270572154      5.9306615110
