12
Frame=0  time=0.500fs  energy=-306.20922135Ha  molecule=COOCCCHHHHHH
C       0.1413215238      0.3242428561      0.0002738097
O       1.4221501050      0.3887839540     -0.0035400310
O       2.1697389283     -0.7176099016      0.0008088373
C      -0.6662297453     -0.8493458926      0.0067724129
C      -0.2588428405     -2.1353952917     -0.0002563499
C      -0.5270512367      1.6805078351     -0.0031677358
H      -1.7269740641     -0.6492118245     -0.0206379617
H       0.7870404101     -2.3788273134     -0.0040757764
H      -1.0152208789     -2.9269974670      0.0014849377
H       0.2227063818      2.4792392043      0.0171268349
H      -1.1508043604      1.7609200452      0.8794312609
H      -1.1798262940      1.7591127232     -0.8731416348
12
Frame=1  time=1.000fs  energy=-306.20711715Ha  molecule=COOCCCHHHHHH
C       0.1377631990      0.3141028860      0.0005293898
O       1.4254260932      0.3816721660     -0.0070701205
O       2.1714409708     -0.7143366022      0.0016170669
C      -0.6658414395     -0.8427448324      0.0134402988
C      -0.2600487188     -2.1335524679     -0.0004856510
C      -0.5289541009      1.6885689818     -0.0063128391
H      -1.7227792854     -0.6593044187     -0.0405728156
H       0.7834695193     -2.3709638131     -0.0079073963
H      -1.0260075429     -2.9218547765      0.0027512640
H       0.2303636931      2.4830591958      0.0330188657
H      -1.1382063340      1.7507387149      0.8783006152
H      -1.1941148464      1.7476401671     -0.8644908539
12
Frame=2  time=1.500fs  energy=-306.20501213Ha  molecule=COOCCCHHHHHH
C       0.1346249713      0.3049585310      0.0007556050
O       1.4282871285      0.3747262444     -0.0105864617
O       2.1732035938     -0.7113318030      0.0024247322
C      -0.6653856454     -0.8369127247      0.0199447937
C      -0.2615843593     -2.1315815620     -0.0006719826
C      -0.5302962675      1.6960132483     -0.0093968321
H      -1.7218896792     -0.6677140893     -0.0593950908
H       0.7826159726     -2.3644123153     -0.0113498351
H      -1.0341968753     -2.9152361387      0.0036705491
H       0.2361662709      2.4859008483      0.0469714766
H      -1.1287201530      1.7420760792      0.8808624200
H      -1.2083835520      1.7385332009     -0.8579003977
12
Frame=3  time=2.000fs  energy=-306.20333425Ha  molecule=COOCCCHHHHHH
C       0.1319465421      0.2969039268      0.0009489945
O       1.4306985331      0.3679723233     -0.0140878620
O       2.1750549416     -0.7086116474      0.0032317201
C      -0.6649247338     -0.8318995169      0.0262674740
C      -0.2633875810     -2.1294655819     -0.0008105138
C      -0.5311109011      1.7027629362     -0.0123745742
H      -1.7239241444     -0.6743061496     -0.0769767813
H       0.7838794762     -2.3591356521     -0.0143558552
H      -1.0400999902     -2.9074861541      0.0042047702
H       0.2401539910      2.4879146317      0.0587969467
H      -1.1220740835      1.7348961199      0.8866656799
H      -1.2223856425      1.7318883667     -0.8532205943
12
Frame=4  time=2.500fs  energy=-306.20197604Ha  molecule=COOCCCHHHHHH
C       0.1296979579      0.2898774250      0.0011106933
O       1.4326889089      0.3614083105     -0.0175748403
O       2.1770025279     -0.7061574816      0.0040378518
C      -0.6645289005     -0.8276337121      0.0324152723
C      -0.2653461435     -2.1272089049     -0.0009033571
C      -0.5315171912      1.7088441296     -0.0152122225
H      -1.7279901552     -0.6792549220     -0.0933651353
H       0.7863551624     -2.3548909217     -0.0169387328
H      -1.0443336897     -2.8991312623      0.0043710987
H       0.2426473227      2.4893871974      0.0686156158
H      -1.1175097399      1.7289670927      0.8946864434
H      -1.2358678588      1.7274697108     -0.8499676557
12
Frame=5  time=3.000fs  energy=-306.20058096Ha  molecule=COOCCCHHHHHH
C       0.1276698148      0.2842179598      0.0012442509
O       1.4343905080      0.3549680936     -0.0210489184
O       2.1790478390     -0.7039518399      0.0048429515
C      -0.6640356136     -0.8256147103      0.0384090596
C      -0.2677002076     -2.1235658364     -0.0009563729
C      -0.5315868292      1.7142710929     -0.0178961466
H      -1.7322882825     -0.6809644802     -0.1087021170
H       0.7881493869     -2.3526489783     -0.0191441052
H      -1.0459303281     -2.8908202190      0.0042152554
H       0.2440088072      2.4905745312      0.0767005394
H      -1.1142582225      1.7240107162      0.9038869193
H      -1.2486832089      1.7249097831     -0.8475916169
12
Frame=6  time=3.500fs  energy=-306.20003995Ha  molecule=COOCCCHHHHHH
C       0.1285034379      0.2808215805      0.0014842977
O       1.4343760944      0.3484544953     -0.0245129819
O       2.1811907602     -0.7019696985      0.0056480406
C      -0.6640035337     -0.8267278736      0.0442463031
C      -0.2702725146     -2.1182882543     -0.0009775247
C      -0.5315271345      1.7183002601     -0.0200452144
H      -1.7365702623     -0.6798932513     -0.1230989394
H       0.7888711057     -2.3519580040     -0.0210266534
H      -1.0461482384     -2.8816785607      0.0038447869
H       0.2429196638      2.4924140276      0.0781614998
H      -1.1130396754      1.7202348126      0.9127940411
H      -1.2591949707      1.7307046435     -0.8456621965
12
Frame=7  time=4.000fs  energy=-306.20034808Ha  molecule=COOCCCHHHHHH
C       0.1313537854      0.2801045597      0.0018542349
O       1.4329952017      0.3417518926     -0.0279677597
O       2.1835081704     -0.7001603136      0.0064531890
C      -0.6651522940     -0.8285590289      0.0499300742
C      -0.2721593104     -2.1137148909     -0.0009693680
C      -0.5311171149      1.7198137755     -0.0215861853
H      -1.7415713959     -0.6747621944     -0.1365950531
H       0.7900803727     -2.3525834109     -0.0225988658
H      -1.0470759795     -2.8721265229      0.0032842860
H       0.2363615514      2.4972197169      0.0722082250
H      -1.1126000702      1.7196446261      0.9210883707
H      -1.2659011026      1.7479328069     -0.8441896503
12
Frame=8  time=4.500fs  energy=-306.20054644Ha  molecule=COOCCCHHHHHH
C       0.1339737547      0.2824130035      0.0021883971
O       1.4316129863      0.3347240659     -0.0314108253
O       2.1860036295     -0.6984226849      0.0072567760
C      -0.6673489494     -0.8300254865      0.0554812197
C      -0.2734611983     -2.1102035335     -0.0009274493
C      -0.5303972143      1.7195211814     -0.0229684790
H      -1.7471470234     -0.6656135335     -0.1491649945
H       0.7909123790     -2.3573511737     -0.0238214402
H      -1.0455953387     -2.8657955195      0.0024356756
H       0.2291690828      2.5010348810      0.0651918282
H      -1.1121722129      1.7210926654      0.9288030599
H      -1.2716531807      1.7675393989     -0.8425096174
12
Frame=9  time=5.000fs  energy=-306.20023866Ha  molecule=COOCCCHHHHHH
C       0.1363018994      0.2871335285      0.0023209881
O       1.4295926275      0.3279785849     -0.0348314625
O       2.1889388061     -0.6972283134      0.0080643644
C      -0.6697198962     -0.8312727166      0.0609072434
C      -0.2747924633     -2.1074047549     -0.0008353489
C      -0.5292743423      1.7182073063     -0.0240042571
H      -1.7525887783     -0.6555635488     -0.1606302604
H       0.7911228872     -2.3630310280     -0.0246025009
H      -1.0420049935     -2.8627639931      0.0010816980
H       0.2226013240      2.5036794374      0.0568301771
H      -1.1115518856      1.7220266504      0.9361239856
H      -1.2755923857      1.7855879916     -0.8413851079
12
Frame=10  time=5.500fs  energy=-306.20006330Ha  molecule=COOCCCHHHHHH
C       0.1381836634      0.2929517279      0.0017102261
O       1.4262464215      0.3227794100     -0.0381546164
O       2.1927831639     -0.6974754330      0.0088785370
C      -0.6719321811     -0.8326292963      0.0658779574
C      -0.2761292075     -2.1048790706     -0.0003668234
C      -0.5274043249      1.7162507620     -0.0241413643
H      -1.7572579818     -0.6452888942     -0.1676772046
H       0.7907116797     -2.3682081031     -0.0241162711
H      -1.0386729267     -2.8606256359     -0.0036882844
H       0.2158819532      2.5068260654      0.0460323727
H      -1.1121645112      1.7239817239      0.9416811374
H      -1.2768352680      1.7997507523     -0.8408929455
12
Frame=11  time=6.000fs  energy=-306.20075865Ha  molecule=COOCCCHHHHHH
C       0.1395130471      0.2996488881      0.0002467258
O       1.4219074588      0.3194137557     -0.0413235274
O       2.1976034396     -0.6993531148      0.0096860955
C      -0.6742284901     -0.8340713288      0.0700149451
C      -0.2772861474     -2.1024481336      0.0004570023
C      -0.5252297397      1.7135278221     -0.0233080294
H      -1.7612131531     -0.6355414777     -0.1664751850
H       0.7893920891     -2.3736991183     -0.0200283092
H      -1.0362996170     -2.8587278107     -0.0131272347
H       0.2103218454      2.5090122308      0.0327449735
H      -1.1137756223      1.7284976396      0.9452653459
H      -1.2750068609      1.8109792542     -0.8411647761
12
Frame=12  time=6.500fs  energy=-306.20157337Ha  molecule=COOCCCHHHHHH
C       0.1405460651      0.3067626358     -0.0016624125
O       1.4173880869      0.3172463862     -0.0443661997
O       2.2029320033     -0.7022276700      0.0104745989
C      -0.6768805525     -0.8355640047      0.0733015456
C      -0.2781268101     -2.0999685038      0.0014252994
C      -0.5234035387      1.7101506424     -0.0219185535
H      -1.7643374176     -0.6263978550     -0.1572523334
H       0.7868732841     -2.3798039274     -0.0118238051
H      -1.0350208201     -2.8570734157     -0.0258628374
H       0.2067028708      2.5094254647      0.0179770912
H      -1.1151277049      1.7357991163      0.9471727148
H      -1.2709667054      1.8223143459     -0.8417261618
12
Frame=13  time=7.000fs  energy=-306.20204696Ha  molecule=COOCCCHHHHHH
C       0.1415258539      0.3142143472     -0.0036366035
O       1.4129057948      0.3158474948     -0.0473632000
O       2.2084363309     -0.7056673168      0.0112516407
C      -0.6799336428     -0.8371201258      0.0761424868
C      -0.2787842241     -2.0976954642      0.0022731633
C      -0.5218933807      1.7063998415     -0.0202818881
H      -1.7661280115     -0.6172859688     -0.1441150218
H       0.7830921543     -2.3850790606     -0.0010314999
H      -1.0340733117     -2.8571194221     -0.0389296889
H       0.2043410838      2.5094208079      0.0025359140
H      -1.1152935163      1.7442436234      0.9472251119
H      -1.2654929984      1.8342411676     -0.8418979481
12
Frame=14  time=7.500fs  energy=-306.20251830Ha  molecule=COOCCCHHHHHH
C       0.1425861094      0.3219824684     -0.0056411581
O       1.4087004785      0.3152569778     -0.0503460002
O       2.2139515449     -0.7095791610      0.0120238452
C      -0.6837159348     -0.8388418515      0.0786630177
C      -0.2792929387     -2.0958925281      0.0031873455
C      -0.5205664921      1.7025520838     -0.0183648875
H      -1.7665845052     -0.6085038970     -0.1290748822
H       0.7780889389     -2.3886560714      0.0103673444
H      -1.0329667784     -2.8598788367     -0.0522822436
H       0.2025494795      2.5103065178     -0.0134786906
H      -1.1141516749      1.7531664957      0.9448758496
H      -1.2585948670      1.8457684858     -0.8414178267
12
Frame=15  time=8.000fs  energy=-306.20303299Ha  molecule=COOCCCHHHHHH
C       0.1436806843      0.3299369496     -0.0076533132
O       1.4049070092      0.3155788784     -0.0533179565
O       2.2194286224     -0.7139847893      0.0127902200
C      -0.6882952812     -0.8406536530      0.0808258081
C      -0.2796761607     -2.0946782101      0.0041755818
C      -0.5194472336      1.6987131385     -0.0161728151
H      -1.7656833415     -0.6002977653     -0.1120735478
H       0.7720324182     -2.3901600177      0.0223073196
H      -1.0315864313     -2.8655750139     -0.0658022452
H       0.2013953444      2.5120777921     -0.0298483897
H      -1.1115225823      1.7625212277      0.9399475290
H      -1.2502636935      1.8565348893     -0.8402247968
12
Frame=16  time=8.500fs  energy=-306.20335969Ha  molecule=COOCCCHHHHHH
C       0.1446537729      0.3378851216     -0.0095609648
O       1.4015075723      0.3167321217     -0.0563189814
O       2.2248280180     -0.7188115420      0.0135634898
C      -0.6934735582     -0.8423176816      0.0825187771
C      -0.2799448683     -2.0940446621      0.0052553328
C      -0.5184963835      1.6949131439     -0.0137280802
H      -1.7635247576     -0.5929065117     -0.0930435515
H       0.7652986190     -2.3898560464      0.0345251372
H      -1.0301158242     -2.8736065475     -0.0790940356
H       0.2009610564      2.5143241602     -0.0463224905
H      -1.1074588227      1.7723251219      0.9326236561
H      -1.2405518709      1.8659787631     -0.8384626485
12
Frame=17  time=9.000fs  energy=-306.20337276Ha  molecule=COOCCCHHHHHH
C       0.1452808107      0.3455903872     -0.0111375268
O       1.3983699249      0.3184836722     -0.0594369493
O       2.2301179051     -0.7239087866      0.0143747935
C      -0.6988434078     -0.8434993521      0.0835375721
C      -0.2801180514     -2.0938778867      0.0064555177
C      -0.5176146773      1.6911318263     -0.0110713147
H      -1.7604495868     -0.5865138387     -0.0719156778
H       0.7585098186     -2.3885199479      0.0465080429
H      -1.0288931003     -2.8826896923     -0.0914165795
H       0.2013060408      2.5163340217     -0.0626580933
H      -1.1023480885      1.7827104893      0.9235206931
H      -1.2296049840      1.8733786161     -0.8365130436
12
Frame=18  time=9.500fs  energy=-306.20312150Ha  molecule=COOCCCHHHHHH
C       0.1454880799      0.3528379588     -0.0122902788
O       1.3955858615      0.3207904092     -0.0627030570
O       2.2352389517     -0.7292070132      0.0152329215
C      -0.7042675317     -0.8441014771      0.0838378679
C      -0.2803201419     -2.0942170013      0.0077807080
C      -0.5167108569      1.6875135915     -0.0082906964
H      -1.7573525532     -0.5812024411     -0.0489110365
H       0.7526029163     -2.3862187817      0.0579593752
H      -1.0275296062     -2.8921779373     -0.1024007409
H       0.2022200342      2.5177054339     -0.0785269326
H      -1.0968337437      1.7936973973      0.9136707051
H      -1.2178778470      1.8783473977     -0.8348124386
12
Frame=19  time=10.000fs  energy=-306.20268107Ha  molecule=COOCCCHHHHHH
C       0.1452431374      0.3594654601     -0.0130839783
O       1.3932123416      0.3235721276     -0.0660832909
O       2.2401469597     -0.7346267755      0.0161216169
C      -0.7096077154     -0.8440951319      0.0835505051
C      -0.2806680458     -2.0950481063      0.0092093642
C      -0.5156972706      1.6841750532     -0.0055000812
H      -1.7551180404     -0.5769412100     -0.0245094046
H       0.7483816911     -2.3830991815      0.0688654229
H      -1.0256654397     -2.9014377264     -0.1121371364
H       0.2035163382      2.5181550846     -0.0935821350
H      -1.0915431018      1.8051143334      0.9042282909
H      -1.2059501176      1.8808689663     -0.8337340996
12
Frame=20  time=10.500fs  energy=-306.20216441Ha  molecule=COOCCCHHHHHH
C       0.1445573358      0.3653863705     -0.0137167259
O       1.3912650096      0.3267314581     -0.0694894684
O       2.2448186521     -0.7400944936      0.0170043068
C      -0.7147580737     -0.8435173477      0.0829427801
C      -0.2812386240     -2.0963099571      0.0107001829
C      -0.5145144393      1.6811865337     -0.0028111835
H      -1.7543683040     -0.5736193149      0.0006631632
H       0.7462830697     -2.3793264099      0.0794757389
H      -1.0230783398     -2.9100155266     -0.1211224018
H       0.2050887390      2.5175782045     -0.1075181777
H      -1.0869076266      1.8166322357      0.8961540001
H      -1.1943898152      1.8812601469     -0.8334913007
12
Frame=21  time=11.000fs  energy=-306.20169586Ha  molecule=COOCCCHHHHHH
C       0.1434731886      0.3705809862     -0.0142537209
O       1.3897272341      0.3301742694     -0.0728925993
O       2.2492489483     -0.7455520948      0.0178687783
C      -0.7196572297     -0.8424466560      0.0821396512
C      -0.2820592580     -2.0979150368      0.0122320051
C      -0.5131374906      1.6785753743     -0.0002825249
H      -1.7553840348     -0.5710966366      0.0262022736
H       0.7463366687     -2.3750340797      0.0898244137
H      -1.0197120041     -2.9176914782     -0.1295068728
H       0.2069127015      2.5160183746     -0.1202329275
H      -1.0832283565      1.8281059575      0.8899703786
H      -1.1835400634      1.8797704119     -0.8342170010
12
Frame=22  time=11.500fs  energy=-306.20131559Ha  molecule=COOCCCHHHHHH
C       0.1420602405      0.3750485108     -0.0147008547
O       1.3885698325      0.3338475515     -0.0762904595
O       2.2534050473     -0.7509405523      0.0187140301
C      -0.7242965870     -0.8409649731      0.0811934459
C      -0.2831176230     -2.0997475387      0.0137944941
C      -0.5115338597      1.6762776945      0.0020638431
H      -1.7581798658     -0.5692060473      0.0518553892
H       0.7482888408     -2.3702354919      0.0998648617
H      -1.0156085335     -2.9244364155     -0.1372947926
H       0.2090550880      2.5135286629     -0.1317396743
H      -1.0806096506      1.8394179051      0.8858406725
H      -1.1735352018      1.8765526507     -0.8359445963
12
Frame=23  time=12.000fs  energy=-306.20101234Ha  molecule=COOCCCHHHHHH
C       0.1403837342      0.3788200650     -0.0150647044
O       1.3877551486      0.3376991848     -0.0796810892
O       2.2572823397     -0.7562248525      0.0195394742
C      -0.7286836901     -0.8391580201      0.0801453406
C      -0.2843802454     -2.1017128044      0.0153795755
C      -0.5097092370      1.6742546720      0.0042233786
H      -1.7625940277     -0.5678260206      0.0774391585
H       0.7517365301     -2.3649447867      0.1095729806
H      -1.0108999319     -2.9303329980     -0.1445048218
H       0.2115750961      2.5102270065     -0.1420908220
H      -1.0790340687      1.8504927643      0.8837006145
H      -1.1644263228      1.8717963132     -0.8386150306
12
Frame=24  time=12.500fs  energy=-306.20064358Ha  molecule=COOCCCHHHHHH
C       0.1385279511      0.3817900919     -0.0153513415
O       1.3872213517      0.3417075402     -0.0830628842
O       2.2609017330     -0.7614020016      0.0203447910
C      -0.7327722077     -0.8369984236      0.0790272203
C      -0.2858868788     -2.1036381229      0.0169810526
C      -0.5077348969      1.6726082766      0.0062018652
H      -1.7684082045     -0.5674099464      0.1028208315
H       0.7559967910     -2.3597666450      0.1189376610
H      -1.0050538316     -2.9361251721     -0.1511608913
H       0.2146818166      2.5061666284     -0.1513581474
H      -1.0783884661      1.8610589794      0.8834289769
H      -1.1561872089      1.8654760121     -0.8421905896
12
Frame=25  time=13.000fs  energy=-306.20044114Ha  molecule=COOCCCHHHHHH
C       0.1366092367      0.3835710199     -0.0155657195
O       1.3869988957      0.3458549410     -0.0864346635
O       2.2642454387     -0.7664467225      0.0211298419
C      -0.7360068511     -0.8348883301      0.0778638445
C      -0.2881115780     -2.1049935137      0.0185941861
C      -0.5058207568      1.6718335752      0.0080103580
H      -1.7754144260     -0.5724164856      0.1279020681
H       0.7606446710     -2.3517711769      0.1279540884
H      -0.9992094451     -2.9409439691     -0.1572867714
H       0.2191988002      2.5010443212     -0.1596212019
H      -1.0783880014      1.8700234624      0.8851557065
H      -1.1486240691      1.8567229303     -0.8469225583
12
Frame=26  time=13.500fs  energy=-306.20038432Ha  molecule=COOCCCHHHHHH
C       0.1347481271      0.3835571720     -0.0157091277
O       1.3869531392      0.3502670540     -0.0897954680
O       2.2673278026     -0.7714099374      0.0218941651
C      -0.7384591594     -0.8332469671      0.0766741289
C      -0.2907466783     -2.1057717504      0.0202153593
C      -0.5039459799      1.6721566741      0.0096569279
H      -1.7828954731     -0.5802670418      0.1525943815
H       0.7659774961     -2.3395928014      0.1366079809
H      -0.9957472353     -2.9426366672     -0.1628872742
H       0.2243295215      2.4960097499     -0.1669343587
H      -1.0792006789      1.8777939918      0.8883540542
H      -1.1419954255      1.8461289744     -0.8523932516
12
Frame=27  time=14.000fs  energy=-306.20010218Ha  molecule=COOCCCHHHHHH
C       0.1329579206      0.3814273158     -0.0157789289
O       1.3868990059      0.3550965339     -0.0931444597
O       2.2701862311     -0.7763583104      0.0226368822
C      -0.7405999727     -0.8317452147      0.0754739820
C      -0.2932488563     -2.1062695776      0.0218414938
C      -0.5018847194      1.6733629055      0.0111451280
H      -1.7902782228     -0.5857064963      0.1768019025
H       0.7715618265     -2.3269604657      0.1448702849
H      -0.9935825468     -2.9423645133     -0.1679452627
H       0.2287819531      2.4923903954     -0.1733257558
H      -1.0814302943      1.8857621974      0.8919123358
H      -1.1369993172      1.8352453847     -0.8575810761
12
Frame=28  time=14.500fs  energy=-306.19924799Ha  molecule=COOCCCHHHHHH
C       0.1315946554      0.3774618052     -0.0156487435
O       1.3880672136      0.3593071331     -0.0964883698
O       2.2721659062     -0.7803140522      0.0233525579
C      -0.7430489484     -0.8304192735      0.0742580459
C      -0.2954029361     -2.1063800841      0.0234605993
C      -0.5004678577      1.6752877527      0.0123440158
H      -1.7983017762     -0.5905373000      0.2003926733
H       0.7768873212     -2.3159102569      0.1526764641
H      -0.9926682916     -2.9401443305     -0.1723006286
H       0.2336596287      2.4883601998     -0.1785296996
H      -1.0840089251      1.8955843344      0.8964483257
H      -1.1332677043      1.8268022545     -0.8628788924
12
Frame=29  time=15.000fs  energy=-306.19898848Ha  molecule=COOCCCHHHHHH
C       0.1308588142      0.3721522496     -0.0144498776
O       1.3911678322      0.3619113879     -0.0998791942
O       2.2727740408     -0.7824787986      0.0240085062
C      -0.7456808332     -0.8291508576      0.0729187923
C      -0.2974613677     -2.1062832558      0.0249793574
C      -0.5003355374      1.6777460814      0.0123075215
H      -1.8067248802     -0.5949575243      0.2228906653
H       0.7817196536     -2.3057046234      0.1597962262
H      -0.9918552558     -2.9376014490     -0.1747967794
H       0.2403273863      2.4819536573     -0.1804867049
H      -1.0843628044      1.9055358988      0.9032733870
H      -1.1325893738      1.8256601800     -0.8674482588
12
Frame=30  time=15.500fs  energy=-306.19899008Ha  molecule=COOCCCHHHHHH
C       0.1307503384      0.3658222712     -0.0119107457
O       1.3956198698      0.3628788943     -0.1034188410
O       2.2720554311     -0.7828636742      0.0246276820
C      -0.7480772357     -0.8279355781      0.0722341152
C      -0.2996798314     -2.1062861567      0.0258386311
C      -0.5009607174      1.6808228202      0.0108503912
H      -1.8148002878     -0.5980420849      0.2378662519
H       0.7860085391     -2.2949950164      0.1646138193
H      -0.9905440658     -2.9359783781     -0.1705698282
H       0.2477798944      2.4747362851     -0.1787746587
H      -1.0820139808      1.9133165153      0.9122110040
H      -1.1354409130      1.8309204211     -0.8707356149
12
Frame=31  time=16.000fs  energy=-306.19958801Ha  molecule=COOCCCHHHHHH
C       0.1310964365      0.3592294938     -0.0084787670
O       1.4002954324      0.3626008341     -0.1071460823
O       2.2703167754     -0.7818360412      0.0252452822
C      -0.7500883201     -0.8268898410      0.0727784234
C      -0.3021219339     -2.1067339496      0.0262390975
C      -0.5009013640      1.6846730724      0.0085568335
H      -1.8222821138     -0.6003431907      0.2401618909
H       0.7895898113     -2.2835458533      0.1635019936
H      -0.9887660216     -2.9359142463     -0.1589911305
H       0.2532585332      2.4708275832     -0.1746074047
H      -1.0784170738      1.9164088454      0.9217715130
H      -1.1407770124      1.8361823083     -0.8726908131
12
Frame=32  time=16.500fs  energy=-306.20098076Ha  molecule=COOCCCHHHHHH
C       0.1318095776      0.3525703190     -0.0049184754
O       1.4050485163      0.3613218195     -0.1109899789
O       2.2676487004     -0.7795554670      0.0258733873
C      -0.7520310792     -0.8261391374      0.0744526027
C      -0.3045403279     -2.1075442667      0.0266473656
C      -0.4997405487      1.6893211604      0.0062474800
H      -1.8294098773     -0.6031420541      0.2309548531
H       0.7920086226     -2.2726491783      0.1555765898
H      -0.9873191509     -2.9367928440     -0.1429770458
H       0.2560566109      2.4714622030     -0.1696677391
H      -1.0753575944      1.9162526912      0.9305051013
H      -1.1468293771      1.8372621656     -0.8739234519
12
Frame=33  time=17.000fs  energy=-306.20188218Ha  molecule=COOCCCHHHHHH
C       0.1327389152      0.3457569979     -0.0012407669
O       1.4099148093      0.3594157966     -0.1148388858
O       2.2642315812     -0.7763700828      0.0264646452
C      -0.7538397569     -0.8256483052      0.0764165220
C      -0.3068819204     -2.1085543297      0.0275059252
C      -0.4978939720      1.6945491933      0.0038113935
H      -1.8356462082     -0.6062681051      0.2170099800
H       0.7927816599     -2.2622031525      0.1430053994
H      -0.9865562767     -2.9385992670     -0.1267277026
H       0.2577144702      2.4748783953     -0.1635594340
H      -1.0721578273      1.9137073976      0.9382830849
H      -1.1536119196      1.8356487084     -0.8742638456
12
Frame=34  time=17.500fs  energy=-306.20253530Ha  molecule=COOCCCHHHHHH
C       0.1336670231      0.3386878868      0.0025064297
O       1.4149311836      0.3574352326     -0.1186270489
O       2.2603605618     -0.7728167671      0.0269962703
C      -0.7554329435     -0.8253587311      0.0784549590
C      -0.3090862009     -2.1095221462      0.0283927272
C      -0.4959803433      1.7000124482      0.0012425524
H      -1.8402865157     -0.6094454957      0.2016245699
H       0.7914278918     -2.2520783185      0.1293936974
H      -0.9868934855     -2.9412236771     -0.1094745692
H       0.2604310602      2.4784797937     -0.1561174767
H      -1.0681614786      1.9105530146      0.9447878551
H      -1.1607849084      1.8331326172     -0.8736756797
12
Frame=35  time=18.000fs  energy=-306.20319029Ha  molecule=COOCCCHHHHHH
C       0.1346088363      0.3314436580      0.0063003525
O       1.4200529974      0.3553302824     -0.1223303127
O       2.2560533226     -0.7689248458      0.0274538428
C      -0.7568626477     -0.8252917514      0.0805633822
C      -0.3110861998     -2.1103046849      0.0293164477
C      -0.4940654382      1.7056294961     -0.0014294305
H      -1.8427721153     -0.6125519536      0.1848337305
H       0.7876965617     -2.2422582536      0.1147326981
H      -0.9883856455     -2.9448322806     -0.0911984390
H       0.2643506016      2.4823751354     -0.1472960387
H      -1.0630311940      1.9066592311      0.9492988927
H      -1.1682274543      1.8295785066     -0.8718153445
12
Frame=36  time=18.500fs  energy=-306.20378529Ha  molecule=COOCCCHHHHHH
C       0.1355882083      0.3241540411      0.0101061164
O       1.4252064199      0.3530506708     -0.1259207183
O       2.2513551311     -0.7647515082      0.0278219811
C      -0.7581848825     -0.8254705279      0.0827322046
C      -0.3128455598     -2.1107481273      0.0302877272
C      -0.4922058576      1.7112821423     -0.0041626573
H      -1.8426912464     -0.6153961298      0.1667655497
H       0.7816973977     -2.2328150848      0.0990717029
H      -0.9909059121     -2.9494203430     -0.0719424554
H       0.2694908782      2.4866001137     -0.1371534136
H      -1.0565102830      1.9019344204      0.9511686820
H      -1.1757845306      1.8249297261     -0.8684070409
12
Frame=37  time=19.000fs  energy=-306.20421613Ha  molecule=COOCCCHHHHHH
C       0.1366387472      0.3169976488      0.0138770333
O       1.4302870736      0.3505940519     -0.1293680813
O       2.2462952412     -0.7603491187      0.0280854261
C      -0.7593965336     -0.8259553316      0.0849460670
C      -0.3144043799     -2.1107824897      0.0313188442
C      -0.4903907743      1.7168422633     -0.0069100160
H      -1.8399265800     -0.6177471209      0.1476532863
H       0.7739771375     -2.2241173003      0.0825278554
H      -0.9941787321     -2.9547330048     -0.0518235962
H       0.2757461466      2.4910259137     -0.1258741971
H      -1.0485189334      1.8964237259      0.9500477904
H      -1.1832661733      1.8193036994     -0.8633554182
12
Frame=38  time=19.500fs  energy=-306.20432948Ha  molecule=COOCCCHHHHHH
C       0.1377977867      0.3101817760      0.0175580272
O       1.4351701414      0.3479897708     -0.1326439549
O       2.2409137451     -0.7557834000      0.0282314094
C      -0.7604528527     -0.8268064076      0.0871836323
C      -0.3158684369     -2.1104046585      0.0324223220
C      -0.4885464294      1.7221717840     -0.0096284308
H      -1.8348456012     -0.6193346838      0.1278386815
H       0.7655635303     -2.2166934932      0.0652934082
H      -0.9977178383     -2.9602369560     -0.0310397742
H       0.2828109461      2.4953579427     -0.1137785380
H      -1.0393057721      1.8903035216      0.9461048936
H      -1.1905165738      1.8129770540     -0.8568459138
12
Frame=39  time=20.000fs  energy=-306.20403477Ha  molecule=COOCCCHHHHHH
C       0.1390958089      0.3039018862      0.0210943172
O       1.4397333272      0.3452843385     -0.1357279453
O       2.2352778186     -0.7511398778      0.0282529662
C      -0.7612931786     -0.8280468064      0.0894193850
C      -0.3173747349     -2.1096635776      0.0336082682
C      -0.4865606592      1.7271360417     -0.0122872360
H      -1.8283095740     -0.6198991203      0.1077413286
H       0.7577677095     -2.2110409189      0.0476238875
H      -1.0009008162     -2.9652310799     -0.0098548619
H       0.2902190044      2.4992293339     -0.1012892150
H      -1.0294722517      1.8838464004      0.9400865543
H      -1.1974554627      1.8063331692     -0.8493557471
12
Frame=40  time=20.500fs  energy=-306.20341916Ha  molecule=COOCCCHHHHHH
C       0.1404697191      0.2982852263      0.0244431089
O       1.4437444225      0.3423961566     -0.1386131519
O       2.2294895288     -0.7464466780      0.0281511903
C      -0.7616819568     -0.8295334101      0.0916280051
C      -0.3189958579     -2.1085388754      0.0348816556
C      -0.4843001307      1.7315366416     -0.0148706660
H      -1.8212366091     -0.6192749618      0.0877844763
H       0.7516411773     -2.2079473284      0.0297961223
H      -1.0035604043     -2.9686077140      0.0114481987
H       0.2976236929      2.5021557139     -0.0888452692
H      -1.0197462079      1.8773228700      0.9330981775
H      -1.2040222998      1.7997418066     -0.8415307611
12
Frame=41  time=21.000fs  energy=-306.20274048Ha  molecule=COOCCCHHHHHH
C       0.1418415162      0.2933792310      0.0275806292
O       1.4470274087      0.3392512038     -0.1413062291
O       2.2236490643     -0.7417223702      0.0279342778
C      -0.7614231778     -0.8310901704      0.0937889775
C      -0.3207434258     -2.1070323281      0.0362416592
C      -0.4816695967      1.7352286987     -0.0173731068
H      -1.8144085726     -0.6174368044      0.0683159541
H       0.7476648164     -2.2078876579      0.0120553458
H      -1.0057756917     -2.9695813026      0.0326234806
H       0.3048132639      2.5038389384     -0.0768075353
H      -1.0107642351      1.8709553733      0.9262076471
H      -1.2101877927      1.7934968995     -0.8339789261
12
Frame=42  time=21.500fs  energy=-306.20212038Ha  molecule=COOCCCHHHHHH
C       0.1431993809      0.2891730530      0.0305009679
O       1.4495975170      0.3359115022     -0.1438228359
O       2.2178235952     -0.7370280862      0.0276144191
C      -0.7605450383     -0.8326464188      0.0958884815
C      -0.3226062227     -2.1052521382      0.0376831415
C      -0.4786448086      1.7382120078     -0.0197923864
H      -1.8084224313     -0.6144811271      0.0495735682
H       0.7457679711     -2.2105865323     -0.0054146429
H      -1.0075314842     -2.9682066813      0.0534920305
H       0.3116304041      2.5043502594     -0.0654145158
H      -1.0029559130      1.8649086009      0.9201678351
H      -1.2159663348      1.7878032853     -0.8271317474
12
Frame=43  time=22.000fs  energy=-306.20154042Ha  molecule=COOCCCHHHHHH
C       0.1445975439      0.2856213843      0.0332109909
O       1.4516333200      0.3325587003     -0.1461828394
O       2.2120447858     -0.7324618532      0.0272050652
C      -0.7592739403     -0.8342452609      0.0979187087
C      -0.3245717068     -2.1033891956      0.0391985710
C      -0.4752622164      1.7406099050     -0.0221261352
H      -1.8036666780     -0.6105785557      0.0316934218
H       0.7455441072     -2.2151774739     -0.0224929959
H      -1.0086562100     -2.9652284828      0.0739422186
H       0.3179424930      2.5040443551     -0.0547886316
H      -0.9965256522      1.8592885833      0.9153579174
H      -1.2213979703      1.7827802848     -0.8212167116
12
Frame=44  time=22.500fs  energy=-306.20102816Ha  molecule=COOCCCHHHHHH
C       0.1460715842      0.2826524707      0.0357259753
O       1.4532985492      0.3293315055     -0.1484075591
O       2.2063312303     -0.7280898298      0.0267195538
C      -0.7578092086     -0.8359173205      0.0998764206
C      -0.3266058896     -2.1015835442      0.0407792623
C      -0.4715806990      1.7425473701     -0.0243716510
H      -1.8002186784     -0.6059303086      0.0147318796
H       0.7464353621     -2.2208768192     -0.0391112773
H      -1.0091353082     -2.9613775146      0.0939182505
H       0.3237239922      2.5032658704     -0.0449602618
H      -0.9914589893      1.8541251964      0.9118529552
H      -1.2264971379      1.7784496633     -0.8162929775
12
Frame=45  time=23.000fs  energy=-306.20019804Ha  molecule=COOCCCHHHHHH
C       0.1475754855      0.2802116443      0.0380667891
O       1.4545547575      0.3262812699     -0.1505185065
O       2.2007389980     -0.7239608469      0.0261705986
C      -0.7561228072     -0.8375993931      0.1017616975
C      -0.3286956912     -2.0998964882      0.0424160249
C      -0.4676134971      1.7440772916     -0.0265274371
H      -1.7977476661     -0.6005555632     -0.0013145594
H       0.7479082157     -2.2270769307     -0.0552421352
H      -1.0091400429     -2.9571448359      0.1134081260
H       0.3290588758      2.5022364272     -0.0358912752
H      -0.9875639038      1.8492508774      0.9095126245
H      -1.2312293594      1.7746184987     -0.8122884955
12
Frame=46  time=23.500fs  energy=-306.19880619Ha  molecule=COOCCCHHHHHH
C       0.1487138054      0.2787545333      0.0396820886
O       1.4544693676      0.3243196825     -0.1525031798
O       2.1958715876     -0.7209228905      0.0255916853
C      -0.7539986117     -0.8392600010      0.1036721954
C      -0.3309098166     -2.0985374317      0.0441432224
C      -0.4626405074      1.7451243988     -0.0279608923
H      -1.7957560193     -0.5948511439     -0.0163323069
H       0.7496362333     -2.2330630427     -0.0707476089
H      -1.0089917899     -2.9529970582      0.1317912287
H       0.3333525952      2.5022719388     -0.0288855875
H      -0.9859821581      1.8445423577      0.9070850286
H      -1.2341101701      1.7668194158     -0.8095498395
12
Frame=47  time=24.000fs  energy=-306.19776550Ha  molecule=COOCCCHHHHHH
C       0.1491807385      0.2783913815      0.0400190608
O       1.4527928176      0.3242149133     -0.1542375480
O       2.1921440316     -0.7196234883      0.0249718108
C      -0.7515879669     -0.8409140001      0.1047578661
C      -0.3331027024     -2.0974323283      0.0464990435
C      -0.4565617194      1.7455432186     -0.0281765870
H      -1.7942763671     -0.5898591856     -0.0225471103
H       0.7513207412     -2.2395207694     -0.0830377757
H      -1.0095106473     -2.9483216158      0.1436099910
H       0.3371430616      2.5029390221     -0.0249556204
H      -0.9874983189      1.8414189607      0.9037320195
H      -1.2338467995      1.7529811746     -0.8085270976
12
Frame=48  time=24.500fs  energy=-306.19831764Ha  molecule=COOCCCHHHHHH
C       0.1488281605      0.2788672510      0.0391714787
O       1.4502631131      0.3262539241     -0.1556523345
O       2.1896406880     -0.7202918677      0.0242845683
C      -0.7490983402     -0.8424642966      0.1044194374
C      -0.3351394649     -2.0962884334      0.0493379446
C      -0.4505170552      1.7449578791     -0.0273726305
H      -1.7934771030     -0.5862802442     -0.0139932036
H       0.7526732860     -2.2472282822     -0.0880987964
H      -1.0112218169     -2.9424189600      0.1474879369
H       0.3435199926      2.4999972128     -0.0236560566
H      -0.9911127142      1.8427319711      0.9001218326
H      -1.2303861462      1.7372272227     -0.8094985968
12
Frame=49  time=25.000fs  energy=-306.19981270Ha  molecule=COOCCCHHHHHH
C       0.1482564666      0.2801729508      0.0379141729
O       1.4475108624      0.3296199043     -0.1568036952
O       2.1879297511     -0.7222817026      0.0235109883
C      -0.7465417950     -0.8437967082      0.1027611635
C      -0.3371463989     -2.0950445844      0.0522440040
C      -0.4457109181      1.7430646189     -0.0261294023
H      -1.7933393848     -0.5841745860      0.0079489513
H       0.7534854574     -2.2555525213     -0.0853602243
H      -1.0133306927     -2.9361938550      0.1462291602
H       0.3532071776      2.4914929371     -0.0258521005
H      -0.9936204150      1.8476105071      0.8988365856
H      -1.2225712367      1.7270598687     -0.8135860688
12
Frame=50  time=25.500fs  energy=-306.20085726Ha  molecule=COOCCCHHHHHH
C       0.1478746423      0.2822185939      0.0365974093
O       1.4443855890      0.3338012359     -0.1578045849
O       2.1867349382     -0.7251434598      0.0226721755
C      -0.7439233011     -0.8449407912      0.1006612990
C      -0.3391040219     -2.0938107703      0.0547951308
C      -0.4419200679      1.7400541674     -0.0245452067
H      -1.7937681301     -0.5830388668      0.0354022489
H       0.7535545273     -2.2640768274     -0.0778303842
H      -1.0156615035     -2.9301173529      0.1446195762
H       0.3641976574      2.4797538252     -0.0327828427
H      -0.9945023816      1.8535126385      0.9004428371
H      -1.2099151221      1.7236911284     -0.8209978304
12
Frame=51  time=26.000fs  energy=-306.20133699Ha  molecule=COOCCCHHHHHH
C       0.1475480754      0.2846899766      0.0351378193
O       1.4410455173      0.3380925788     -0.1586930836
O       2.1856340049     -0.7281857649      0.0217699952
C      -0.7413179480     -0.8459167114      0.0985126344
C      -0.3408272922     -2.0927883853      0.0573732401
C      -0.4380560556      1.7366363717     -0.0228437361
H      -1.7946175770     -0.5817590535      0.0637523753
H       0.7525775814     -2.2727323299     -0.0696481822
H      -1.0184739710     -2.9243651546      0.1425150982
H       0.3747507957      2.4680420713     -0.0410206724
H      -0.9960535411      1.8596232455      0.9028133171
H      -1.1964511020      1.7218139553     -0.8291347086
12
Frame=52  time=26.500fs  energy=-306.20190155Ha  molecule=COOCCCHHHHHH
C       0.1472908836      0.2876637324      0.0334952790
O       1.4374680800      0.3424832451     -0.1594419495
O       2.1846301054     -0.7314225391      0.0207890247
C      -0.7387591918     -0.8466341283      0.0963374453
C      -0.3422088016     -2.0920645768      0.0599804441
C      -0.4341222596      1.7327348953     -0.0210426380
H      -1.7957839422     -0.5803548962      0.0929820492
H       0.7500391700     -2.2814350624     -0.0607675821
H      -1.0220546629     -2.9191833553      0.1398517367
H       0.3847234574      2.4564852224     -0.0503523365
H      -0.9981504406      1.8662417226      0.9059064665
H      -1.1821623340      1.7215323220     -0.8379229593
12
Frame=53  time=27.000fs  energy=-306.20255576Ha  molecule=COOCCCHHHHHH
C       0.1471129078      0.2912019751      0.0316380804
O       1.4336446269      0.3469523131     -0.1600214641
O       2.1837206813     -0.7348600244      0.0197120222
C      -0.7362946723     -0.8469806733      0.0941662003
C      -0.3431347459     -2.0917403607      0.0626166477
C      -0.4301418080      1.7282851339     -0.0191356091
H      -1.7970354150     -0.5788843723      0.1230153372
H       0.7454486189     -2.2900837320     -0.0511607629
H      -1.0267310124     -2.9148502383      0.1365866330
H       0.3939903703      2.4452679927     -0.0608570073
H      -1.0006453825      1.8734328187      0.9094757281
H      -1.1669371342      1.7231572912     -0.8472031314
12
Frame=54  time=27.500fs  energy=-306.20328420Ha  molecule=COOCCCHHHHHH
C       0.1470167411      0.2953436391      0.0295357054
O       1.4295862365      0.3514665096     -0.1603998879
O       2.1828950108     -0.7384940818      0.0185199574
C      -0.7339839886     -0.8468275263      0.0920410670
C      -0.3435069410     -2.0919252030      0.0652790163
C      -0.4261626646      1.7232445054     -0.0171189526
H      -1.7980034418     -0.5774472461      0.1536957954
H       0.7385135446     -2.2985965824     -0.0408267888
H      -1.0328107322     -2.9116173655      0.1327039103
H       0.4024601812      2.4346335478     -0.0725332466
H      -1.0032386875      1.8812240683      0.9130537444
H      -1.1506770895      1.7269630162     -0.8566887482
12
Frame=55  time=28.000fs  energy=-306.20402780Ha  molecule=COOCCCHHHHHH
C       0.1469938704      0.3000928059      0.0271620068
O       1.4253310468      0.3559780484     -0.1605452093
O       2.1821311749     -0.7423065364      0.0171927509
C      -0.7318906306     -0.8460440142      0.0900170323
C      -0.3432747088     -2.0927251412      0.0679613421
C      -0.4222585286      1.7176077011     -0.0149945754
H      -1.7982175652     -0.5761767761      0.1847641740
H       0.7293626672     -2.3069616895     -0.0298053980
H      -1.0404848606     -2.9096193621      0.1282287955
H       0.4100849623      2.4248646006     -0.0852664239
H      -1.0054729853      1.8895866784      0.9159518012
H      -1.1333248787      1.7331426137     -0.8659683343
12
Frame=56  time=28.500fs  energy=-306.20466489Ha  molecule=COOCCCHHHHHH
C       0.1470208501      0.3054052223      0.0245005854
O       1.4209510824      0.3604239656     -0.1604289567
O       2.1813934413     -0.7462613869      0.0157111869
C      -0.7300652427     -0.8445246068      0.0881606619
C      -0.3424707334     -2.0942221479      0.0706537084
C      -0.4185197817      1.7114259086     -0.0127762480
H      -1.7972146627     -0.5752116996      0.2158414387
H       0.7187472567     -2.3152861763     -0.0181939095
H      -1.0497061847     -2.9087664883      0.1232441918
H       0.4168529405      2.4162271446     -0.0987960066
H      -1.0067892767      1.8984218172      0.9173490060
H      -1.1149160219      1.7417496653     -0.8745505323
12
Frame=57  time=29.000fs  energy=-306.20505613Ha  molecule=COOCCCHHHHHH
C       0.1470581889      0.3111789792      0.0214503819
O       1.4165532444      0.3647296414     -0.1599889196
O       2.1806323369     -0.7503034622      0.0140431429
C      -0.7285221753     -0.8422248535      0.0866457350
C      -0.3412353314     -2.0964474617      0.0733288110
C      -0.4150301787      1.7048221293     -0.0105144073
H      -1.7947212215     -0.5746488671      0.2463191176
H       0.7080965240     -2.3238174293     -0.0059725348
H      -1.0600895317     -2.9086646726      0.1176155058
H       0.4227616221      2.4088771948     -0.1126381769
H      -1.0066163292      1.9074353423      0.9165582793
H      -1.0957069838      1.7527723873     -0.8819265532
12
Frame=58  time=29.500fs  energy=-306.20509218Ha  molecule=COOCCCHHHHHH
C       0.1470553286      0.3172593992      0.0180265520
O       1.4122682144      0.3688181797     -0.1592188533
O       2.1797898242     -0.7543628750      0.0121803414
C      -0.7272213157     -0.8391893500      0.0855452021
C      -0.3398035533     -2.0993610028      0.0759714166
C      -0.4118360713      1.6979877230     -0.0082711203
H      -1.7908243009     -0.5744971835      0.2756374004
H       0.6992764491     -2.3329007466      0.0066394771
H      -1.0709242465     -2.9086446535      0.1115389657
H       0.4277918303      2.4027785939     -0.1262498323
H      -1.0046930025      1.9164204516      0.9132321031
H      -1.0761046102      1.7658666257     -0.8878056494
12
Frame=59  time=30.000fs  energy=-306.20475957Ha  molecule=COOCCCHHHHHH
C       0.1469619448      0.3234622687      0.0143697853
O       1.4082272654      0.3726235704     -0.1581755725
O       2.1788093948     -0.7583656525      0.0101423843
C      -0.7260707408     -0.8355513367      0.0848083454
C      -0.3384391665     -2.1028506797      0.0785826014
C      -0.4089277755      1.6911519624     -0.0061146657
H      -1.7859988516     -0.5746650735      0.3033842078
H       0.6940020819     -2.3428561327      0.0191945378
H      -1.0813673092     -2.9079588800      0.1055402480
H       0.4319181194      2.3977030453     -0.1391253096
H      -1.0012129226      1.9253155594      0.9075475059
H      -1.0566276364      1.7803918228     -0.8922171804
12
Frame=60  time=30.500fs  energy=-306.20415813Ha  molecule=COOCCCHHHHHH
C       0.1467404964      0.3296077117      0.0105483815
O       1.4045365739      0.3761016816     -0.1568949629
O       2.1776469132     -0.7622464070      0.0079440924
C      -0.7249532808     -0.8314987861      0.0844442403
C      -0.3373385088     -2.1067558310      0.0811554236
C      -0.4062481261      1.6845352243     -0.0041337503
H      -1.7809435975     -0.5749942098      0.3291613336
H       0.6931309643     -2.3538214678      0.0314116695
H      -1.0907527351     -2.9060778273      0.0998917779
H       0.4351544361      2.3933265958     -0.1507812275
H      -0.9966672941      1.9339925756      0.9002171443
H      -1.0378988363      1.7957554882     -0.8953982991
12
Frame=61  time=31.000fs  energy=-306.20339448Ha  molecule=COOCCCHHHHHH
C       0.1463735704      0.3355491731      0.0066211216
O       1.4012608865      0.3792346023     -0.1554169147
O       2.1762771378     -0.7659574501      0.0056049955
C      -0.7237611934     -0.8272270263      0.0844481105
C      -0.3365684753     -2.1109025926      0.0836862746
C      -0.4037200827      1.6783094325     -0.0024050390
H      -1.7763307851     -0.5753165831      0.3527197005
H       0.6963254052     -2.3656744727      0.0430792760
H      -1.0988098815     -2.9028822383      0.0947824427
H       0.4375919103      2.3893501282     -0.1608808210
H      -0.9916931588      1.9423577785      0.8921702046
H      -1.0204573577      1.8114217236     -0.8977069670
12
Frame=62  time=31.500fs  energy=-306.20256079Ha  molecule=COOCCCHHHHHH
C       0.1458644881      0.3411896086      0.0026408936
O       1.3984186842      0.3820300631     -0.1537843806
O       2.1746951589     -0.7694729778      0.0031483127
C      -0.7224213498     -0.8229021751      0.0847931442
C      -0.3360813751     -2.1151349209      0.0861764390
C      -0.4012729447      1.6725776833     -0.0009746866
H      -1.7726093130     -0.5755027475      0.3739888353
H       0.7023622868     -2.3781022796      0.0540563921
H      -1.1056480855     -2.8986156852      0.0903295357
H       0.4393995275      2.3855697863     -0.1692737307
H      -0.9868712498      1.9503587062      0.8842478004
H      -1.0046473245      1.8269637469     -0.8995033235
12
Frame=63  time=32.000fs  energy=-306.20157156Ha  molecule=COOCCCHHHHHH
C       0.1452328752      0.3464859594     -0.0013504593
O       1.3959861892      0.3845177932     -0.1520387864
O       2.1729141448     -0.7727892373      0.0005984042
C      -0.7209043510     -0.8186418462      0.0854358818
C      -0.3357786865     -2.1193352965      0.0886312364
C      -0.3988566710      1.6673712706      0.0001489550
H      -1.7699299889     -0.5754848884      0.3930670403
H       0.7098041613     -2.3907555802      0.0642816196
H      -1.1115796448     -2.8936795211      0.0865722811
H       0.4407892102      2.3818858776     -0.1759910990
H      -0.9825916129      1.9579748024      0.8770148808
H      -0.9905761824      1.8420958928     -0.9010710255
12
Frame=64  time=32.500fs  energy=-306.20017441Ha  molecule=COOCCCHHHHHH
C       0.1445537745      0.3514712937     -0.0053106852
O       1.3938971378      0.3866192499     -0.1502859678
O       2.1708971658     -0.7758102722     -0.0019972350
C      -0.7192424108     -0.8145270297      0.0868818334
C      -0.3355643579     -2.1234592285      0.0909161259
C      -0.3963272681      1.6627235078      0.0010634011
H      -1.7682268564     -0.5752955264      0.4052086428
H       0.7175325013     -2.4033840279      0.0714342154
H      -1.1168886589     -2.8885153719      0.0858350378
H       0.4415513496      2.3788343600     -0.1813616031
H      -0.9792297704      1.9650205067      0.8705743135
H      -0.9780549816      1.8560590730     -0.9026022959
12
Frame=65  time=33.000fs  energy=-306.19956631Ha  molecule=COOCCCHHHHHH
C       0.1441017136      0.3563256104     -0.0091723304
O       1.3920278584      0.3877256566     -0.1486198326
O       2.1683385422     -0.7779722233     -0.0046001936
C      -0.7175897962     -0.8106670214      0.0895523341
C      -0.3353595686     -2.1276134530      0.0930485252
C      -0.3930555092      1.6589083651      0.0018345400
H      -1.7674586338     -0.5751833105      0.4060406443
H       0.7249358472     -2.4159168194      0.0728096658
H      -1.1215484941     -2.8837520888      0.0896534537
H       0.4396445472      2.3793999024     -0.1856620766
H      -0.9771676627      1.9694243127      0.8645811003
H      -0.9671721985      1.8666244347     -0.9038698504
12
Frame=66  time=33.500fs  energy=-306.19970404Ha  molecule=COOCCCHHHHHH
C       0.1440553099      0.3610373904     -0.0123693255
O       1.3903811533      0.3874426588     -0.1470770924
O       2.1650464179     -0.7789368652     -0.0072243545
C      -0.7158545988     -0.8070484216      0.0931826701
C      -0.3352373187     -2.1318743202      0.0951045641
C      -0.3889989927      1.6560106796      0.0018672360
H      -1.7672088737     -0.5745728015      0.3966124414
H       0.7317818899     -2.4276130453      0.0684507961
H      -1.1252410126     -2.8801180213      0.0977565646
H       0.4346597524      2.3842652141     -0.1876942792
H      -0.9750280762      1.9688027340      0.8596577920
H      -0.9592564886      1.8756721575     -0.9041190454
12
Frame=67  time=34.000fs  energy=-306.19988528Ha  molecule=COOCCCHHHHHH
C       0.1439655736      0.3651835534     -0.0148582411
O       1.3897777590      0.3855956964     -0.1455948381
O       2.1608774251     -0.7785247151     -0.0098976355
C      -0.7139167971     -0.8035249522      0.0970813244
C      -0.3352110897     -2.1361539488      0.0972261111
C      -0.3846168640      1.6541137441      0.0005828860
H      -1.7670129188     -0.5723304730      0.3829429261
H       0.7379563297     -2.4380426264      0.0612355757
H      -1.1279541069     -2.8777018053      0.1075104917
H       0.4298033670      2.3900913048     -0.1825045383
H      -0.9733906945      1.9665690675      0.8547679785
H      -0.9584967735      1.8828335233     -0.9011583830
12
Frame=68  time=34.500fs  energy=-306.19979406Ha  molecule=COOCCCHHHHHH
C       0.1438714640      0.3680031491     -0.0169347884
O       1.3904230580      0.3828721771     -0.1441175614
O       2.1560503406     -0.7772308512     -0.0126169703
C      -0.7119741675     -0.8003847505      0.1009918199
C      -0.3349435152     -2.1401728869      0.0993096744
C      -0.3811155557      1.6537707364     -0.0016384346
H      -1.7666293601     -0.5668751881      0.3683714899
H       0.7436158427     -2.4469616159      0.0536188992
H      -1.1319331530     -2.8740218652      0.1180168191
H       0.4293902861      2.3922794470     -0.1717519167
H      -0.9716970656      1.9631004049      0.8513845736
H      -0.9624031234      1.8875500722     -0.8973431276
12
Frame=69  time=35.000fs  energy=-306.19987997Ha  molecule=COOCCCHHHHHH
C       0.1444623962      0.3679946818     -0.0189753612
O       1.3914348220      0.3801328072     -0.1426194704
O       2.1507894968     -0.7755745972     -0.0153630920
C      -0.7100940168     -0.7978098220      0.1049604702
C      -0.3342629337     -2.1433614109      0.1013899308
C      -0.3787764948      1.6560531119     -0.0040101241
H      -1.7659417720     -0.5580846095      0.3531635813
H       0.7481026842     -2.4561259419      0.0457677440
H      -1.1374534677     -2.8682828945      0.1287626936
H       0.4329274053      2.3921875911     -0.1602210129
H      -0.9693119442      1.9551976189      0.8513210719
H      -0.9659635630      1.8875868319     -0.8961902699
12
Frame=70  time=35.500fs  energy=-306.20060868Ha  molecule=COOCCCHHHHHH
C       0.1449561315      0.3657130112     -0.0209775941
O       1.3926478636      0.3777997531     -0.1410986006
O       2.1453883549     -0.7740242779     -0.0181378193
C      -0.7068416499     -0.7980604052      0.1089826019
C      -0.3346736525     -2.1431972129      0.1034663837
C      -0.3767280331      1.6602357118     -0.0065393107
H      -1.7636011939     -0.5503727722      0.3373493838
H       0.7484480371     -2.4653620769      0.0377071502
H      -1.1403236169     -2.8629109038      0.1397417344
H       0.4374993946      2.3926969776     -0.1479140994
H      -0.9672191739      1.9445761734      0.8531725708
H      -0.9701224833      1.8846527179     -0.8962254322
12
Frame=71  time=36.000fs  energy=-306.20172693Ha  molecule=COOCCCHHHHHH
C       0.1451585284      0.3628963081     -0.0229321549
O       1.3943596037      0.3754065347     -0.1395491188
O       2.1398723137     -0.7724062890     -0.0209471595
C      -0.7024409590     -0.8004246046      0.1130610249
C      -0.3349537905     -2.1408424349      0.1055370803
C      -0.3747185694      1.6651218904     -0.0092576765
H      -1.7611854584     -0.5468559393      0.3208791372
H       0.7354478778     -2.4692253945      0.0294336242
H      -1.1456128159     -2.8607175959      0.1509802039
H       0.4423267602      2.3936116753     -0.1347279235
H      -0.9659528411      1.9333775606      0.8562804771
H      -0.9754164769      1.8808466077     -0.8966074010
12
Frame=72  time=36.500fs  energy=-306.20280949Ha  molecule=COOCCCHHHHHH
C       0.1453450948      0.3595332232     -0.0248193349
O       1.3964479583      0.3729069940     -0.1379596044
O       2.1342523389     -0.7707197995     -0.0238033525
C      -0.6978052438     -0.8033057220      0.1172033718
C      -0.3352376838     -2.1379498676      0.1075988470
C      -0.3728303645      1.6706599716     -0.0122253486
H      -1.7588907249     -0.5443580793      0.3036337885
H       0.7197385463     -2.4715776779      0.0209252041
H      -1.1512531672     -2.8591995106      0.1625368565
H       0.4475079542      2.3947168055     -0.1204480812
H      -0.9658189645      1.9219072709      0.8609222349
H      -0.9822010538      1.8763991074     -0.8973042521
12
Frame=73  time=37.000fs  energy=-306.20402452Ha  molecule=COOCCCHHHHHH
C       0.1455369685      0.3555808309     -0.0266155176
O       1.3989988644      0.3702845642     -0.1363176078
O       2.1285298712     -0.7689861326     -0.0267200867
C      -0.6930594052     -0.8067162517      0.1214057183
C      -0.3355291438     -2.1345223542      0.1096501705
C      -0.3711438088      1.6769676025     -0.0154871752
H      -1.7564601789     -0.5424216069      0.2855680296
H       0.7017518823     -2.4729070294      0.0121978771
H      -1.1567594159     -2.8585984079      0.1744469870
H       0.4530581478      2.3961054011     -0.1049329153
H      -0.9669483511      1.9102128829      0.8672329897
H      -0.9906815669      1.8713356721     -0.8982612976
12
Frame=74  time=37.500fs  energy=-306.20504537Ha  molecule=COOCCCHHHHHH
C       0.1457786822      0.3510117987     -0.0282971695
O       1.4020841492      0.3675427426     -0.1346121839
O       2.1227187125     -0.7672492048     -0.0297096572
C      -0.6882977039     -0.8106633810      0.1256447556
C      -0.3360085366     -2.1305747736      0.1116926625
C      -0.3697747171      1.6841236083     -0.0190428934
H      -1.7534633468     -0.5413557167      0.2667791070
H       0.6831811443     -2.4734089717      0.0033316590
H      -1.1615924747     -2.8586327784      0.1866933702
H       0.4589015026      2.3979766740     -0.0882155930
H      -0.9691860389      1.8984068425      0.8748285480
H      -1.0008371656      1.8658587617     -0.8992248074
12
Frame=75  time=38.000fs  energy=-306.20558133Ha  molecule=COOCCCHHHHHH
C       0.1461759648      0.3459050844     -0.0298479989
O       1.4057873381      0.3647835359     -0.1328373729
O       2.1168492527     -0.7656133076     -0.0327790461
C      -0.6837653063     -0.8151150762      0.1298752700
C      -0.3369736263     -2.1262991211      0.1137321033
C      -0.3688707467      1.6921442467     -0.0228231475
H      -1.7495008258     -0.5414594485      0.2475456892
H       0.6671188826     -2.4733399700     -0.0055203984
H      -1.1647539220     -2.8588806986      0.1991858752
H       0.4648004117      2.4006700683     -0.0705832350
H      -0.9719795828      1.8866716080      0.8826946415
H      -1.0123118346      1.8603878621     -0.8997694484
12
Frame=76  time=38.500fs  energy=-306.20568624Ha  molecule=COOCCCHHHHHH
C       0.1468130558      0.3404337368     -0.0312640945
O       1.4100642588      0.3620784583     -0.1309939999
O       2.1109799681     -0.7641742170     -0.0359278014
C      -0.6796530946     -0.8199021727      0.1340381626
C      -0.3386995921     -2.1219497495      0.1157775760
C      -0.3685504598      1.7008897868     -0.0267009131
H      -1.7443157558     -0.5429149201      0.2282833680
H       0.6569930507     -2.4732735288     -0.0141582236
H      -1.1653836660     -2.8585599916      0.2117736398
H       0.4704706393      2.4044165878     -0.0525430705
H      -0.9745007724      1.8752106709      0.8894695588
H      -1.0244587282      1.8554651381     -0.8994494388
12
Frame=77  time=39.000fs  energy=-306.20555412Ha  molecule=COOCCCHHHHHH
C       0.1477026059      0.3348107620     -0.0325518826
O       1.4147020357      0.3593905492     -0.1290878140
O       2.1051940608     -0.7629733624     -0.0391499977
C      -0.6759671124     -0.8247099665      0.1380726894
C      -0.3412514643     -2.1177295407      0.1178392236
C      -0.3688592838      1.7100706502     -0.0305341367
H      -1.7379144679     -0.5457408445      0.2094493137
H       0.6547358918     -2.4739234304     -0.0223749931
H      -1.1633835778     -2.8568145349      0.2242822373
H       0.4756639330      2.4091813359     -0.0346936473
H      -0.9759630771      1.8642199601      0.8939552212
H      -1.0365443421      1.8516301624     -0.8979737208
12
Frame=78  time=39.500fs  energy=-306.20518733Ha  molecule=COOCCCHHHHHH
C       0.1488851438      0.3292579996     -0.0337233022
O       1.4195454282      0.3567557543     -0.1271267362
O       2.0995660028     -0.7620745741     -0.0424372774
C      -0.6727631395     -0.8292786305      0.1419234191
C      -0.3444444268     -2.1138939382      0.1199265853
C      -0.3697880118      1.7194299764     -0.0342013435
H      -1.7308087027     -0.5498146236      0.1914781242
H       0.6597700731     -2.4751933628     -0.0299800025
H      -1.1591876134     -2.8537532089      0.2365417752
H       0.4800268888      2.4149121639     -0.0176206956
H      -0.9759286331      1.8539354428      0.8954549884
H      -1.0479783841      1.8493967811     -0.8952806635
12
Frame=79  time=40.000fs  energy=-306.20446416Ha  molecule=COOCCCHHHHHH
C       0.1503866413      0.3239764716     -0.0347946490
O       1.4244529051      0.3542161628     -0.1251201669
O       2.0941601651     -0.7615288013     -0.0457796512
C      -0.6700640435     -0.8333860680      0.1455466313
C      -0.3478977968     -2.1106660921      0.1220473541
C      -0.3712591646      1.7287297931     -0.0376219400
H      -1.7237816948     -0.5548983542      0.1747323626
H       0.6695197586     -2.4765269412     -0.0368200250
H      -1.1537446735     -2.8500814338      0.2484066921
H       0.4832132484      2.4214651269     -0.0018215037
H      -0.9743994588      1.8446014274      0.8939426297
H      -1.0583764655      1.8491692670     -0.8915632081
12
Frame=80  time=40.500fs  energy=-306.20346383Ha  molecule=COOCCCHHHHHH
C       0.1521988340      0.3191154041     -0.0357868189
O       1.4293033085      0.3517998446     -0.1230789596
O       2.0890171565     -0.7613548078     -0.0491654645
C      -0.6678427339     -0.8368846905      0.1489207379
C      -0.3512149559     -2.1081814650      0.1242056468
C      -0.3731347826      1.7377738623     -0.0407687113
H      -1.7175826145     -0.5606775294      0.1594291088
H       0.6809318961     -2.4773309735     -0.0428147280
H      -1.1480876312     -2.8465935976      0.2597832595
H       0.4850080925      2.4286265431      0.0123941145
H      -0.9717805295      1.8364032362      0.8900382605
H      -1.0675996230      1.8511306682     -0.8872151612
12
Frame=81  time=41.000fs  energy=-306.20242317Ha  molecule=COOCCCHHHHHH
C       0.1542791546      0.3147476973     -0.0367225831
O       1.4340165832      0.3495160168     -0.1210140723
O       2.0841442393     -0.7615341291     -0.0525827298
C      -0.6660353258     -0.8397324849      0.1520512617
C      -0.3541267843     -2.1064610138      0.1264010474
C      -0.3752579953      1.7464402713     -0.0436619668
H      -1.7126618362     -0.5668326096      0.1455984178
H       0.6916926154     -2.4772480063     -0.0479743239
H      -1.1429653331     -2.8438340886      0.2706470238
H       0.4854045448      2.4361827115      0.0249623474
H      -0.9686539681      1.8294023110      0.8846842754
H      -1.0757206147      1.8551943850     -0.8826743226
12
Frame=82  time=41.500fs  energy=-306.20150102Ha  molecule=COOCCCHHHHHH
C       0.1566189772      0.3108069516     -0.0376224989
O       1.4385321656      0.3473634595     -0.1189347545
O       2.0795191298     -0.7620186576     -0.0560210280
C      -0.6646021063     -0.8417343882      0.1549644964
C      -0.3564710812     -2.1056240931      0.1286295117
C      -0.3775082315      1.7546978897     -0.0463468581
H      -1.7092593184     -0.5734028851      0.1331184587
H       0.7007679262     -2.4760132291     -0.0523791323
H      -1.1389836899     -2.8419888523      0.2810322445
H       0.4846009152      2.4439471736      0.0360223635
H      -0.9655489025      1.8235387310      0.8787264049
H      -1.0829538017      1.8610830117     -0.8782583894
12
Frame=83  time=42.000fs  energy=-306.20060763Ha  molecule=COOCCCHHHHHH
C       0.1592778123      0.3070568206     -0.0385024947
O       1.4427639846      0.3453559927     -0.1168476266
O       2.0751164286     -0.7627609683     -0.0594725597
C      -0.6635438931     -0.8421803848      0.1576954452
C      -0.3581455241     -2.1060964106      0.1308853274
C      -0.3796925540      1.7623546811     -0.0488712675
H      -1.7076959651     -0.5814518562      0.1217946024
H       0.7082032440     -2.4734580948     -0.0561394116
H      -1.1365193046     -2.8413397201      0.2910036098
H       0.4821386677      2.4524053705      0.0458132556
H      -0.9631834076      1.8196360521      0.8722289035
H      -1.0899189415      1.8694090480     -0.8736378742
12
Frame=84  time=42.500fs  energy=-306.20010057Ha  molecule=COOCCCHHHHHH
C       0.1619091542      0.3039018944     -0.0393736245
O       1.4468404145      0.3434314341     -0.1147567874
O       2.0709635072     -0.7637222469     -0.0629321797
C      -0.6625938117     -0.8421318671      0.1602762605
C      -0.3570953745     -2.1069821694      0.1331630680
C      -0.3814919268      1.7689452432     -0.0512729904
H      -1.7082079424     -0.5892310928      0.1114395286
H       0.6921637768     -2.4652716556     -0.0593563649
H      -1.1410889575     -2.8485936809      0.3006261868
H       0.4768251731      2.4626420539      0.0545715317
H      -0.9620555234      1.8190921267      0.8648206355
H      -1.0971476705      1.8814063848     -0.8682076638
12
Frame=85  time=43.000fs  energy=-306.19977827Ha  molecule=COOCCCHHHHHH
C       0.1641718009      0.3040088292     -0.0402424223
O       1.4509896695      0.3410231512     -0.1126644989
O       2.0670821559     -0.7647395009     -0.0663971491
C      -0.6631209516     -0.8415484742      0.1627111261
C      -0.3547396530     -2.1097369075      0.1354615082
C      -0.3830451120      1.7736654325     -0.0535619967
H      -1.7098278139     -0.5893301329      0.1020460990
H       0.6761644016     -2.4596167912     -0.0620362523
H      -1.1464191572     -2.8567825004      0.3099003238
H       0.4706466316      2.4718292664      0.0623384683
H      -0.9610882270      1.8207950486      0.8576786025
H      -1.1034837006      1.8958754011     -0.8630191512
12
Frame=86  time=43.500fs  energy=-306.20006646Ha  molecule=COOCCCHHHHHH
C       0.1658896126      0.3075130180     -0.0411434480
O       1.4553026492      0.3384874069     -0.1105400034
O       2.0636800269     -0.7661594672     -0.0698716963
C      -0.6649605192     -0.8401554640      0.1648623275
C      -0.3514227291     -2.1141097960      0.1374234464
C      -0.3849515974      1.7765288410     -0.0557537383
H      -1.7126236821     -0.5834291986      0.0960181077
H       0.6605335739     -2.4579579193     -0.0613542517
H      -1.1505872012     -2.8670853788      0.3195352958
H       0.4666941883      2.4765279740      0.0691525416
H      -0.9596195946      1.8245641131      0.8519275440
H      -1.1082194930      1.9125702127     -0.8591009664
12
Frame=87  time=44.000fs  energy=-306.19960935Ha  molecule=COOCCCHHHHHH
C       0.1672204478      0.3121858357     -0.0422672670
O       1.4595925516      0.3366089840     -0.1083304338
O       2.0608757561     -0.7684116802     -0.0733645216
C      -0.6670180709     -0.8383598312      0.1663482257
C      -0.3480736043     -2.1187161861      0.1393460879
C      -0.3873494568      1.7783995301     -0.0576971634
H      -1.7163535131     -0.5785633747      0.0965624123
H       0.6456768478     -2.4570755242     -0.0565605169
H      -1.1543152946     -2.8774440790      0.3269906040
H       0.4650162839      2.4775108580      0.0746703573
H      -0.9585915911      1.8309394588      0.8474336850
H      -1.1115121380      1.9309070423     -0.8566162041
12
Frame=88  time=44.500fs  energy=-306.19756759Ha  molecule=COOCCCHHHHHH
C       0.1681159480      0.3177046503     -0.0441745279
O       1.4625912446      0.3364006029     -0.1060057216
O       2.0592248974     -0.7723549056     -0.0768556071
C      -0.6690304267     -0.8363709484      0.1671866621
C      -0.3448393239     -2.1234743696      0.1415764321
C      -0.3893443637      1.7794800497     -0.0587768153
H      -1.7204746956     -0.5742875326      0.1036940812
H       0.6329376918     -2.4565652198     -0.0488156384
H      -1.1580194054     -2.8866879257      0.3303563412
H       0.4632260748      2.4781094656      0.0775611319
H      -0.9590265036      1.8396191644      0.8435767781
H      -1.1115766665      1.9463446000     -0.8563541166
12
Frame=89  time=45.000fs  energy=-306.20096560Ha  molecule=COOCCCHHHHHH
C       0.1684625050      0.3243722302     -0.0469397183
O       1.4639005414      0.3377327806     -0.1036089692
O       2.0586520849     -0.7779709478     -0.0803265583
C      -0.6709993875     -0.8343845930      0.1676858166
C      -0.3483367477     -2.1287388894      0.1442920313
C      -0.3901832551      1.7799968855     -0.0588518590
H      -1.7216485047     -0.5710551461      0.1141027382
H       0.6824378848     -2.4696213932     -0.0407276737
H      -1.1434230449     -2.8762785502      0.3299505369
H       0.4600174122      2.4804554456      0.0775251538
H      -0.9620794931      1.8485781003      0.8395336356
H      -1.1089215672      1.9559033527     -0.8577780077
12
Frame=90  time=45.500fs  energy=-306.19837546Ha  molecule=COOCCCHHHHHH
C       0.1685073093      0.3319549031     -0.0501263881
O       1.4639065290      0.3400236284     -0.1012108147
O       2.0589772709     -0.7847587541     -0.0837724868
C      -0.6727749670     -0.8321481721      0.1680313718
C      -0.3518534968     -2.1342439909      0.1470910417
C      -0.3901893888      1.7799416797     -0.0582941947
H      -1.7231476111     -0.5675557030      0.1259667037
H       0.7321170717     -2.4814564979     -0.0319418769
H      -1.1285900564     -2.8663142946      0.3285163737
H       0.4555313339      2.4840804773      0.0748536582
H      -0.9676938473      1.8576204822      0.8366755299
H      -1.1044863056      1.9622380896     -0.8609763354
12
Frame=91  time=46.000fs  energy=-306.20259712Ha  molecule=COOCCCHHHHHH
C       0.1686091243      0.3397993255     -0.0532759919
O       1.4635761158      0.3424243392     -0.0988438915
O       2.0597468082     -0.7918434766     -0.0872083076
C      -0.6744358578     -0.8295096146      0.1681576229
C      -0.3470246891     -2.1394196376      0.1499389728
C      -0.3901014766      1.7794982817     -0.0575993495
H      -1.7290223801     -0.5630407300      0.1390374264
H       0.7056811187     -2.4751114334     -0.0226471377
H      -1.1361950147     -2.8807131301      0.3266174635
H       0.4504677131      2.4879201586      0.0706723711
H      -0.9747523011      1.8670231877      0.8357324002
H      -1.0994297313      1.9689231537     -0.8655415423
12
Frame=92  time=46.500fs  energy=-306.20355989Ha  molecule=COOCCCHHHHHH
C       0.1687813461      0.3480269274     -0.0563300235
O       1.4628220894      0.3449933649     -0.0965370596
O       2.0609094086     -0.7993525867     -0.0906242978
C      -0.6762052498     -0.8267005598      0.1679551192
C      -0.3418609775     -2.1444421876      0.1528578196
C      -0.3898768985      1.7785668606     -0.0567145557
H      -1.7354625459     -0.5585384449      0.1537905927
H       0.6771581164     -2.4678861109     -0.0127007227
H      -1.1442355111     -2.8957063305      0.3241168348
H       0.4446554890      2.4919539064      0.0642844702
H      -0.9837125372      1.8769087544      0.8374359276
H      -1.0933153243      1.9761160039     -0.8719700040
12
Frame=93  time=47.000fs  energy=-306.20231620Ha  molecule=COOCCCHHHHHH
C       0.1690324682      0.3565811951     -0.0592231073
O       1.4616059778      0.3477468696     -0.0943184375
O       2.0624568365     -0.8072839720     -0.0940115362
C      -0.6780440850     -0.8238149823      0.1673613464
C      -0.3368958828     -2.1491960161      0.1558580975
C      -0.3895432418      1.7771685275     -0.0556056211
H      -1.7418942514     -0.5542797716      0.1703759629
H       0.6509495185     -2.4609087698     -0.0021041454
H      -1.1513945184     -2.9098159151      0.3210211512
H       0.4381253018      2.4961246214      0.0554082194
H      -0.9943856746      1.8871698277      0.8416255411
H      -1.0857938206      1.9837360532     -0.8802364521
12
Frame=94  time=47.500fs  energy=-306.20501096Ha  molecule=COOCCCHHHHHH
C       0.1693344824      0.3653354547     -0.0619182567
O       1.4600300746      0.3506495673     -0.0922000553
O       2.0642070099     -0.8155575378     -0.0973666650
C      -0.6800478078     -0.8211118738      0.1664020666
C      -0.3377592691     -2.1537560975      0.1589310036
C      -0.3891917742      1.7754547828     -0.0542752250
H      -1.7452598955     -0.5510462551      0.1884848772
H       0.6784763214     -2.4663327189      0.0089786438
H      -1.1424421982     -2.9065318664      0.3174964264
H       0.4311391250      2.5003569233      0.0444078741
H      -1.0058923595      1.8975490364      0.8471579265
H      -1.0768021908      1.9915134714     -0.8897284897
12
Frame=95  time=48.000fs  energy=-306.20546576Ha  molecule=COOCCCHHHHHH
C       0.1696875813      0.3740867356     -0.0642267809
O       1.4580469158      0.3536962408     -0.0902622092
O       2.0662311363     -0.8241128050     -0.1006615817
C      -0.6819643677     -0.8185823188      0.1649154378
C      -0.3391660891     -2.1576900544      0.1620984533
C      -0.3889493768      1.7735103070     -0.0526363509
H      -1.7474548604     -0.5485046087      0.2083111347
H       0.7098995729     -2.4726366355      0.0203408369
H      -1.1321431249     -2.9016906324      0.3138444891
H       0.4239355458      2.5046353198      0.0310603212
H      -1.0173620076      1.9078044298      0.8528110658
H      -1.0658000915      1.9989613440     -0.9000793468
12
Frame=96  time=48.500fs  energy=-306.20460558Ha  molecule=COOCCCHHHHHH
C       0.1700589665      0.3825940557     -0.0660619234
O       1.4557363045      0.3568138090     -0.0885385399
O       2.0684752891     -0.8328487239     -0.1038854893
C      -0.6836981429     -0.8163137160      0.1628898123
C      -0.3405044468     -2.1607476552      0.1653550748
C      -0.3889808876      1.7715010740     -0.0506621991
H      -1.7483769040     -0.5467416641      0.2295665032
H       0.7388480563     -2.4783426991      0.0317625805
H      -1.1223437724     -2.8972204204      0.3103149360
H       0.4168825640      2.5089540842      0.0157807326
H      -1.0275954517      1.9175378772      0.8569084724
H      -1.0527259236      2.0055302446     -0.9105569992
12
Frame=97  time=49.000fs  energy=-306.20133556Ha  molecule=COOCCCHHHHHH
C       0.1704142030      0.3906706152     -0.0675185812
O       1.4532324237      0.3599196568     -0.0869840297
O       2.0708623762     -0.8416319425     -0.1070560905
C      -0.6851602301     -0.8142997953      0.1605038507
C      -0.3403653145     -2.1628525382      0.1686661523
C      -0.3893604082      1.7695887745     -0.0484186039
H      -1.7487612374     -0.5455582735      0.2515990972
H       0.7520201940     -2.4803384665      0.0431948502
H      -1.1169892843     -2.8973203112      0.3068684516
H       0.4102749572      2.5132761291     -0.0005952532
H      -1.0358595588      1.9264188312      0.8584946581
H      -1.0380884201      2.0109844941     -0.9205349018
12
Frame=98  time=49.500fs  energy=-306.20427516Ha  molecule=COOCCCHHHHHH
C       0.1707390054      0.3981578232     -0.0686391031
O       1.4506196113      0.3629529835     -0.0855773856
O       2.0734138545     -0.8503306691     -0.1101809722
C      -0.6861269050     -0.8123667123      0.1578624850
C      -0.3323664549     -2.1638394022      0.1720090228
C      -0.3900912669      1.7678839655     -0.0459785768
H      -1.7518616140     -0.5441357910      0.2739333385
H       0.6902674856     -2.4648062687      0.0545185410
H      -1.1336426635     -2.9208761552      0.3035982308
H       0.4042685294      2.5175318203     -0.0174146859
H      -1.0419901565      1.9343469734      0.8573100299
H      -1.0224308686      2.0151477446     -0.9297281511
12
Frame=99  time=50.000fs  energy=-306.17175678Ha  molecule=COOCCCHHHHHH
C       0.1709859007      0.4048828529     -0.0693676696
O       1.4480218417      0.3658369208     -0.0843397253
O       2.0759322853     -0.8588893782     -0.1132539837
C      -0.6867593835     -0.8107962403      0.1549878956
C      -0.3249586299     -2.1638129066      0.1753721415
C      -0.3912242184      1.7665387228     -0.0433841646
H      -1.7538415416     -0.5434962437      0.2962217704
H       0.6313348882     -2.4498431519      0.0655634354
H      -1.1491736670     -2.9427722069      0.3006782724
H       0.3990609671      2.5215430387     -0.0341838757
H      -1.0456087365      1.9411215531      0.8528471946
H      -1.0060808999      2.0175931226     -0.9378326586
12
Frame=100  time=50.500fs  energy=-306.11966985Ha  molecule=COOCCCHHHHHH
C       0.1711512218      0.4114430330     -0.0699407982
O       1.4455773121      0.3686390412     -0.0831717634
O       2.0780072583     -0.8675037252     -0.1163041291
C      -0.6880382352     -0.8100512790      0.1520424786
C      -0.3438352147     -2.1642188546      0.1787362684
C      -0.3924944810      1.7653696866     -0.0407645881
H      -1.7433076280     -0.5461158009      0.3183321406
H       0.8147888626     -2.4913479466      0.0764629963
H      -1.0926615479     -2.8867023919      0.2979302219
H       0.3941637715      2.5253880163     -0.0507607743
H      -1.0483947127      1.9475307828      0.8473741022
H      -0.9896849472      2.0193679885     -0.9455444764
12
Frame=101  time=51.000fs  energy=-306.12654333Ha  molecule=COOCCCHHHHHH
C       0.1713867459      0.4176101133     -0.0704755679
O       1.4429562395      0.3714300269     -0.0820244638
O       2.0807352743     -0.8758662777     -0.1193461700
C      -0.6880133991     -0.8082009097      0.1490828634
C      -0.3207295437     -2.1632307407      0.1820989338
C      -0.3937760853      1.7642356516     -0.0381452924
H      -1.7524527119     -0.5439858396      0.3403580644
H       0.6092831371     -2.4420811597      0.0873366206
H      -1.1516140352     -2.9551120876      0.2952108137
H       0.3894040850      2.5292822985     -0.0672814966
H      -1.0511415786      1.9537734853      0.8418225868
H      -0.9734391162      2.0208811008     -0.9532201201
12
Frame=102  time=51.500fs  energy=-306.18374196Ha  molecule=COOCCCHHHHHH
C       0.1715774447      0.4240312300     -0.0710559757
O       1.4405212892      0.3742721732     -0.0808649753
O       2.0828337060     -0.8844875824     -0.1223888233
C      -0.6890066636     -0.8075645627      0.1461295726
C      -0.3383091093     -2.1634382627      0.1854631083
C      -0.3950298998      1.7631058074     -0.0355084021
H      -1.7426259862     -0.5485454331      0.3624873792
H       0.7788139659     -2.4786239840      0.0983221624
H      -1.0999979515     -2.9029219544      0.2923610721
H       0.3844666374      2.5333912592     -0.0840245120
H      -1.0541308455      1.9602617878      0.8365447147
H      -0.9571550232      2.0227656445     -0.9609750149
12
Frame=103  time=52.000fs  energy=-306.19071751Ha  molecule=COOCCCHHHHHH
C       0.1718944401      0.4288320959     -0.0715093353
O       1.4380434010      0.3772300588     -0.0797603847
O       2.0851078263     -0.8929155533     -0.1254129356
C      -0.6887036364     -0.8069572856      0.1431669066
C      -0.3372479542     -2.1622130109      0.1888160425
C      -0.3962876785      1.7625975958     -0.0329358033
H      -1.7415614125     -0.5538519619      0.3841767924
H       0.7718306757     -2.4705303075      0.1090771127
H      -1.1026778013     -2.9048644457      0.2897406586
H       0.3790925795      2.5384642969     -0.1001931624
H      -1.0572872436      1.9667325363      0.8306142704
H      -0.9418369852      2.0242136584     -0.9681356158
12
Frame=104  time=52.500fs  energy=-306.16397133Ha  molecule=COOCCCHHHHHH
C       0.1724004803      0.4308543281     -0.0718556805
O       1.4364539840      0.3799630296     -0.0787017921
O       2.0870740069     -0.9006668926     -0.1284211327
C      -0.6880814560     -0.8064057335      0.1402086708
C      -0.3217926566     -2.1594348655      0.1921567846
C      -0.3978791190      1.7631346063     -0.0304404039
H      -1.7473559660     -0.5580955341      0.4054177067
H       0.6343992208     -2.4327775374      0.1196089333
H      -1.1465904643     -2.9446145301      0.2873312241
H       0.3739033819      2.5440077964     -0.1157631529
H      -1.0623138098      1.9745351695      0.8232759302
H      -0.9291142594      2.0265899478     -0.9738116228
12
Frame=105  time=53.000fs  energy=-306.19741908Ha  molecule=COOCCCHHHHHH
C       0.1723734278      0.4301929050     -0.0718892043
O       1.4375907888      0.3809171213     -0.0776785904
O       2.0873585408     -0.9067323418     -0.1314492179
C      -0.6882389871     -0.8060465590      0.1372104399
C      -0.3329006448     -2.1565369492      0.1954582500
C      -0.4004160031      1.7649910355     -0.0292949061
H      -1.7401136047     -0.5633683048      0.4263717913
H       0.7451847385     -2.4562718265      0.1300134086
H      -1.1162480139     -2.9037239747      0.2854014324
H       0.3740937447      2.5447647520     -0.1201054475
H      -1.0701866858      1.9888663132      0.8130614230
H      -0.9275658324      2.0274578738     -0.9737243046
12
Frame=106  time=53.500fs  energy=-306.02099422Ha  molecule=COOCCCHHHHHH
C       0.1722068199      0.4275991121     -0.0706663659
O       1.4411360244      0.3790443703     -0.0767792190
O       2.0860918436     -0.9102739315     -0.1345170191
C      -0.6878671385     -0.8050962366      0.1340591619
C      -0.3439789561     -2.1528558593      0.1986398754
C      -0.4041694301      1.7680605450     -0.0305588622
H      -1.7324243076     -0.5666725682      0.4462439469
H       0.8544201085     -2.4808221171      0.1397878958
H      -1.0848099505     -2.8634677157      0.2851821203
H       0.3797219200      2.5401660854     -0.1101764417
H      -1.0761361306      2.0054557005      0.8031126236
H      -0.9374795023      2.0281485992     -0.9685840800
12
Frame=107  time=54.000fs  energy=-304.93321212Ha  molecule=COOCCCHHHHHH
C       0.1728990559      0.4245805511     -0.0681232403
O       1.4445457611      0.3749639317     -0.0759972740
O       2.0848238835     -0.9117455794     -0.1376206013
C      -0.6852271768     -0.8023186928      0.1312691181
C      -0.2940697755     -2.1476376595      0.2017231369
C      -0.4081667310      1.7718238958     -0.0331934359
H      -1.7518038439     -0.5601133702      0.4603803299
H       0.3988292988     -2.3717269046      0.1461000398
H      -1.2212166063     -3.0048933806      0.2882802633
H       0.3850309436      2.5370460985     -0.0977680087
H      -1.0784628695      2.0144787058      0.7956305730
H      -0.9498924692      2.0319893787     -0.9626102231
12
Frame=108  time=54.500fs  energy=-299.11652272Ha  molecule=COOCCCHHHHHH
C       0.1738754459      0.4239703366     -0.0652637680
O       1.4480059351      0.3700086500     -0.0752588224
O       2.0808073909     -0.9135513438     -0.1407353967
C      -0.6879884885     -0.8037182872      0.1295831766
C      -0.4031067567     -2.1483420511      0.2045941295
C      -0.4114223552      1.7758087937     -0.0360360767
H      -1.6946120115     -0.5720352535      0.4644269616
H       1.4195068288     -2.6072546191      0.1472017539
H      -0.9210107223     -2.6741573730      0.2961607142
H       0.3873332379      2.5391759078     -0.0862118976
H      -1.0789853650      2.0177634253      0.7876179009
H      -0.9615254782      2.0354641953     -0.9557849190
12
Frame=109  time=55.000fs  energy=-255.28142685Ha  molecule=COOCCCHHHHHH
C       0.1758861246      0.4208975044     -0.0623645644
O       1.4495713253      0.3640414398     -0.0747227757
O       2.0823321247     -0.9123478336     -0.1437763506
C      -0.6792611741     -0.7949729568      0.1295009408
C      -0.1286411480     -2.1372293192      0.2071069323
C      -0.4137595407      1.7803299173     -0.0386699254
H      -1.8173961171     -0.5400782873      0.4540338418
H      -1.1100780708     -2.0148114156      0.1413001024
H      -1.6748763243     -3.4803899038      0.3106060447
H       0.3875391970      2.5455881031     -0.0751093758
H      -1.0807395267      2.0168416572      0.7794757680
H      -0.9735369249      2.0335255001     -0.9492611968
12
Frame=110  time=55.500fs  energy=109.93718560Ha  molecule=COOCCCHHHHHH
C       0.1761550300      0.4250624673     -0.0594442524
O       1.4557041084      0.3576352952     -0.0743120903
O       2.0675302887     -0.9164643335     -0.1467697320
C      -0.7016729668     -0.8138030423      0.1304214030
C      -0.8820945913     -2.1582796311      0.2093577798
C      -0.4160863486      1.7852532168     -0.0411713609
H      -1.4580574179     -0.6259421129      0.4347263320
H       5.8790063917     -3.6427380880      0.1312332069
H       0.3969283886     -1.2383106394      0.3292711625
H       0.3856723120      2.5518101470     -0.0642973500
H      -1.0812453781      2.0174542726      0.7706146214
H      -0.9837576833      2.0323585836     -0.9422897745
12
Frame=111  time=56.000fs  energy=3270.94379794Ha  molecule=COOCCCHHHHHH
C       0.1817598532      0.4086338631     -0.0565275930
O       1.4487110613      0.3518011141     -0.0739019185
O       2.0988250839     -0.9045549128     -0.1497593694
C      -0.6352947213     -0.7538699473      0.1313407140
C       1.3029936766     -2.0874703548      0.2116058121
C      -0.4174990794      1.7891475157     -0.0436696677
H      -2.4772478232     -0.3751272102      0.4154429709
H     -14.3429301248      1.0769281686      0.1211789026
H      -5.6085344874     -7.7109777535      0.3479129350
H       0.3871348848      2.5619940067     -0.0534988473
H      -1.0863477913      2.0118215804      0.7630331045
H      -0.9985628525      2.0249485852     -0.9365956184
12
Frame=112  time=56.500fs  energy=31006.71416147Ha  molecule=COOCCCHHHHHH
C       0.1719888351      0.4520895276     -0.0536145817
O       1.4802939516      0.3449116582     -0.0734922598
O       1.9941164093     -0.9392346271     -0.1527452674
C      -0.8263517421     -0.9268390228      0.1323923172
C      -5.1305712977     -2.2832606572      0.2137175906
C      -0.4207963782      1.7946142324     -0.0461648497
H       0.5449914189     -1.1106231316      0.3961837290
H      45.2147659356    -12.8122035111      0.1111371740
H      12.0682488073     11.3668748731      0.3665313908
H       0.3797527954      2.5589596106     -0.0427138511
H      -1.0771760721      2.0231770964      0.7517285020
H      -0.9990817534      2.0345290182     -0.9271760160
