12
Frame=0  time=0.500fs  energy=-306.20963415Ha  molecule=COOCCCHHHHHH
C       0.1284074618      0.3438007693      0.0007732936
O       1.4141479577      0.3900827274     -0.0030445696
O       2.1482029026     -0.7310386997      0.0017807590
C      -0.6611983403     -0.8623003371     -0.0021420947
C      -0.2267198493     -2.1368686347      0.0014011375
C      -0.5123743432      1.6903766803     -0.0007329937
H      -1.7354390728     -0.6540063659      0.0219853966
H       0.8222749910     -2.3653954022      0.0101114686
H      -0.9192829405     -2.9846429849     -0.0080195491
H       0.2437678810      2.4923237075      0.0131114258
H      -1.1695737266      1.8241665570      0.8756944446
H      -1.1506357884      1.7875559048     -0.8844738072
12
Frame=1  time=1.000fs  energy=-306.20760568Ha  molecule=COOCCCHHHHHH
C       0.1221677740      0.3474105048      0.0016059990
O       1.4175679773      0.3874282507     -0.0060766060
O       2.1495961398     -0.7296426889      0.0035516197
C      -0.6594396906     -0.8629590297     -0.0041989291
C      -0.2337589494     -2.1394392832      0.0027787785
C      -0.5078457625      1.6928367614     -0.0013036078
H      -1.7324245066     -0.6408832329      0.0432797941
H       0.8067844232     -2.3745386617      0.0199341958
H      -0.8936873276     -3.0182123075     -0.0157327915
H       0.2475020272      2.5058747158      0.0253395464
H      -1.1833784896      1.8424615136      0.8665367743
H      -1.1467713728      1.7714267822     -0.8859591887
12
Frame=2  time=1.500fs  energy=-306.20545237Ha  molecule=COOCCCHHHHHH
C       0.1168240710      0.3507225010      0.0025343025
O       1.4205511062      0.3848939465     -0.0090900871
O       2.1509642434     -0.7283107242      0.0053074050
C      -0.6580773298     -0.8635020852     -0.0061181076
C      -0.2408178958     -2.1422417932      0.0041193488
C      -0.5034595791      1.6956392228     -0.0016478642
H      -1.7283302245     -0.6293327768      0.0634622428
H       0.7953551406     -2.3829493513      0.0292926300
H      -0.8698339255     -3.0474854837     -0.0229541968
H       0.2486002130      2.5156784536      0.0361530895
H      -1.1950414261      1.8591586470      0.8557885145
H      -1.1424991304      1.7571488358     -0.8884453982
12
Frame=3  time=2.000fs  energy=-306.20366889Ha  molecule=COOCCCHHHHHH
C       0.1124727111      0.3537021124      0.0035688778
O       1.4230564605      0.3825010413     -0.0120830562
O       2.1523073844     -0.7270521163      0.0070463538
C      -0.6571251366     -0.8639079930     -0.0078816501
C      -0.2477937999     -2.1452953646      0.0054188217
C      -0.4992669986      1.6987611376     -0.0017923083
H      -1.7237250273     -0.6193818614      0.0823884437
H       0.7879481395     -2.3904087532      0.0381259892
H      -0.8485141063     -3.0725526896     -0.0296231191
H       0.2474522925      2.5220521579      0.0453916870
H      -1.2046592756      1.8741254283      0.8437693918
H      -1.1376654927      1.7449050593     -0.8919275997
12
Frame=4  time=2.500fs  energy=-306.20229957Ha  molecule=COOCCCHHHHHH
C       0.1090569848      0.3563609692      0.0047043150
O       1.4251133967      0.3802491554     -0.0150563891
O       2.1536298335     -0.7258656782      0.0087690574
C      -0.6565355237     -0.8641775605     -0.0094944459
C      -0.2545807067     -2.1485819415      0.0066793572
C      -0.4952933248      1.7021243097     -0.0017996291
H      -1.7191366825     -0.6108436501      0.1000964978
H       0.7836161857     -2.3967786951      0.0464489671
H      -0.8300679981     -3.0940617157     -0.0357602168
H       0.2448513904      2.5258877110      0.0531317942
H      -1.2126752816      1.8874934350      0.8310472655
H      -1.1321913446      1.7345696518     -0.8962337129
12
Frame=5  time=3.000fs  energy=-306.20090697Ha  molecule=COOCCCHHHHHH
C       0.1065900839      0.3585512701      0.0059274873
O       1.4267129990      0.3781417004     -0.0180126362
O       2.1549335180     -0.7247363109      0.0104774625
C      -0.6563454197     -0.8636596103     -0.0109737646
C      -0.2609699093     -2.1525926732      0.0079063109
C      -0.4915654863      1.7056774814     -0.0017307758
H      -1.7153067359     -0.6042760556      0.1167217506
H       0.7817667390     -2.4015315224      0.0543163273
H      -0.8151051708     -3.1126753308     -0.0414283969
H       0.2416153767      2.5280306946      0.0595680848
H      -1.2196575170      1.8995295958      0.8180873348
H      -1.1261551782      1.7258944114     -0.9011165440
12
Frame=6  time=3.500fs  energy=-306.20015327Ha  molecule=COOCCCHHHHHH
C       0.1078129759      0.3607404120      0.0073203869
O       1.4264231752      0.3760338602     -0.0209559206
O       2.1561919086     -0.7236230864      0.0121749546
C      -0.6572238111     -0.8620004003     -0.0123606054
C      -0.2665128144     -2.1580749415      0.0091049734
C      -0.4884679322      1.7092981913     -0.0013460427
H      -1.7135314850     -0.6009916473      0.1324672754
H       0.7826359268     -2.4034636712      0.0617932285
H      -0.8056192664     -3.1275791148     -0.0466604483
H       0.2392529869      2.5278662269      0.0610922380
H      -1.2272211864      1.9092140899      0.8049396380
H      -1.1186989538      1.7220380211     -0.9066495024
12
Frame=7  time=4.000fs  energy=-306.20039320Ha  molecule=COOCCCHHHHHH
C       0.1117419943      0.3637747706      0.0089220338
O       1.4248615480      0.3737517497     -0.0238885131
O       2.1573569715     -0.7224458460      0.0138632710
C      -0.6587137391     -0.8620527534     -0.0136739969
C      -0.2714853368     -2.1637679291      0.0102780569
C      -0.4863353024      1.7131556308     -0.0005369837
H      -1.7124327784     -0.5983129884      0.1474235379
H       0.7859592500     -2.3980009257      0.0689068441
H      -0.8050281302     -3.1344934390     -0.0514702133
H       0.2378285519      2.5259385035      0.0560008899
H      -1.2325948209      1.9137047971      0.7946131637
H      -1.1058432860      1.7221238975     -0.9157963708
12
Frame=8  time=4.500fs  energy=-306.20059922Ha  molecule=COOCCCHHHHHH
C       0.1164174694      0.3652685162      0.0105897710
O       1.4229590838      0.3718484023     -0.0268087459
O       2.1584359589     -0.7213694721      0.0155405753
C      -0.6599568296     -0.8633118419     -0.0148777758
C      -0.2761551388     -2.1691196492      0.0114260572
C      -0.4846033397      1.7179510432      0.0002503186
H      -1.7112092761     -0.5960434521      0.1614785634
H       0.7909352933     -2.3853827204      0.0756342506
H      -0.8124777631     -3.1339771346     -0.0558997492
H       0.2364791032      2.5247097353      0.0500344577
H      -1.2368937036      1.9162666443      0.7856581057
H      -1.0917670359      1.7223462083     -0.9260893251
12
Frame=9  time=5.000fs  energy=-306.20042126Ha  molecule=COOCCCHHHHHH
C       0.1217298177      0.3646939848      0.0123536062
O       1.4211445431      0.3703455491     -0.0297167124
O       2.1593390051     -0.7202997282      0.0172040384
C      -0.6615360390     -0.8650185555     -0.0159593355
C      -0.2802084167     -2.1737757474      0.0125433683
C      -0.4831466890      1.7233596807      0.0009291815
H      -1.7107108470     -0.5943533451      0.1744901838
H       0.7959297009     -2.3725779674      0.0819109385
H      -0.8243480313     -3.1290085457     -0.0598647711
H       0.2344161946      2.5252323270      0.0435903496
H      -1.2413476437      1.9189788316      0.7770366185
H      -1.0779477428      1.7247393536     -0.9361272088
12
Frame=10  time=5.500fs  energy=-306.20021070Ha  molecule=COOCCCHHHHHH
C       0.1272578906      0.3635670256      0.0147867546
O       1.4198943959      0.3693669900     -0.0326696587
O       2.1602422782     -0.7194226963      0.0188415910
C      -0.6643904813     -0.8670482470     -0.0167269781
C      -0.2831795786     -2.1777859168      0.0133334191
C      -0.4819302145      1.7287207635      0.0008642968
H      -1.7126472291     -0.5964390597      0.1843044023
H       0.8002041495     -2.3637809232      0.0874528965
H      -0.8405615481     -3.1196234067     -0.0609406493
H       0.2330348550      2.5260417583      0.0380996983
H      -1.2441888280      1.9192207259      0.7699206829
H      -1.0652943279      1.7307209583     -0.9454098812
12
Frame=11  time=6.000fs  energy=-306.20079747Ha  molecule=COOCCCHHHHHH
C       0.1326830776      0.3621143413      0.0180780893
O       1.4190222661      0.3694726740     -0.0357288898
O       2.1614915639     -0.7192816520      0.0204619246
C      -0.6683227415     -0.8693237498     -0.0167738794
C      -0.2851288396     -2.1811180396      0.0138000092
C      -0.4811223972      1.7336928744     -0.0001230883
H      -1.7169597300     -0.6023734917      0.1866767476
H       0.8034245974     -2.3587950294      0.0897181737
H      -0.8610988116     -3.1060556314     -0.0575668757
H       0.2338494015      2.5257810421      0.0339747208
H      -1.2449209787      1.9171206477      0.7648421261
H      -1.0539223987      1.7414299856     -0.9538340888
12
Frame=12  time=6.500fs  energy=-306.20167769Ha  molecule=COOCCCHHHHHH
C       0.1379006359      0.3604246606      0.0218937035
O       1.4180098377      0.3706812882     -0.0388712913
O       2.1632208544     -0.7200345567      0.0220727226
C      -0.6724627873     -0.8716541327     -0.0160109999
C      -0.2865256859     -2.1840208035      0.0141272669
C      -0.4807700323      1.7381425788     -0.0017131747
H      -1.7225257179     -0.6097417159      0.1810228924
H       0.8054484011     -2.3546676103      0.0877866354
H      -0.8846859192     -3.0903022067     -0.0506130564
H       0.2376691050      2.5242376437      0.0304980162
H      -1.2443699151      1.9140197412      0.7617098019
H      -1.0429362122      1.7557988897     -0.9617931295
12
Frame=13  time=7.000fs  energy=-306.20231444Ha  molecule=COOCCCHHHHHH
C       0.1429905856      0.3583839139      0.0257558469
O       1.4168629207      0.3722904921     -0.0420065704
O       2.1651418637     -0.7211465150      0.0236653808
C      -0.6764158415     -0.8739004652     -0.0147435086
C      -0.2874611877     -2.1864447221      0.0145701094
C      -0.4808836150      1.7420759880     -0.0035150511
H      -1.7289284023     -0.6175162582      0.1706765840
H       0.8058359079     -2.3507659625      0.0828004047
H      -0.9109254877     -3.0729533201     -0.0427277495
H       0.2444766821      2.5222683730      0.0267946276
H      -1.2437490768      1.9112999185      0.7603135510
H      -1.0314434148      1.7722180411     -0.9696922118
12
Frame=14  time=7.500fs  energy=-306.20292665Ha  molecule=COOCCCHHHHHH
C       0.1478427032      0.3560305523      0.0296074409
O       1.4154012982      0.3738142651     -0.0450741446
O       2.1671178380     -0.7222695351      0.0252199536
C      -0.6799418486     -0.8759350459     -0.0131752943
C      -0.2878421046     -2.1882030903      0.0149719673
C      -0.4811367467      1.7454225681     -0.0056041149
H      -1.7360080896     -0.6257529253      0.1583173685
H       0.8040591088     -2.3479595668      0.0770020288
H      -0.9400530928     -3.0535792407     -0.0342508951
H       0.2537292235      2.5212487672      0.0230692134
H      -1.2432072113      1.9078852388      0.7608344451
H      -1.0196648972      1.7897100420     -0.9772702515
12
Frame=15  time=8.000fs  energy=-306.20357515Ha  molecule=COOCCCHHHHHH
C       0.1522627271      0.3533561965      0.0333973414
O       1.4136380749      0.3752003745     -0.0480488035
O       2.1691438242     -0.7233837915      0.0267264745
C      -0.6829210037     -0.8777005605     -0.0112653809
C      -0.2876811878     -2.1891561476      0.0153307842
C      -0.4814772979      1.7480676386     -0.0080110529
H      -1.7435131028     -0.6343676388      0.1438448396
H       0.7998957095     -2.3467197613      0.0704029103
H      -0.9717446848     -3.0320521439     -0.0252368051
H       0.2654920474      2.5211326711      0.0195400200
H      -1.2427426162      1.9038264147      0.7634069962
H      -1.0077324909      1.8081621830     -0.9844673178
12
Frame=16  time=8.500fs  energy=-306.20399871Ha  molecule=COOCCCHHHHHH
C       0.1561076721      0.3503831969      0.0370617436
O       1.4117763923      0.3765494204     -0.0509035223
O       2.1711886802     -0.7245355877      0.0281751130
C      -0.6854526302     -0.8792686233     -0.0089838183
C      -0.2871183011     -2.1893083158      0.0156473424
C      -0.4818396941      1.7500424798     -0.0107346966
H      -1.7511577758     -0.6432403923      0.1272719088
H       0.7936348356     -2.3470822756      0.0630707886
H      -1.0048593376     -3.0088140749     -0.0157938746
H       0.2792605375      2.5217342852      0.0164936275
H      -1.2422497103      1.8992534879      0.7678573788
H      -0.9959203230      1.8273931264     -0.9912611610
12
Frame=17  time=9.000fs  energy=-306.20403634Ha  molecule=COOCCCHHHHHH
C       0.1592905097      0.3471672598      0.0403465809
O       1.4101449116      0.3780605029     -0.0535352184
O       2.1732031610     -0.7258119144      0.0295270945
C      -0.6877973162     -0.8807967840     -0.0061370872
C      -0.2864056899     -2.1887896692      0.0159004202
C      -0.4821451456      1.7515072528     -0.0137601009
H      -1.7585948912     -0.6522201516      0.1085594466
H       0.7861337177     -2.3487771163      0.0554835336
H      -1.0376442949     -2.9847363853     -0.0066114436
H       0.2939884426      2.5226491567      0.0143668343
H      -1.2413774186      1.8941228994      0.7737176095
H      -0.9847162863      1.8473767830     -0.9975944590
12
Frame=18  time=9.500fs  energy=-306.20376661Ha  molecule=COOCCCHHHHHH
C       0.1616434356      0.3437706676      0.0431119752
O       1.4088250955      0.3796907064     -0.0558948284
O       2.1751682470     -0.7271883176      0.0307659062
C      -0.6899330361     -0.8822452021     -0.0026670937
C      -0.2857588399     -2.1875970432      0.0160876105
C      -0.4822772026      1.7525164882     -0.0170188768
H      -1.7651656771     -0.6611399101      0.0879540487
H       0.7784442786     -2.3523001513      0.0479794118
H      -1.0689082898     -2.9599779436      0.0018855676
H       0.3086015939      2.5229755192      0.0134863887
H      -1.2396751966      1.8884918929      0.7802123074
H      -0.9744725673      1.8678339940     -1.0035068889
12
Frame=19  time=10.000fs  energy=-306.20331782Ha  molecule=COOCCCHHHHHH
C       0.1630813275      0.3402655858      0.0453752723
O       1.4078642042      0.3813912516     -0.0580032897
O       2.1770691425     -0.7286352734      0.0319030149
C      -0.6918531778     -0.8835740750      0.0013224443
C      -0.2853675291     -2.1857769389      0.0162279314
C      -0.4821458287      1.7531502513     -0.0204097620
H      -1.7703856287     -0.6698433159      0.0659510250
H       0.7715959343     -2.3579783803      0.0406581698
H      -1.0977189286     -2.9348062557      0.0096679297
H       0.3221450766      2.5219360906      0.0139887381
H      -1.2368311128      1.8825882205      0.7864840774
H      -0.9653836956      1.8883238575     -1.0090970673
12
Frame=20  time=10.500fs  energy=-306.20282470Ha  molecule=COOCCCHHHHHH
C       0.1636015365      0.3367204211      0.0472935463
O       1.4072723960      0.3831167552     -0.0599410580
O       2.1788968174     -0.7301242947      0.0329731244
C      -0.6935603765     -0.8847487468      0.0055986558
C      -0.2853503771     -2.1834060487      0.0163568703
C      -0.4817013378      1.7534853025     -0.0238270450
H      -1.7740446005     -0.6782000473      0.0431785049
H       0.7662618912     -2.3659138381      0.0333776376
H      -1.1235568213     -2.9095844827      0.0170791339
H       0.3340115600      2.5190693372      0.0158226900
H      -1.2327600225      1.8767686086      0.7918148907
H      -0.9574637225      1.9083253103     -1.0144783600
12
Frame=21  time=11.000fs  energy=-306.20239502Ha  molecule=COOCCCHHHHHH
C       0.1632572416      0.3331933275      0.0489171041
O       1.4070325645      0.3848297043     -0.0617409709
O       2.1806471014     -0.7316314277      0.0339915913
C      -0.6950603312     -0.8857408210      0.0100526548
C      -0.2857473487     -2.1805696879      0.0164912834
C      -0.4809293277      1.7535785289     -0.0272096306
H      -1.7761716040     -0.6861067676      0.0200617418
H       0.7626416783     -2.3760169402      0.0261806693
H      -1.1462777903     -2.8847351527      0.0241621005
H       0.3439616045      2.5142344669      0.0189351148
H      -1.2274707239      1.8712072843      0.7958015492
H      -0.9507025640      1.9275571388     -1.0196588386
12
Frame=22  time=11.500fs  energy=-306.20204664Ha  molecule=COOCCCHHHHHH
C       0.1621289844      0.3297326287      0.0502532742
O       1.4071123631      0.3865002056     -0.0634151290
O       2.1823187687     -0.7331377017      0.0349650589
C      -0.6963581893     -0.8865268458      0.0146332525
C      -0.2865387579     -2.1773489514      0.0166392638
C      -0.4798380835      1.7534639699     -0.0305278456
H      -1.7769446275     -0.6934793943     -0.0031044602
H       0.7605415133     -2.3880769780      0.0191665583
H      -1.1659850534     -2.8607005460      0.0308517177
H       0.3520282456      2.5075198919      0.0232607110
H      -1.2210659959      1.8659927487      0.7982841927
H      -0.9450568716      1.9458687171     -1.0245830894
12
Frame=23  time=12.000fs  energy=-306.20175644Ha  molecule=COOCCCHHHHHH
C       0.1603082843      0.3263796349      0.0513108344
O       1.4074718090      0.3881039396     -0.0649742825
O       2.1839120729     -0.7346280853      0.0358992487
C      -0.6974577716     -0.8870874469      0.0192980242
C      -0.2876704526     -2.1738176421      0.0168073558
C      -0.4784486044      1.7531572473     -0.0337692283
H      -1.7766156629     -0.7002460432     -0.0260849785
H       0.7595348056     -2.4018210904      0.0124109841
H      -1.1829134556     -2.8379038300      0.0371014333
H       0.3584158851      2.4991542353      0.0287103339
H      -1.2137274706      1.8611955057      0.7992627848
H      -0.9404454817      1.9631569392     -1.0291718895
12
Frame=24  time=12.500fs  energy=-306.20149346Ha  molecule=COOCCCHHHHHH
C       0.1578918002      0.3231702486      0.0520993297
O       1.4080666274      0.3896206755     -0.0664280310
O       2.1854281774     -0.7360904316      0.0367991457
C      -0.6983626665     -0.8874081593      0.0240112784
C      -0.2890740582     -2.1700439829      0.0170008660
C      -0.4767894438      1.7526621984     -0.0369324258
H      -1.7754646987     -0.7063457064     -0.0486882762
H       0.7591134662     -2.4169491908      0.0059735224
H      -1.1973588305     -2.8167091973      0.0428773013
H       0.3634300597      2.4894486064      0.0351753010
H      -1.2056840197      1.8568688971      0.7988507020
H      -0.9367604368      1.9793558165     -1.0333416407
12
Frame=25  time=13.000fs  energy=-306.20119538Ha  molecule=COOCCCHHHHHH
C       0.1549795403      0.3201343329      0.0526302318
O       1.4088499300      0.3910340562     -0.0677856118
O       2.1868692484     -0.7375149990      0.0376693457
C      -0.6990780808     -0.8874814818      0.0287424222
C      -0.2906803233     -2.1660925169      0.0172238989
C      -0.4748943554      1.7519775279     -0.0400225153
H      -1.7737697613     -0.7117325341     -0.0707582834
H       0.7587971709     -2.4331530709     -0.0000992747
H      -1.2096425464     -2.7973841696      0.0481571050
H       0.3674281233      2.4787574195      0.0425259608
H      -1.1971856988      1.8530458847      0.7972409769
H      -0.9338721290      1.9944357488     -1.0370230057
12
Frame=26  time=13.500fs  energy=-306.20084246Ha  molecule=COOCCCHHHHHH
C       0.1515530977      0.3180905807      0.0529184052
O       1.4099148270      0.3921320180     -0.0690566360
O       2.1882398069     -0.7388215416      0.0385143321
C      -0.6996527870     -0.8872170117      0.0334654067
C      -0.2925321414     -2.1621642295      0.0174791959
C      -0.4728329125      1.7508251770     -0.0430474528
H      -1.7721058194     -0.7177353368     -0.0921741984
H       0.7581199150     -2.4501774326     -0.0057741330
H      -1.2195261424     -2.7808394972      0.0529322040
H       0.3714100800      2.4665193194      0.0506127682
H      -1.1882306221      1.8494824275      0.7948506030
H      -0.9313889076      2.0081540785     -1.0403520618
12
Frame=27  time=14.000fs  energy=-306.20060244Ha  molecule=COOCCCHHHHHH
C       0.1476175593      0.3177660592      0.0529802036
O       1.4112692994      0.3927562336     -0.0702504629
O       2.1895701124     -0.7399663107      0.0393382849
C      -0.7004204922     -0.8863604928      0.0381586598
C      -0.2943965959     -2.1586296771      0.0177683312
C      -0.4706729639      1.7489424340     -0.0460147414
H      -1.7708648030     -0.7229843449     -0.1128444758
H       0.7566918441     -2.4695978402     -0.0110272629
H      -1.2261918798     -2.7683527948      0.0572029990
H       0.3762125257      2.4522748424      0.0592805025
H      -1.1787632756      1.8459610277      0.7921163716
H      -0.9288968662      2.0203423154     -1.0435110695
12
Frame=28  time=14.500fs  energy=-306.19974045Ha  molecule=COOCCCHHHHHH
C       0.1433961025      0.3184401155      0.0526708952
O       1.4123192609      0.3929078904     -0.0713656168
O       2.1908779799     -0.7409823630      0.0401506728
C      -0.7004890766     -0.8848779108      0.0428303945
C      -0.2966996592     -2.1556618155      0.0181043612
C      -0.4684534322      1.7466122073     -0.0487547709
H      -1.7687066367     -0.7243344042     -0.1326451427
H       0.7546999406     -2.4877331232     -0.0157958474
H      -1.2291931987     -2.7609581386      0.0607912564
H       0.3817091832      2.4369583735      0.0680034670
H      -1.1695527049      1.8433693564      0.7889103113
H      -0.9260776100      2.0307640335     -1.0465785504
12
Frame=29  time=15.000fs  energy=-306.19925105Ha  molecule=COOCCCHHHHHH
C       0.1391538453      0.3192934010      0.0512104730
O       1.4126178906      0.3923978837     -0.0723570987
O       2.1920696869     -0.7417424146      0.0409817650
C      -0.6987245290     -0.8828146360      0.0475427066
C      -0.3000930828     -2.1533236782      0.0186145297
C      -0.4663389213      1.7441554190     -0.0504064079
H      -1.7641607875     -0.7197215428     -0.1509558972
H       0.7524535120     -2.4995323179     -0.0199340210
H      -1.2281683604     -2.7595848953      0.0624053742
H       0.3878916413      2.4212246830      0.0747658121
H      -1.1629153477      1.8453004179      0.7842812401
H      -0.9211124007      2.0371983882     -1.0504797446
12
Frame=30  time=15.500fs  energy=-306.19923968Ha  molecule=COOCCCHHHHHH
C       0.1351382619      0.3203341015      0.0483935156
O       1.4123154548      0.3907374052     -0.0731247917
O       2.1928508899     -0.7417678128      0.0418060633
C      -0.6954397173     -0.8802829384      0.0515235817
C      -0.3044091113     -2.1516251805      0.0197290471
C      -0.4640036686      1.7418140102     -0.0508569308
H      -1.7577460274     -0.7098885247     -0.1612008253
H       0.7497977006     -2.5056617629     -0.0212564107
H      -1.2234247126     -2.7639430858      0.0577634948
H       0.3934835618      2.4072550350      0.0792244683
H      -1.1595060480      1.8509645787      0.7780122425
H      -0.9139038340      2.0380094685     -1.0551408030
12
Frame=31  time=16.000fs  energy=-306.19993669Ha  molecule=COOCCCHHHHHH
C       0.1315276135      0.3215948814      0.0446844680
O       1.4119801323      0.3877063136     -0.0736310147
O       2.1929332217     -0.7406590192      0.0425853225
C      -0.6919150334     -0.8776089304      0.0542554499
C      -0.3088620472     -2.1502260997      0.0212516674
C      -0.4608994153      1.7398275423     -0.0507171726
H      -1.7514912353     -0.6986002366     -0.1588671402
H       0.7461654521     -2.5104767506     -0.0165460874
H      -1.2169157284     -2.7715351696      0.0465119908
H       0.3966593949      2.3980691349      0.0826565414
H      -1.1584915274      1.8565689379      0.7706040879
H      -0.9061141943      2.0333334550     -1.0594562166
12
Frame=32  time=16.500fs  energy=-306.20128914Ha  molecule=COOCCCHHHHHH
C       0.1282586977      0.3231874761      0.0407265249
O       1.4115559076      0.3836072331     -0.0739287734
O       2.1924375987     -0.7386378166      0.0433032314
C      -0.6884483794     -0.8748483721      0.0558916374
C      -0.3132078781     -2.1490514334      0.0227746813
C      -0.4568201099      1.7381263537     -0.0507065820
H      -1.7460809109     -0.6869731667     -0.1456572850
H       0.7411150388     -2.5150682573     -0.0054343866
H      -1.2093439206     -2.7817909464      0.0315133388
H       0.3974641452      2.3945064458      0.0865939716
H      -1.1585547070      1.8592086534      0.7629778935
H      -0.8993670746      2.0248591351     -1.0623674778
12
Frame=33  time=17.000fs  energy=-306.20209940Ha  molecule=COOCCCHHHHHH
C       0.1251989582      0.3249977171      0.0365110172
O       1.4110828133      0.3789571528     -0.0741018655
O       2.1916047058     -0.7361688253      0.0439911367
C      -0.6849522943     -0.8718910739      0.0572465898
C      -0.3174012343     -2.1480180588      0.0239463622
C      -0.4522612236      1.7363986716     -0.0507500350
H      -1.7416502834     -0.6748023931     -0.1284317235
H       0.7341881396     -2.5191923463      0.0094686876
H      -1.2009521943     -2.7947477192      0.0167436675
H       0.3980677843      2.3947655364      0.0908193490
H      -1.1599960382      1.8609744504      0.7555508566
H      -0.8932504024      2.0138264996     -1.0640533165
12
Frame=34  time=17.500fs  energy=-306.20288816Ha  molecule=COOCCCHHHHHH
C       0.1222842974      0.3269255792      0.0320497992
O       1.4105867808      0.3741934538     -0.0741677936
O       2.1906250735     -0.7336441394      0.0446495272
C      -0.6813785809     -0.8686287446      0.0584395916
C      -0.3213947618     -2.1470799872      0.0251605686
C      -0.4476333765      1.7343800772     -0.0508753669
H      -1.7383600016     -0.6619513891     -0.1095599409
H       0.7250132371     -2.5225717527      0.0251840590
H      -1.1919100764     -2.8104162857      0.0013995981
H       0.4003463288      2.3974521523      0.0953106412
H      -1.1630135333      1.8633414330      0.7488747711
H      -0.8876580872      2.0015372643     -1.0645458736
12
Frame=35  time=18.000fs  energy=-306.20377017Ha  molecule=COOCCCHHHHHH
C       0.1196526754      0.3289548742      0.0273341264
O       1.4100482006      0.3693477240     -0.0741104459
O       2.1894714167     -0.7310893551      0.0452721565
C      -0.6777995583     -0.8650072582      0.0594510875
C      -0.3251502895     -2.1463019294      0.0264244190
C      -0.4429432212      1.7320449939     -0.0511144563
H      -1.7363866035     -0.6485130639     -0.0889828013
H       0.7135541778     -2.5249685785      0.0416815055
H      -1.1821364496     -2.8288006531     -0.0144565929
H       0.4045776345      2.4028895999      0.1000219201
H      -1.1679797021      1.8663679788      0.7432738933
H      -0.8827773357      1.9879974783     -1.0637389757
12
Frame=36  time=18.500fs  energy=-306.20456720Ha  molecule=COOCCCHHHHHH
C       0.1174843827      0.3310524384      0.0223732580
O       1.4094425578      0.3644738629     -0.0739162992
O       2.1881174901     -0.7285452862      0.0458529841
C      -0.6743390757     -0.8609841064      0.0602642873
C      -0.3286749680     -2.1457685221      0.0277434330
C      -0.4381888224      1.7294188491     -0.0514763235
H      -1.7356927477     -0.6346993037     -0.0667363679
H       0.7003495461     -2.5261889006      0.0588654339
H      -1.1714496688     -2.8494862627     -0.0306877573
H       0.4106327930      2.4109552218      0.1048464744
H      -1.1750777268      1.8700330962      0.7389065873
H      -0.8788583419      1.9733406911     -1.0616770792
12
Frame=37  time=19.000fs  energy=-306.20499943Ha  molecule=COOCCCHHHHHH
C       0.1159760643      0.3331662007      0.0172038848
O       1.4087472732      0.3596493995     -0.0735794602
O       2.1865458534     -0.7260681918      0.0463878159
C      -0.6711705355     -0.8565522265      0.0608720692
C      -0.3320438750     -2.1455659258      0.0291192443
C      -0.4333625557      1.7265999314     -0.0519295546
H      -1.7359143084     -0.6208529823     -0.0430152684
H       0.6867149590     -2.5261610861      0.0765499081
H      -1.1595891300     -2.8715262994     -0.0470638157
H       0.4177920893      2.4208752943      0.1096067904
H      -1.1840964502      1.8741836833      0.7355832509
H      -0.8761708342      1.9578723508     -1.0586157241
12
Frame=38  time=19.500fs  energy=-306.20489822Ha  molecule=COOCCCHHHHHH
C       0.1152840790      0.3352321852      0.0118918843
O       1.4079530918      0.3549647785     -0.0731066520
O       2.1847573297     -0.7237215476      0.0468762755
C      -0.6684804109     -0.8517636238      0.0612839789
C      -0.3353920320     -2.1457469049      0.0305476985
C      -0.4284622104      1.7237497786     -0.0524009818
H      -1.7363996514     -0.6073858917     -0.0181985281
H       0.6745745012     -2.5249868212      0.0944638621
H      -1.1463317477     -2.8935740877     -0.0632814836
H       0.4248325829      2.4313112972      0.1140761876
H      -1.1943439370      1.8785248719      0.7327162519
H      -0.8749072881      1.9420504636     -1.0550022620
12
Frame=39  time=20.000fs  energy=-306.20437574Ha  molecule=COOCCCHHHHHH
C       0.1155245009      0.3371969492      0.0065187419
O       1.4071694239      0.3505980047     -0.0725169878
O       2.1827613151     -0.7216038327      0.0473223190
C      -0.6665346212     -0.8468083664      0.0615262194
C      -0.3388875524     -2.1463808942      0.0320194984
C      -0.4235175449      1.7211063019     -0.0528030959
H      -1.7365870640     -0.5946508204      0.0072187671
H       0.6658279973     -2.5225464828      0.1123056078
H      -1.1314051581     -2.9146539767     -0.0790312878
H       0.4303888282      2.4409715266      0.1180349763
H      -1.2048772432      1.8827167856      0.7295320520
H      -0.8751213965      1.9263959527     -1.0513308337
12
Frame=40  time=20.500fs  energy=-306.20377598Ha  molecule=COOCCCHHHHHH
C       0.1167468811      0.3390265495      0.0011614864
O       1.4065748746      0.3467548906     -0.0718355403
O       2.1805738853     -0.7198189147      0.0477324783
C      -0.6655866816     -0.8419461843      0.0616331551
C      -0.3426459235     -2.1475233115      0.0335233395
C      -0.4185864283      1.7188977246     -0.0530701381
H      -1.7362289119     -0.5828487870      0.0327473718
H       0.6615671742     -2.5185083076      0.1298087267
H      -1.1146996670     -2.9344300509     -0.0940620980
H       0.4334513878      2.4490539355      0.1213189412
H      -1.2148365230      1.8864694746      0.7253947314
H      -0.8767064756      1.9113562937     -1.0479787753
12
Frame=41  time=21.000fs  energy=-306.20324252Ha  molecule=COOCCCHHHHHH
C       0.1188593823      0.3406925483     -0.0041179450
O       1.4061963464      0.3434628922     -0.0710866506
O       2.1782343519     -0.7183854240      0.0481135714
C      -0.6656184479     -0.8373010907      0.0616384225
C      -0.3466362359     -2.1490750843      0.0350487558
C      -0.4137177698      1.7171837739     -0.0531743200
H      -1.7352166658     -0.5720330054      0.0579780350
H       0.6617186370     -2.5129519212      0.1467681023
H      -1.0967774111     -2.9525820834     -0.1081962585
H       0.4336815091      2.4551128773      0.1238272572
H      -1.2235842195      1.8895462062      0.7199772253
H      -0.8793927065      1.8972107325     -1.0451486582
12
Frame=42  time=21.500fs  energy=-306.20270918Ha  molecule=COOCCCHHHHHH
C       0.1216679336      0.3421684201     -0.0092731474
O       1.4059118934      0.3405873814     -0.0702912695
O       2.1757985741     -0.7172461811      0.0484716379
C      -0.6663790266     -0.8328547099      0.0615715155
C      -0.3507097194     -2.1508131856      0.0365871775
C      -0.4089448272      1.7158723448     -0.0531232861
H      -1.7335161830     -0.5621597467      0.0825894040
H       0.6653399379     -2.5063496871      0.1630328838
H      -1.0787176875     -2.9686855673     -0.1213155222
H       0.4313067114      2.4589694158      0.1255102253
H      -1.2307318745      1.8917665337      0.7132562611
H      -0.8828130724      1.8840891233     -1.0428880881
12
Frame=43  time=22.000fs  energy=-306.20216745Ha  molecule=COOCCCHHHHHH
C       0.1249988757      0.3434415789     -0.0142719579
O       1.4056485885      0.3380317235     -0.0694669934
O       2.1733119372     -0.7163579153      0.0488119403
C      -0.6676607176     -0.8286063609      0.0614579814
C      -0.3547109874     -2.1525637215      0.0381319948
C      -0.4043060390      1.7148681703     -0.0529512226
H      -1.7312999596     -0.5531306978      0.1063389481
H       0.6711972966     -2.4989597887      0.1784990828
H      -1.0614358702     -2.9827051345     -0.1333538036
H       0.4268151673      2.4608363195      0.1263637545
H      -1.2361641939      1.8930452264      0.7054420726
H      -0.8866114678      1.8720403900     -1.0411285588
12
Frame=44  time=22.500fs  energy=-306.20161823Ha  molecule=COOCCCHHHHHH
C       0.1287305601      0.3445169209     -0.0190967711
O       1.4054276037      0.3357834560     -0.0686284237
O       2.1708027833     -0.7157112993      0.0491391931
C      -0.6693704102     -0.8246077496      0.0613199463
C      -0.3585345872     -2.1542489181      0.0396785076
C      -0.3998426172      1.7141174447     -0.0527071497
H      -1.7289030528     -0.5448192803      0.1290633910
H       0.6781660352     -2.4907432421      0.1931112648
H      -1.0454280650     -2.9950146957     -0.1443010033
H       0.4207820854      2.4612369264      0.1264306092
H      -1.2399995097      1.8933980306      0.6968906316
H      -0.8905003095      1.8610557478     -1.0397365604
12
Frame=45  time=23.000fs  energy=-306.20103316Ha  molecule=COOCCCHHHHHH
C       0.1327472900      0.3454098159     -0.0237449683
O       1.4052637874      0.3338181633     -0.0677871388
O       2.1682941159     -0.7152877088      0.0494576369
C      -0.6714130084     -0.8208792727      0.0611759874
C      -0.3621169909     -2.1558159124      0.0412239023
C      -0.3955767024      1.7135554726     -0.0524415831
H      -1.7266200824     -0.5370899469      0.1506833065
H       0.6853822713     -2.4817397952      0.2068657060
H      -1.0309563252     -3.0059795770     -0.1542061282
H       0.4138168210      2.4607278175      0.1257980901
H      -1.2424870101      1.8929078557      0.6880015221
H      -0.8942677346      1.8510580622     -1.0385674416
12
Frame=46  time=23.500fs  energy=-306.19952898Ha  molecule=COOCCCHHHHHH
C       0.1368628300      0.3462402742     -0.0279062840
O       1.4050852977      0.3323404492     -0.0669702366
O       2.1659189008     -0.7152445769      0.0497588516
C      -0.6738744653     -0.8174620363      0.0609875450
C      -0.3653203089     -2.1571921277      0.0427428571
C      -0.3913371969      1.7130890739     -0.0525493307
H      -1.7249445757     -0.5305482332      0.1711121521
H       0.6922538094     -2.4728275320      0.2197288486
H      -1.0184656168     -3.0154028211     -0.1628134710
H       0.4062404329      2.4600955291      0.1253639273
H      -1.2431380253      1.8900296521      0.6794681214
H      -0.8986015054      1.8426490349     -1.0370154560
12
Frame=47  time=24.000fs  energy=-306.19784702Ha  molecule=COOCCCHHHHHH
C       0.1406883054      0.3469321811     -0.0309397057
O       1.4052628404      0.3322433513     -0.0663228439
O       2.1640561514     -0.7162406977      0.0500571227
C      -0.6774176736     -0.8144492303      0.0614675604
C      -0.3676379327     -2.1579426586      0.0440403558
C      -0.3874708297      1.7123512622     -0.0536553532
H      -1.7251112828     -0.5276184064      0.1828631525
H       0.6982390523     -2.4673533796      0.2279106282
H      -1.0096365555     -3.0210537605     -0.1663321627
H       0.3999894761      2.4575431271      0.1265800906
H      -1.2406110781      1.8842383362      0.6724337100
H      -0.9045948827      1.8391812191     -1.0344761217
12
Frame=48  time=24.500fs  energy=-306.19863605Ha  molecule=COOCCCHHHHHH
C       0.1440581153      0.3472052189     -0.0327976482
O       1.4063092493      0.3338960137     -0.0659270371
O       2.1628226089     -0.7185341904      0.0503783644
C      -0.6823366613     -0.8118309690      0.0631984180
C      -0.3688390483     -2.1577548545      0.0450791666
C      -0.3846671361      1.7110716847     -0.0557457343
H      -1.7276371245     -0.5291178494      0.1804433580
H       0.7030656067     -2.4668604230      0.2283700999
H      -1.0052255146     -3.0217871917     -0.1627184644
H       0.3972127484      2.4505969251      0.1294687910
H      -1.2348721758      1.8780070362      0.6673314137
H      -0.9119347837      1.8428266787     -1.0312522827
12
Frame=49  time=25.000fs  energy=-306.20024193Ha  molecule=COOCCCHHHHHH
C       0.1471024804      0.3469345385     -0.0340478104
O       1.4082067858      0.3368285251     -0.0657320418
O       2.1620289422     -0.7217933120      0.0507368627
C      -0.6880842825     -0.8095036661      0.0660969846
C      -0.3692616991     -2.1567819304      0.0459954598
C      -0.3831682638      1.7093090069     -0.0582278966
H      -1.7317890290     -0.5332743320      0.1654326252
H       0.7067300707     -2.4691314677      0.2217028834
H      -1.0042588586     -3.0190465161     -0.1535125964
H       0.3983319182      2.4391322431      0.1326973357
H      -1.2273614520      1.8739912928      0.6636689585
H      -0.9191772151      1.8520817335     -1.0281154010
12
Frame=50  time=25.500fs  energy=-306.20063675Ha  molecule=COOCCCHHHHHH
C       0.1500244923      0.3462311366     -0.0351583376
O       1.4103508836      0.3403523769     -0.0656063020
O       2.1614373462     -0.7255384698      0.0511127482
C      -0.6935534423     -0.8075960478      0.0693839732
C      -0.3696684492     -2.1552692290      0.0469951893
C      -0.3823624893      1.7074208876     -0.0607199660
H      -1.7365658803     -0.5399857042      0.1456157282
H       0.7093086264     -2.4689342206      0.2117833998
H      -1.0059261118     -3.0146775996     -0.1425990066
H       0.4016090841      2.4262828956      0.1353143766
H      -1.2193922404      1.8713518365      0.6607933315
H      -0.9256029901      1.8633522503     -1.0251485607
12
Frame=51  time=26.000fs  energy=-306.20095603Ha  molecule=COOCCCHHHHHH
C       0.1529860417      0.3452338116     -0.0361394374
O       1.4126198470      0.3440190333     -0.0654954082
O       2.1608418374     -0.7293844893      0.0514886714
C      -0.6987823044     -0.8062220455      0.0726512183
C      -0.3695131480     -2.1533468896      0.0480020806
C      -0.3818968788      1.7057720223     -0.0632824401
H      -1.7423271517     -0.5485401018      0.1250440679
H       0.7062691968     -2.4649614696      0.2012568274
H      -1.0116207739     -3.0103811194     -0.1310004478
H       0.4062425638      2.4142050805      0.1373056652
H      -1.2109601084      1.8676742260      0.6590556176
H      -0.9311167831      1.8744924133     -1.0223353542
12
Frame=52  time=26.500fs  energy=-306.20131783Ha  molecule=COOCCCHHHHHH
C       0.1559525727      0.3440657002     -0.0369721940
O       1.4149880211      0.3478162442     -0.0654008994
O       2.1602563914     -0.7333525713      0.0518642143
C      -0.7040197867     -0.8052840133      0.0758727697
C      -0.3689973214     -2.1511847979      0.0490190220
C      -0.3818263503      1.7042868124     -0.0659358450
H      -1.7489858441     -0.5567057967      0.1037771932
H       0.7017199583     -2.4597429809      0.1901110388
H      -1.0196253362     -3.0053660589     -0.1186571894
H       0.4126070410      2.4033263713      0.1385156203
H      -1.2020759907      1.8628887481      0.6588688798
H      -0.9353757792      1.8854767055     -1.0197153508
12
Frame=53  time=27.000fs  energy=-306.20177624Ha  molecule=COOCCCHHHHHH
C       0.1588581586      0.3427121683     -0.0376347063
O       1.4174715920      0.3517436009     -0.0653247669
O       2.1596874371     -0.7374597611      0.0522389730
C      -0.7091983766     -0.8048150096      0.0790159538
C      -0.3681453377     -2.1487177037      0.0500504592
C      -0.3821117843      1.7028110807     -0.0687017706
H      -1.7567025726     -0.5645075178      0.0818941232
H       0.6956114831     -2.4533407125      0.1783309908
H      -1.0298395075     -2.9997227538     -0.1055019775
H       0.4205237963      2.3946314332      0.1387655046
H      -1.1930757056      1.8575305918      0.6603929500
H      -0.9383093292      1.8968673536     -1.0170301892
12
Frame=54  time=27.500fs  energy=-306.20235128Ha  molecule=COOCCCHHHHHH
C       0.1616390768      0.3411563537     -0.0381027188
O       1.4200968753      0.3557860942     -0.0652692946
O       2.1591329896     -0.7417132888      0.0526125217
C      -0.7142668450     -0.8049087896      0.0820389225
C      -0.3669807720     -2.1458930804      0.0511028755
C      -0.3827834591      1.7013465406     -0.0715968761
H      -1.7655483487     -0.5717194330      0.0595104824
H       0.6881741856     -2.4457005500      0.1659057723
H      -1.0422882902     -2.9931853351     -0.0914652912
H       0.4301722507      2.3886471967      0.1378563030
H      -1.1841222073      1.8515766337      0.6641347233
H      -0.9396638876      1.9086395544     -1.0143880731
12
Frame=55  time=28.000fs  energy=-306.20299539Ha  molecule=COOCCCHHHHHH
C       0.1642111184      0.3393860956     -0.0383517943
O       1.4228943717      0.3599170062     -0.0652366839
O       2.1585904064     -0.7461178755      0.0529843688
C      -0.7191695658     -0.8056600586      0.0848884023
C      -0.3655734965     -2.1426620677      0.0521852801
C      -0.3838450162      1.6999160152     -0.0746223270
H      -1.7754411876     -0.5780931033      0.0368024469
H       0.6799601129     -2.4368641597      0.1528414879
H      -1.0567877831     -2.9853347385     -0.0764873488
H       0.4414712683      2.3857086751      0.1355817073
H      -1.1753662894      1.8450302088      0.6705798096
H      -0.9392510293      1.9207474027     -1.0120174597
12
Frame=56  time=28.500fs  energy=-306.20361113Ha  molecule=COOCCCHHHHHH
C       0.1664751246      0.3374000922     -0.0381899767
O       1.4258930812      0.3640922977     -0.0653022150
O       2.1580556793     -0.7506713568      0.0533831232
C      -0.7238551364     -0.8071425409      0.0873264208
C      -0.3640597837     -2.1389933570      0.0533335794
C      -0.3852595768      1.6985738513     -0.0777212167
H      -1.7860360845     -0.5833913429      0.0142343061
H       0.6719865923     -2.4270316048      0.1388642402
H      -1.0728408106     -2.9755930123     -0.0600540576
H       0.4539324226      2.3857815159      0.1316532324
H      -1.1669746054      1.8381560021      0.6799357735
H      -0.9369183849      1.9328835027     -1.0103587571
12
Frame=57  time=29.000fs  energy=-306.20407329Ha  molecule=COOCCCHHHHHH
C       0.1683341938      0.3352149535     -0.0375363946
O       1.4291102005      0.3682478623     -0.0654976775
O       2.1575230452     -0.7553598057      0.0538208574
C      -0.7282889976     -0.8093765733      0.0892078910
C      -0.3626453063     -2.1348909790      0.0545715440
C      -0.3869428355      1.6974086740     -0.0808094160
H      -1.7966567359     -0.5874442692     -0.0077465572
H       0.6657554989     -2.4166008295      0.1239419285
H      -1.0895973506     -2.9633051415     -0.0419939938
H       0.4665934123      2.3883198882      0.1259327295
H      -1.1588887458      1.8311448704      0.6920331777
H      -0.9327825873      1.9448087263     -1.0098986676
12
Frame=58  time=29.500fs  energy=-306.20429275Ha  molecule=COOCCCHHHHHH
C       0.1697192799      0.3328684039     -0.0364582199
O       1.4325401160      0.3723039357     -0.0657975350
O       2.1569855795     -0.7601553680      0.0542879231
C      -0.7324618563     -0.8123027434      0.0905224034
C      -0.3615622712     -2.1304050101      0.0559043732
C      -0.3887727176      1.6965304129     -0.0837836585
H      -1.8063774549     -0.5901987883     -0.0287739309
H       0.6629158824     -2.4061070489      0.1083475728
H      -1.1059975034     -2.9479528342     -0.0225831990
H       0.4781445605      2.3922941509      0.1185013406
H      -1.1507853882      1.8240767974      0.7062220506
H      -0.9272684845      1.9563897740     -1.0110517747
12
Frame=59  time=30.000fs  energy=-306.20428396Ha  molecule=COOCCCHHHHHH
C       0.1706073121      0.3304145287     -0.0351619360
O       1.4361504676      0.3761757640     -0.0661223487
O       2.1564367925     -0.7650193553      0.0547542137
C      -0.7363840628     -0.8157842010      0.0913957336
C      -0.3609804128     -2.1256233186      0.0573177098
C      -0.3906165073      1.6960443782     -0.0865431580
H      -1.8142713571     -0.5917162416     -0.0486096074
H       0.6645520553     -2.3960362381      0.0926261492
H      -1.1211038008     -2.9294351840     -0.0025094154
H       0.4872435017      2.3964518351      0.1096535376
H      -1.1421606442      1.8169173837      0.7214880489
H      -0.9210302177      1.9676080131     -1.0140448718
12
Frame=60  time=30.500fs  energy=-306.20411578Ha  molecule=COOCCCHHHHHH
C       0.1710211457      0.3279144287     -0.0337399995
O       1.4398872549      0.3797837078     -0.0664448296
O       2.1558720828     -0.7699082179      0.0552106713
C      -0.7400693464     -0.8196347554      0.0918446105
C      -0.3609308272     -2.1206504009      0.0588114356
C      -0.3923604576      1.6960264291     -0.0889800380
H      -1.8196743513     -0.5921200930     -0.0669038981
H       0.6705725010     -2.3866383365      0.0771097717
H      -1.1344051356     -2.9082381618      0.0178593569
H       0.4928433793      2.3996685108      0.0996901519
H      -1.1326086022      1.8098139299      0.7366183185
H      -0.9146739876      1.9782672304     -1.0189508114
12
Frame=61  time=31.000fs  energy=-306.20378897Ha  molecule=COOCCCHHHHHH
C       0.1710185774      0.3254283560     -0.0322497669
O       1.4436838486      0.3830599849     -0.0667540218
O       2.1552890103     -0.7747788037      0.0556548065
C      -0.7435215434     -0.8236507406      0.0918619341
C      -0.3613065939     -2.1155894793      0.0603874961
C      -0.3939292159      1.6965065594     -0.0910172433
H      -1.8223301950     -0.5915436625     -0.0833236622
H       0.6797536726     -2.3778992093      0.0620514353
H      -1.1458704660     -2.8853554042      0.0382620361
H       0.4944097611      2.4012175953      0.0889222374
H      -1.1218894259      1.8029696628      0.7505106358
H      -0.9086876493      1.9881222259     -1.0256111794
12
Frame=62  time=31.500fs  energy=-306.20329442Ha  molecule=COOCCCHHHHHH
C       0.1706806329      0.3230100904     -0.0307466148
O       1.4474705609      0.3859555874     -0.0670399087
O       2.1546867876     -0.7795926708      0.0560844252
C      -0.7467321971     -0.8276371949      0.0914566183
C      -0.3619277550     -2.1105327588      0.0620441515
C      -0.3952933354      1.6974601551     -0.0926315799
H      -1.8224136499     -0.5901083468     -0.0976295454
H       0.6903403185     -2.3696537387      0.0476730468
H      -1.1557910911     -2.8620141634      0.0584592033
H       0.4920188373      2.4009044097      0.0776593257
H      -1.1099888768      1.7965800077      0.7623975775
H      -0.9033833192      1.9969514607     -1.0336160817
12
Frame=63  time=32.000fs  energy=-306.20266187Ha  molecule=COOCCCHHHHHH
C       0.1700993457      0.3207015570     -0.0292783309
O       1.4511850007      0.3884477695     -0.0672947632
O       2.1540658192     -0.7843203258      0.0564980309
C      -0.7496877181     -0.8314315080      0.0906554823
C      -0.3626134460     -2.1055550775      0.0637756433
C      -0.3964639218      1.6988122076     -0.0938575610
H      -1.8204480396     -0.5879236242     -0.1097137670
H       0.7006885016     -2.3617113245      0.0341390792
H      -1.1645813521     -2.8393608875      0.0782576827
H       0.4862979896      2.3990318991      0.0661783705
H      -1.0971362945      1.7908106007      0.7719674209
H      -0.8988750822      2.0045928806     -1.0423789628
12
Frame=64  time=32.500fs  energy=-306.20161736Ha  molecule=COOCCCHHHHHH
C       0.1693642057      0.3185282165     -0.0278826977
O       1.4547816699      0.3905442492     -0.0675111775
O       2.1534274949     -0.7889445324      0.0568945990
C      -0.7523812130     -0.8349223700      0.0894896586
C      -0.3632281855     -2.1007089462      0.0655369620
C      -0.3974766529      1.7004572954     -0.0947733775
H      -1.8171320641     -0.5850948783     -0.1193940050
H       0.7096535003     -2.3539263507      0.0218100845
H      -1.1726328852     -2.8182247946      0.0976067743
H       0.4781987870      2.3962037398      0.0546982992
H      -1.0837269361      1.7857685538      0.7793452115
H      -0.8951219009      2.0109807550     -1.0512899436
12
Frame=65  time=33.000fs  energy=-306.20056406Ha  molecule=COOCCCHHHHHH
C       0.1687650963      0.3166277025     -0.0266142592
O       1.4581847965      0.3917083278     -0.0676235610
O       2.1524819017     -0.7929490732      0.0572571862
C      -0.7549334234     -0.8381320207      0.0876151065
C      -0.3636830767     -2.0961419762      0.0670250371
C      -0.3978334852      1.7025765880     -0.0955162080
H      -1.8132844880     -0.5819277526     -0.1221346273
H       0.7167274263     -2.3462818478      0.0146051383
H      -1.1799915565     -2.7993517233      0.1160759232
H       0.4667826770      2.3956659734      0.0434529261
H      -1.0703977762      1.7795086289      0.7846856515
H      -0.8923809860      2.0143989260     -1.0595380044
12
Frame=66  time=33.500fs  energy=-306.20043879Ha  molecule=COOCCCHHHHHH
C       0.1684558097      0.3150577967     -0.0254795435
O       1.4613630669      0.3917137485     -0.0675858919
O       2.1510932172     -0.7960958488      0.0575679147
C      -0.7574164571     -0.8410827214      0.0846429923
C      -0.3639459895     -2.0919218672      0.0685267938
C      -0.3973140604      1.7052202696     -0.0962244740
H      -1.8094727834     -0.5786090756     -0.1147823860
H       0.7218253557     -2.3387800621      0.0132607492
H      -1.1867149688     -2.7830020674      0.1311930066
H       0.4519150788      2.3991528089      0.0326493464
H      -1.0574932682      1.7709381859      0.7883615650
H      -0.8907924934      2.0142527598     -1.0666257711
12
Frame=67  time=34.000fs  energy=-306.20050672Ha  molecule=COOCCCHHHHHH
C       0.1683877674      0.3137623584     -0.0247244812
O       1.4643369621      0.3908162017     -0.0674075114
O       2.1493742521     -0.7985850915      0.0578419398
C      -0.7598083980     -0.8437466178      0.0807448224
C      -0.3640234156     -2.0880085724      0.0703380875
C      -0.3961486498      1.7082163795     -0.0966554309
H      -1.8059626306     -0.5751361676     -0.0991406831
H       0.7250449238     -2.3314021670      0.0156736503
H      -1.1929805719     -2.7690140973      0.1420292091
H       0.4348650682      2.4060260868      0.0216772568
H      -1.0457881674      1.7617244785      0.7904911631
H      -0.8894819039      2.0103586541     -1.0728492528
12
Frame=68  time=34.500fs  energy=-306.20008008Ha  molecule=COOCCCHHHHHH
C       0.1685104830      0.3124324109     -0.0246114980
O       1.4673022296      0.3892136509     -0.0671499842
O       2.1474216118     -0.8006236658      0.0581151304
C      -0.7617109992     -0.8459626138      0.0765432305
C      -0.3641580776     -2.0843658497      0.0725618826
C      -0.3952087592      1.7112767875     -0.0964604273
H      -1.8022773685     -0.5700786870     -0.0808017863
H       0.7266778747     -2.3227710740      0.0183010350
H      -1.1983288612     -2.7578488212      0.1498242137
H       0.4183322774      2.4133115987      0.0097148229
H      -1.0359571429      1.7558398478      0.7913057463
H      -0.8872090762      2.0042771327     -1.0789886579
12
Frame=69  time=35.000fs  energy=-306.19995168Ha  molecule=COOCCCHHHHHH
C       0.1686497636      0.3112625461     -0.0250673703
O       1.4698204718      0.3870831319     -0.0668446151
O       2.1454522920     -0.8024607366      0.0583975333
C      -0.7626572837     -0.8472058648      0.0723276825
C      -0.3639433767     -2.0812103833      0.0748554186
C      -0.3940463252      1.7134680961     -0.0957125762
H      -1.7981965420     -0.5617810475     -0.0616369853
H       0.7198097269     -2.3115477235      0.0214014129
H      -1.2022385268     -2.7544172172      0.1567324944
H       0.4002651171      2.4229025057     -0.0031309960
H      -1.0289197857      1.7562017223      0.7895709338
H      -0.8849892117      1.9993905764     -1.0834870709
12
Frame=70  time=35.500fs  energy=-306.19993407Ha  molecule=COOCCCHHHHHH
C       0.1686704143      0.3106409529     -0.0256970596
O       1.4715297381      0.3847394520     -0.0665160712
O       2.1436912414     -0.8044135838      0.0586747004
C      -0.7630184977     -0.8471807549      0.0680550216
C      -0.3638500799     -2.0789102009      0.0771852848
C      -0.3923789781      1.7145184248     -0.0948672440
H      -1.7934154990     -0.5476201236     -0.0419123920
H       0.7116929698     -2.3020715524      0.0248093245
H      -1.2015130023     -2.7574579342      0.1632391834
H       0.3804434136      2.4354190063     -0.0158718796
H      -1.0237898435      1.7610079369      0.7857074189
H      -0.8837875177      1.9968520700     -1.0855548947
12
Frame=71  time=36.000fs  energy=-306.19976608Ha  molecule=COOCCCHHHHHH
C       0.1684209364      0.3116799213     -0.0264106040
O       1.4729048136      0.3820761434     -0.0661707292
O       2.1421553812     -0.8064386617      0.0589423724
C      -0.7631661677     -0.8452286220      0.0637250021
C      -0.3640268248     -2.0776241094      0.0795419468
C      -0.3907366157      1.7151425049     -0.0940963153
H      -1.7899157259     -0.5352737279     -0.0217622862
H       0.7022585144     -2.2960511158      0.0284570373
H      -1.1954120554     -2.7678856408      0.1694790198
H       0.3646580979      2.4459210206     -0.0277186501
H      -1.0192142552      1.7644553906      0.7818325723
H      -0.8829242179      1.9909766391     -1.0867698122
12
Frame=72  time=36.500fs  energy=-306.20066459Ha  molecule=COOCCCHHHHHH
C       0.1679069236      0.3138857312     -0.0272997594
O       1.4745858651      0.3788624416     -0.0658066799
O       2.1406261153     -0.8082289680      0.0591984284
C      -0.7632487873     -0.8401130446      0.0593634738
C      -0.3643422184     -2.0781553684      0.0819263846
C      -0.3892097219      1.7155496185     -0.0936897643
H      -1.7893299641     -0.5307835354     -0.0012733456
H       0.6928656646     -2.2910683799      0.0323276944
H      -1.1867543489     -2.7838848043      0.1754154183
H       0.3549201626      2.4531942123     -0.0350777927
H      -1.0164917406      1.7687999661      0.7769192243
H      -0.8854957042      1.9795484732     -1.0853255619
12
Frame=73  time=37.000fs  energy=-306.20103727Ha  molecule=COOCCCHHHHHH
C       0.1672636877      0.3167351315     -0.0283367308
O       1.4762895986      0.3753163499     -0.0654194063
O       2.1391240532     -0.8099189016      0.0594397934
C      -0.7631595735     -0.8340304145      0.0549652712
C      -0.3646582046     -2.0793467274      0.0843413398
C      -0.3877251666      1.7156982957     -0.0935703515
H      -1.7902286509     -0.5276807258      0.0195659090
H       0.6837835655     -2.2863653091      0.0364304171
H      -1.1776469197     -2.8018736172      0.1810260861
H       0.3488011687      2.4606522169     -0.0394803115
H      -1.0154419046      1.7749641656      0.7715120929
H      -0.8900774918      1.9652079598     -1.0814797996
12
Frame=74  time=37.500fs  energy=-306.20171612Ha  molecule=COOCCCHHHHHH
C       0.1684307340      0.3201099160     -0.0294805716
O       1.4767607075      0.3713675119     -0.0650024281
O       2.1376560144     -0.8115259364      0.0596621266
C      -0.7629296501     -0.8277472383      0.0505248259
C      -0.3649759134     -2.0804957391      0.0867902360
C      -0.3864472105      1.7156507532     -0.0936187634
H      -1.7926440722     -0.5250734190      0.0407615770
H       0.6752504002     -2.2832536362      0.0407756705
H      -1.1681636380     -2.8206563117      0.1862828678
H       0.3472585923      2.4683026568     -0.0431453620
H      -1.0179447579      1.7827072135      0.7652511841
H      -0.8968320219      1.9502370160     -1.0745599080
12
Frame=75  time=38.000fs  energy=-306.20272317Ha  molecule=COOCCCHHHHHH
C       0.1710035009      0.3239472889     -0.0307540671
O       1.4760583968      0.3669196877     -0.0645460005
O       2.1362473485     -0.8130219720      0.0598585382
C      -0.7623068885     -0.8210703499      0.0460553616
C      -0.3654064247     -2.0815995235      0.0892776609
C      -0.3853576390      1.7153325474     -0.0938916730
H      -1.7966724433     -0.5227941642      0.0622637146
H       0.6683437824     -2.2823209512      0.0453713373
H      -1.1580835954     -2.8397173791      0.1911166793
H       0.3505227009      2.4765925876     -0.0459605880
H      -1.0241545425      1.7921423329      0.7589058450
H      -0.9054566931      1.9343607995     -1.0646471563
12
Frame=76  time=38.500fs  energy=-306.20396621Ha  molecule=COOCCCHHHHHH
C       0.1737687740      0.3280097774     -0.0321847512
O       1.4747573289      0.3620065715     -0.0640367849
O       2.1349256176     -0.8144294917      0.0600193706
C      -0.7610061381     -0.8136954608      0.0415826388
C      -0.3661729061     -2.0828261554      0.0918080903
C      -0.3843914918      1.7147440982     -0.0944346222
H      -1.8021985990     -0.5204327327      0.0839525758
H       0.6647835694     -2.2837946721      0.0502103353
H      -1.1467355285     -2.8586274952      0.1954462702
H       0.3577298421      2.4865020293     -0.0478177011
H      -1.0333725492      1.8031679600      0.7539167318
H      -0.9149075149      1.9171124097     -1.0526303455
12
Frame=77  time=39.000fs  energy=-306.20537821Ha  molecule=COOCCCHHHHHH
C       0.1767888114      0.3323218509     -0.0337991064
O       1.4729115455      0.3567077708     -0.0634585066
O       2.1336960429     -0.8158194846      0.0601323077
C      -0.7591040500     -0.8057495157      0.0371515047
C      -0.3675229820     -2.0842584737      0.0943839194
C      -0.3835183234      1.7140500965     -0.0952468258
H      -1.8089975770     -0.5179524383      0.1055881966
H       0.6663573134     -2.2878175736      0.0552505515
H      -1.1331066717     -2.8768208595      0.1991981561
H       0.3684215305      2.4974341641     -0.0486676983
H      -1.0459374247      1.8159808923      0.7506137433
H      -0.9255938102      1.8985411168     -1.0388523889
12
Frame=78  time=39.500fs  energy=-306.20653817Ha  molecule=COOCCCHHHHHH
C       0.1800355970      0.3368750615     -0.0356134648
O       1.4705363673      0.3510580985     -0.0627939291
O       2.1325777389     -0.8172436774      0.0601833661
C      -0.7566363020     -0.7973866279      0.0328294557
C      -0.3695673871     -2.0858758167      0.0970030014
C      -0.3826636127      1.7134582105     -0.0962400532
H      -1.8160597429     -0.5153416544      0.1267735551
H       0.6737115762     -2.2944397733      0.0603966187
H      -1.1167568556     -2.8934177955      0.2023344705
H       0.3812298561      2.5078260734     -0.0485921658
H      -1.0614749403      1.8305285056      0.7488160158
H      -0.9379743220      1.8789060184     -1.0242077231
12
Frame=79  time=40.000fs  energy=-306.20682002Ha  molecule=COOCCCHHHHHH
C       0.1833864241      0.3416116780     -0.0376193615
O       1.4676775471      0.3451018342     -0.0620306830
O       2.1315938141     -0.8187451026      0.0601607405
C      -0.7536706397     -0.7888390267      0.0286977542
C      -0.3721442539     -2.0875564033      0.0996560356
C      -0.3817363494      1.7132230290     -0.0972206255
H      -1.8216788741     -0.5126070785      0.1469863016
H       0.6851531299     -2.3031373582      0.0654968150
H      -1.0982702442     -2.9077974298      0.2048946480
H       0.3938250127      2.5153837329     -0.0478781801
H      -1.0785927235      1.8463706482      0.7475941762
H      -0.9523773635      1.8587537221     -1.0101205568
12
Frame=80  time=40.500fs  energy=-306.20614367Ha  molecule=COOCCCHHHHHH
C       0.1866667513      0.3464302785     -0.0397762743
O       1.4644682175      0.3389403211     -0.0611683907
O       2.1307541538     -0.8203644465      0.0600603198
C      -0.7503476339     -0.7804114874      0.0248240234
C      -0.3748666795     -2.0891292321      0.1023273810
C      -0.3806932069      1.7135690573     -0.0979562310
H      -1.8242223307     -0.5097373802      0.1657381282
H       0.6971645451     -2.3127513210      0.0703822254
H      -1.0791344975     -2.9200152900      0.2070111614
H       0.4037828564      2.5181951038     -0.0469909734
H      -1.0952170455      1.8627408509      0.7455634367
H      -0.9687219692      1.8388125108     -0.9980274931
12
Frame=81  time=41.000fs  energy=-306.20504497Ha  molecule=COOCCCHHHHHH
C       0.1897123156      0.3512200679     -0.0420265701
O       1.4610805592      0.3326966030     -0.0602185903
O       2.1300506914     -0.8221265528      0.0598868208
C      -0.7468051060     -0.7723758937      0.0212393825
C      -0.3773421368     -2.0904341835      0.1050006335
C      -0.3795785757      1.7145757322     -0.0982982516
H      -1.8229969945     -0.5066666030      0.1827423773
H       0.7064536746     -2.3220896988      0.0749258341
H      -1.0610219649     -2.9305845918      0.2088603907
H       0.4098418571      2.5158160449     -0.0464082687
H      -1.1095553153      1.8788608184      0.7416646243
H      -0.9864215762      1.8197068918     -0.9886791899
12
Frame=82  time=41.500fs  energy=-306.20397852Ha  molecule=COOCCCHHHHHH
C       0.1924102477      0.3558919351     -0.0443172388
O       1.4576655548      0.3264756456     -0.0591976322
O       2.1294647264     -0.8240394975      0.0596494745
C      -0.7431255129     -0.7649070487      0.0179427450
C      -0.3793286624     -2.0913653915      0.1076633078
C      -0.3784948193      1.7161810112     -0.0982295515
H      -1.8183145345     -0.5032846494      0.1979226936
H       0.7112265128     -2.3303703735      0.0790624197
H      -1.0451444384     -2.9400521603      0.2105991017
H       0.4121059147      2.5091584283     -0.0464857473
H      -1.1206977396      1.8941954186      0.7356133810
H      -1.0046080673      1.8017994951     -0.9820119452
12
Frame=83  time=42.000fs  energy=-306.20307849Ha  molecule=COOCCCHHHHHH
C       0.1946965782      0.3603843453     -0.0466088674
O       1.4543320065      0.3203518900     -0.0581209799
O       2.1289754727     -0.8261013740      0.0593579016
C      -0.7393402505     -0.7580899284      0.0149169340
C      -0.3807433497     -2.0918731012      0.1103074816
C      -0.3775478053      1.7182566704     -0.0978239464
H      -1.8110036800     -0.4994756325      0.2113263867
H       0.7111116440     -2.3372513579      0.0827719612
H      -1.0321169254     -2.9487552113      0.2123409964
H       0.4114073161      2.4996960472     -0.0474419119
H      -1.1285168478      1.9084741923      0.7277690924
H      -1.0224130997      1.7852354085     -0.9775058449
12
Frame=84  time=42.500fs  energy=-306.20231661Ha  molecule=COOCCCHHHHHH
C       0.1965412755      0.3646577426     -0.0488747484
O       1.4511515481      0.3143733700     -0.0570015262
O       2.1285637072     -0.8283053036      0.0590206552
C      -0.7354542902     -0.7519459819      0.0121385743
C      -0.3816172937     -2.0919501397      0.1129287051
C      -0.3768166408      1.7206645614     -0.0971898658
H      -1.8019941066     -0.4951502172      0.2230607052
H       0.7066909515     -2.3427074040      0.0860613942
H      -1.0220742513     -2.9567892583      0.2141612746
H       0.4087455615      2.4888932335     -0.0493899972
H      -1.1333325100      1.9216108877      0.7188056835
H      -1.0391352839      1.7700335672     -0.9745366786
12
Frame=85  time=43.000fs  energy=-306.20163391Ha  molecule=COOCCCHHHHHH
C       0.1979404693      0.3686905607     -0.0510981908
O       1.4481664003      0.3085669377     -0.0558499031
O       2.1282123265     -0.8306407851      0.0586453492
C      -0.7314660850     -0.7464486644      0.0095804444
C      -0.3820486898     -2.0916213451      0.1155251877
C      -0.3763461652      1.7232802808     -0.0964330599
H      -1.7921069987     -0.4902653068      0.2332735301
H       0.6990625821     -2.3469082637      0.0889566092
H      -1.0148202925     -2.9640923249      0.2161053945
H       0.4050265263      2.4779672463     -0.0523597981
H      -1.1356540398      1.9336345242      0.7094383066
H      -1.0543108047      1.7561385613     -0.9725541408
12
Frame=86  time=43.500fs  energy=-306.20065961Ha  molecule=COOCCCHHHHHH
C       0.1983829595      0.3723648820     -0.0532708559
O       1.4456615542      0.3029667716     -0.0546750378
O       2.1279124733     -0.8330956897      0.0582390787
C      -0.7272873078     -0.7414038103      0.0072111282
C      -0.3821706446     -2.0909976007      0.1180975103
C      -0.3761256072      1.7259883308     -0.0956375751
H      -1.7818721177     -0.4846791860      0.2421524701
H       0.6894818050     -2.3500034789      0.0914998344
H      -1.0099734771     -2.9706266466      0.2181945777
H       0.4004913543      2.4682625425     -0.0563067698
H      -1.1354781970      1.9444933733      0.7006428906
H      -1.0671772821      1.7432817361     -0.9715310729
12
Frame=87  time=44.000fs  energy=-306.20021926Ha  molecule=COOCCCHHHHHH
C       0.1961164354      0.3737563291     -0.0553910170
O       1.4443815539      0.2980463290     -0.0534841581
O       2.1276738969     -0.8358025859      0.0578082807
C      -0.7225006496     -0.7364836339      0.0049974009
C      -0.3819443379     -2.0900516668      0.1206481031
C      -0.3759916020      1.7291900973     -0.0948587476
H      -1.7706706840     -0.4751523954      0.2499065287
H       0.6792103352     -2.3518305276      0.0937428388
H      -1.0081261417     -2.9751175789      0.2204316318
H       0.3926248618      2.4638297080     -0.0611334194
H      -1.1316725296      1.9542228689      0.6939396687
H      -1.0761139341      1.7312074533     -0.9723304469
12
Frame=88  time=44.500fs  energy=-306.20030203Ha  molecule=COOCCCHHHHHH
C       0.1934338202      0.3735445345     -0.0573019271
O       1.4430664795      0.2936901502     -0.0522832740
O       2.1274829553     -0.8387596835      0.0573586812
C      -0.7175770180     -0.7324761123      0.0028845849
C      -0.3813003529     -2.0886193188      0.1231769250
C      -0.3763095333      1.7324542083     -0.0936731556
H      -1.7590042788     -0.4616002722      0.2567417288
H       0.6690971001     -2.3521706791      0.0957192577
H      -1.0100185820     -2.9762251129      0.2228860206
H       0.3806047511      2.4654893422     -0.0729424977
H      -1.1244763521      1.9610156606      0.6903220649
H      -1.0776359792      1.7255378469     -0.9764090051
12
Frame=89  time=45.000fs  energy=-306.20041613Ha  molecule=COOCCCHHHHHH
C       0.1911507755      0.3734366616     -0.0590420756
O       1.4415358726      0.2894444274     -0.0510748318
O       2.1272982112     -0.8417889501      0.0568919109
C      -0.7126256642     -0.7295704326      0.0008729518
C      -0.3805108526     -2.0870107729      0.1256835214
C      -0.3770793189      1.7352150292     -0.0922343456
H      -1.7479206801     -0.4483756852      0.2626934718
H       0.6600608010     -2.3485596277      0.0974439198
H      -1.0165866956     -2.9734013408      0.2255485552
H       0.3668163925      2.4709666015     -0.0900197104
H      -1.1150183237      1.9661172282      0.6889828394
H      -1.0735886468      1.7253684976     -0.9824113499
12
Frame=90  time=45.500fs  energy=-306.20020258Ha  molecule=COOCCCHHHHHH
C       0.1888053046      0.3729875764     -0.0607249505
O       1.4406180435      0.2851626536     -0.0498596969
O       2.1269337039     -0.8446568921      0.0564076322
C      -0.7076471618     -0.7274827777     -0.0010133701
C      -0.3797660599     -2.0848018077      0.1281666637
C      -0.3782601963      1.7379322326     -0.0909251823
H      -1.7381364364     -0.4385996220      0.2677137941
H       0.6518027614     -2.3429999384      0.0989208340
H      -1.0263985070     -2.9674502256      0.2283830750
H       0.3542898511      2.4783050836     -0.1076016044
H      -1.1052563366      1.9714096520      0.6884482381
H      -1.0683636594      1.7267099963     -0.9878861187
12
Frame=91  time=46.000fs  energy=-306.19998139Ha  molecule=COOCCCHHHHHH
C       0.1864486052      0.3721605226     -0.0622039364
O       1.4407018658      0.2809761488     -0.0486476255
O       2.1263549257     -0.8473576907      0.0559007744
C      -0.7036519575     -0.7260713751     -0.0027961539
C      -0.3784507852     -2.0818433969      0.1306128483
C      -0.3798942462      1.7406114347     -0.0899430466
H      -1.7308986476     -0.4326194722      0.2717495152
H       0.6442329494     -2.3407184567      0.1001147988
H      -1.0392278114     -2.9577172183      0.2315657369
H       0.3433477440      2.4874813170     -0.1251993962
H      -1.0950083604      1.9762683239      0.6891648907
H      -1.0623781879      1.7298591196     -0.9925958415
12
Frame=92  time=46.500fs  energy=-306.20023311Ha  molecule=COOCCCHHHHHH
C       0.1839459128      0.3712045749     -0.0629721567
O       1.4415603570      0.2773292422     -0.0474809893
O       2.1258003249     -0.8502592973      0.0553578502
C      -0.7009452327     -0.7253191625     -0.0044140683
C      -0.3763839940     -2.0781791558      0.1328062146
C      -0.3816971809      1.7431490179     -0.0898670653
H      -1.7266874644     -0.4306179858      0.2737886709
H       0.6377301283     -2.3434651847      0.1011067302
H      -1.0551565617     -2.9436863152      0.2367261204
H       0.3339529444      2.4988021823     -0.1415156149
H      -1.0832544503      1.9781519727      0.6919128622
H      -1.0569160963      1.7358377531     -0.9957275436
12
Frame=93  time=47.000fs  energy=-306.20073055Ha  molecule=COOCCCHHHHHH
C       0.1811840123      0.3703626738     -0.0629311916
O       1.4425336038      0.2745048960     -0.0463746143
O       2.1255322454     -0.8537191850      0.0547780694
C      -0.6988653293     -0.7251080252     -0.0057658347
C      -0.3740312463     -2.0740959992      0.1346207408
C      -0.3834604659      1.7454559720     -0.0908364097
H      -1.7247532094     -0.4309781327      0.2730655134
H       0.6331278329     -2.3491327853      0.1019365464
H      -1.0730160001     -2.9265659231      0.2447058718
H       0.3263744196      2.5121873232     -0.1562605727
H      -1.0699735864      1.9762297991      0.6971070423
H      -1.0521813816      1.7444010028     -0.9970732881
12
Frame=94  time=47.500fs  energy=-306.20115105Ha  molecule=COOCCCHHHHHH
C       0.1783352787      0.3695361297     -0.0624479362
O       1.4435826416      0.2720980539     -0.0453023012
O       2.1253750252     -0.8574527880      0.0541704496
C      -0.6968857212     -0.7253427714     -0.0068143902
C      -0.3718401976     -2.0697831948      0.1361734561
C      -0.3854111507      1.7475855973     -0.0925017940
H      -1.7244741058     -0.4317918037      0.2697528195
H       0.6313945268     -2.3557002482      0.1024222463
H      -1.0913949541     -2.9075109439      0.2546030621
H       0.3210910151      2.5271083948     -0.1702402148
H      -1.0563781328      1.9725413386      0.7048299309
H      -1.0473235012      1.7548379142     -0.9971838539
12
Frame=95  time=48.000fs  energy=-306.20166214Ha  molecule=COOCCCHHHHHH
C       0.1755188430      0.3687085106     -0.0618961611
O       1.4447502684      0.2699476088     -0.0442228565
O       2.1252219865     -0.8613106998      0.0535372723
C      -0.6949448023     -0.7260624765     -0.0076404521
C      -0.3699701169     -2.0652898169      0.1376808067
C      -0.3875468698      1.7495987963     -0.0945270473
H      -1.7259469101     -0.4327189945      0.2649297728
H       0.6333356763     -2.3628838750      0.1025368312
H      -1.1097184410     -2.8865017966      0.2647268324
H       0.3181174050      2.5435354313     -0.1842136143
H      -1.0437411433      1.9684690002      0.7151183258
H      -1.0416378225      1.7658589876     -0.9965577132
12
Frame=96  time=48.500fs  energy=-306.20232779Ha  molecule=COOCCCHHHHHH
C       0.1728044640      0.3679069526     -0.0612802468
O       1.4460429133      0.2681101904     -0.0431334933
O       2.1250648322     -0.8653137431      0.0528733946
C      -0.6930844379     -0.7273293051     -0.0081904961
C      -0.3684868449     -2.0606347610      0.1391362401
C      -0.3898262378      1.7515190013     -0.0969552616
H      -1.7293389018     -0.4338351412      0.2582963361
H       0.6393798712     -2.3707097558      0.1022164343
H      -1.1276964267     -2.8632828301      0.2750570389
H       0.3175118128      2.5610335176     -0.1980319051
H      -1.0323970497      1.9640692268      0.7283826304
H      -1.0354107946      1.7774835568     -0.9953267244
12
Frame=97  time=49.000fs  energy=-306.20293303Ha  molecule=COOCCCHHHHHH
C       0.1702946631      0.3671707126     -0.0606102639
O       1.4474611338      0.2666523180     -0.0420307349
O       2.1248920647     -0.8694834499      0.0521729031
C      -0.6913823947     -0.7291905077     -0.0084024091
C      -0.3673918561     -2.0558587718      0.1405329768
C      -0.3921829962      1.7533976980     -0.0998004706
H      -1.7346096445     -0.4352821672      0.2495208826
H       0.6492602264     -2.3790333382      0.1013993733
H      -1.1451153580     -2.8378426049      0.2855489995
H       0.3191114828      2.5787754555     -0.2114622518
H      -1.0225572850      1.9594166409      0.7447402333
H      -1.0291486635      1.7897033102     -0.9937365800
12
Frame=98  time=49.500fs  energy=-306.20317317Ha  molecule=COOCCCHHHHHH
C       0.1682845954      0.3665708285     -0.0599058790
O       1.4492993754      0.2659335503     -0.0409110516
O       2.1246498696     -0.8739674957      0.0514307213
C      -0.6903506961     -0.7318919942     -0.0082217482
C      -0.3666947933     -2.0512801662      0.1418672206
C      -0.3945662078      1.7555284798     -0.1030167525
H      -1.7416882946     -0.4372767201      0.2383460186
H       0.6619652848     -2.3864484021      0.1000549337
H      -1.1610687405     -2.8116308476      0.2961181236
H       0.3221014706      2.5958680990     -0.2241893527
H      -1.0142543649      1.9546854404      0.7637084479
H      -1.0236971759      1.8025125826     -0.9921390387
12
Frame=99  time=50.000fs  energy=-306.20318320Ha  molecule=COOCCCHHHHHH
C       0.1670526233      0.3661759283     -0.0591960102
O       1.4518156234      0.2662599958     -0.0397720386
O       2.1242864683     -0.8788868137      0.0506447917
C      -0.6904891589     -0.7355792783     -0.0076248750
C      -0.3663205144     -2.0472288965      0.1431414573
C      -0.3969093731      1.7582127932     -0.1064842850
H      -1.7500486622     -0.4400625111      0.2247230676
H       0.6757044760     -2.3914844281      0.0982140614
H      -1.1748342837     -2.7864691082      0.3066404360
H       0.3253102821      2.6111319468     -0.2358782911
H      -1.0071464774      1.9500654133      0.7841011479
H      -1.0200065897      1.8158124426     -0.9909412578
12
Frame=100  time=50.500fs  energy=-306.20307252Ha  molecule=COOCCCHHHHHH
C       0.1666828565      0.3660195352     -0.0585120954
O       1.4549866061      0.2676245092     -0.0386133463
O       2.1237880360     -0.8842234006      0.0498171037
C      -0.6919151170     -0.7401043481     -0.0066307065
C      -0.3660838123     -2.0438194544      0.1443647193
C      -0.3991297101      1.7615515659     -0.1100389754
H      -1.7586823546     -0.4438222048      0.2088618534
H       0.6883855615     -2.3936340530      0.0959725890
H      -1.1865132200     -2.7634862110      0.3169788502
H       0.3277466672      2.6232980347     -0.2462734684
H      -1.0005496535      1.9456774779      0.8043351412
H      -1.0187932612      1.8293811002     -0.9904843095
12
Frame=101  time=51.000fs  energy=-306.20273319Ha  molecule=COOCCCHHHHHH
C       0.1670460291      0.3660936363     -0.0578801386
O       1.4585126938      0.2697122450     -0.0374365153
O       2.1231815287     -0.8898258172      0.0489525334
C      -0.6943250455     -0.7450704126     -0.0052893756
C      -0.3657479702     -2.0409187676      0.1455492926
C      -0.4011523982      1.7654088609     -0.1135269890
H      -1.7664649474     -0.4486214777      0.1911407613
H       0.6982524822     -2.3935088606      0.0934597885
H      -1.1969835383     -2.7427866862      0.3270161765
H       0.3289793062      2.6314055430     -0.2552513311
H      -0.9936867306      1.9415499273      0.8229428977
H      -1.0203542067      1.8429279247     -0.9909399179
12
Frame=102  time=51.500fs  energy=-306.20244960Ha  molecule=COOCCCHHHHHH
C       0.1687744051      0.3665527398     -0.0573180199
O       1.4615299936      0.2720268763     -0.0362439868
O       2.1225045389     -0.8954811926      0.0480566804
C      -0.6973431246     -0.7502045144     -0.0036597578
C      -0.3650794091     -2.0381575494      0.1467069854
C      -0.4029648306      1.7695342945     -0.1168402718
H      -1.7726449086     -0.4546765961      0.1719660498
H       0.7041305256     -2.3925363102      0.0908015215
H      -1.2074230786     -2.7236788182      0.3366677219
H       0.3299006138      2.6342015618     -0.2627932130
H      -0.9868304170      1.9379104707      0.8382304406
H      -1.0255386317      1.8564186777     -0.9916440010
12
Frame=103  time=52.000fs  energy=-306.20226041Ha  molecule=COOCCCHHHHHH
C       0.1710423156      0.3672216176     -0.0568392480
O       1.4644023426      0.2745410285     -0.0350380038
O       2.1217649328     -0.9011573403      0.0471340417
C      -0.7007836940     -0.7551834065     -0.0017901844
C      -0.3640538415     -2.0356503196      0.1478471333
C      -0.4045588560      1.7738668099     -0.1199184465
H      -1.7769238922     -0.4616945317      0.1516698378
H       0.7057388286     -2.3905880205      0.0881022143
H      -1.2179451416     -2.7067501942      0.3458657161
H       0.3299034182      2.6326900668     -0.2689059977
H      -0.9788608747      1.9345851416      0.8500962311
H      -1.0334233797      1.8694415340     -0.9929865086
12
Frame=104  time=52.500fs  energy=-306.20239500Ha  molecule=COOCCCHHHHHH
C       0.1736520414      0.3680560911     -0.0564570172
O       1.4671836085      0.2772132284     -0.0338203439
O       2.1209725086     -0.9068219721      0.0461877972
C      -0.7045431490     -0.7598325308      0.0002840522
C      -0.3619787159     -2.0334209292      0.1489771538
C      -0.4059577255      1.7783502455     -0.1227403782
H      -1.7796232748     -0.4694672817      0.1305075407
H       0.6966646977     -2.3862254959      0.0854497980
H      -1.2304508067     -2.6944597660      0.3545416155
H       0.3291054949      2.6274391690     -0.2735867194
H      -0.9694995176      1.9315996453      0.8582711750
H      -1.0436343710      1.8817607338     -0.9947608327
12
Frame=105  time=53.000fs  energy=-306.20251929Ha  molecule=COOCCCHHHHHH
C       0.1765540411      0.3690623948     -0.0561922652
O       1.4698647021      0.2800114301     -0.0325918251
O       2.1201063772     -0.9124515525      0.0452192881
C      -0.7085935718     -0.7640338534      0.0025456443
C      -0.3596765101     -2.0315484017      0.1501034668
C      -0.4071824547      1.7829258187     -0.1253057475
H      -1.7804410745     -0.4780137198      0.1086557958
H       0.6844513106     -2.3812936901      0.0829303672
H      -1.2425961002     -2.6848713702      0.3625874238
H       0.3278445365      2.6188085832     -0.2767541955
H      -0.9587195845      1.9290749065      0.8624459690
H      -1.0559402763      1.8931197072     -0.9965264471
12
Frame=106  time=53.500fs  energy=-306.20252568Ha  molecule=COOCCCHHHHHH
C       0.1796913966      0.3702401764     -0.0560666822
O       1.4724339520      0.2829030477     -0.0313534615
O       2.1191559596     -0.9180179572      0.0442299323
C      -0.7128599110     -0.7676559911      0.0049756501
C      -0.3573058729     -2.0300893741      0.1512332606
C      -0.4082606057      1.7875095624     -0.1276507815
H      -1.7796373221     -0.4872041542      0.0863036885
H       0.6704734923     -2.3761943796      0.0806345187
H      -1.2538610987     -2.6780398276      0.3698877966
H       0.3266568218      2.6074202246     -0.2783717685
H      -0.9467336915      1.9271652240      0.8626605688
H      -1.0699434229      1.9032540475     -0.9977004917
12
Frame=107  time=54.000fs  energy=-306.20231132Ha  molecule=COOCCCHHHHHH
C       0.1829927940      0.3715814738     -0.0560962724
O       1.4748840917      0.2858520907     -0.0301068608
O       2.1181134197     -0.9234952756      0.0432218698
C      -0.7172369512     -0.7706041225      0.0075474344
C      -0.3550561568     -2.0290798020      0.1523741568
C      -0.4092277184      1.7919957378     -0.1298441866
H      -1.7777339193     -0.4968176820      0.0636670897
H       0.6564091193     -2.3713801015      0.0786479165
H      -1.2636868455     -2.6738274191      0.3763504311
H       0.3262356707      2.5942273489     -0.2785112295
H      -0.9339958948      1.9260238214      0.8594097515
H      -1.0850823622      1.9119646148     -0.9976876178
12
Frame=108  time=54.500fs  energy=-306.20188897Ha  molecule=COOCCCHHHHHH
C       0.1863787382      0.3730677864     -0.0562843814
O       1.4772161460      0.2888221212     -0.0288542623
O       2.1169772789     -0.9288656944      0.0421981075
C      -0.7216062871     -0.7728540253      0.0102261076
C      -0.3531179724     -2.0285160968      0.1535328016
C      -0.4101219309      1.7962797070     -0.1319691585
H      -1.7754042767     -0.5065699774      0.0409679036
H       0.6440092158     -2.3672808865      0.0770321200
H      -1.2715949170     -2.6718395811      0.3819421694
H       0.3272550927      2.5803715615     -0.2773811520
H      -0.9210958856      1.9257493467      0.8535850209
H      -1.1007280550      1.9191938931     -0.9960654254
12
Frame=109  time=55.000fs  energy=-306.20135038Ha  molecule=COOCCCHHHHHH
C       0.1897772858      0.3746729715     -0.0566200908
O       1.4794396810      0.2917826247     -0.0275980936
O       2.1157534570     -0.9341235466      0.0411620240
C      -0.7258666999     -0.7744581383      0.0129743982
C      -0.3516400295     -2.0283541112      0.1547134225
C      -0.4109739713      1.8002881966     -0.1340988382
H      -1.7732613458     -0.5161856026      0.0183925490
H       0.6347112790     -2.3642080099      0.0758103689
H      -1.2773019654     -2.6714950892      0.3867020267
H       0.3301498985      2.5668723817     -0.2752838434
H      -0.9085828070      1.9263538522      0.8462236660
H      -1.1163304777      1.9250428079     -0.9926974319
12
Frame=110  time=55.500fs  energy=-306.20038545Ha  molecule=COOCCCHHHHHH
C       0.1930827069      0.3764745700     -0.0570837464
O       1.4812194037      0.2949064357     -0.0263403552
O       2.1145279524     -0.9394287760      0.0401166399
C      -0.7296737404     -0.7754422196      0.0157601144
C      -0.3508768368     -2.0286303482      0.1559176089
C      -0.4115771777      1.8038523359     -0.1362817453
H      -1.7713109211     -0.5247021388     -0.0039346034
H       0.6294530709     -2.3611559023      0.0749711952
H      -1.2802965125     -2.6728587809      0.3907186917
H       0.3350047652      2.5544651419     -0.2725306604
H      -0.8967617608      1.9272013598      0.8381922396
H      -1.1314301164      1.9291344925     -0.9876479732
12
Frame=111  time=56.000fs  energy=-306.20064902Ha  molecule=COOCCCHHHHHH
C       0.1962572190      0.3785192801     -0.0576558635
O       1.4822530948      0.2982278829     -0.0250823159
O       2.1132697923     -0.9448493853      0.0390642068
C      -0.7326555821     -0.7758710307      0.0185597251
C      -0.3540130471     -2.0295169088      0.1571454594
C      -0.4118082749      1.8068442617     -0.1385441546
H      -1.7677602444     -0.5309868592     -0.0259413566
H       0.6554228692     -2.3625897385      0.0744887664
H      -1.2719363685     -2.6679759823      0.3940864150
H       0.3418123013      2.5433204048     -0.2693754671
H      -0.8857711476      1.9279140089      0.8301624677
H      -1.1457156983      1.9313782597     -0.9811309831
12
Frame=112  time=56.500fs  energy=-306.20041099Ha  molecule=COOCCCHHHHHH
C       0.1994988318      0.3804782097     -0.0589301219
O       1.4828726333      0.3011409078     -0.0237906840
O       2.1116663067     -0.9498348495      0.0380279358
C      -0.7344072794     -0.7755528033      0.0214525555
C      -0.3580443298     -2.0309354848      0.1584464312
C      -0.4120780291      1.8092408675     -0.1402827696
H      -1.7640305457     -0.5331099398     -0.0473186033
H       0.6830108482     -2.3602784059      0.0745656003
H      -1.2601774400     -2.6672757901      0.3960841101
H       0.3512943690      2.5330199977     -0.2673520462
H      -0.8774859482      1.9320149779      0.8221947654
H      -1.1574430113      1.9307949609     -0.9740097219
12
Frame=113  time=57.000fs  energy=-306.20028489Ha  molecule=COOCCCHHHHHH
C       0.2029278389      0.3820715958     -0.0612093383
O       1.4837274136      0.3032988251     -0.0224479095
O       2.1094615642     -0.9540160568      0.0370205879
C      -0.7353710101     -0.7746183932      0.0244735044
C      -0.3625038736     -2.0326283339      0.1598458042
C      -0.4127023188      1.8111348596     -0.1411732735
H      -1.7609595593     -0.5319629412     -0.0678966330
H       0.7102637729     -2.3553506866      0.0752888908
H      -1.2461764450     -2.6701233116      0.3963826058
H       0.3634529394      2.5232426724     -0.2673541930
H      -0.8729716085      1.9416382519      0.8145129549
H      -1.1658091873      1.9273183470     -0.9669963877
12
Frame=114  time=57.500fs  energy=-306.19864455Ha  molecule=COOCCCHHHHHH
C       0.2063669778      0.3834767164     -0.0642161784
O       1.4846853865      0.3050951742     -0.0210709964
O       2.1069584845     -0.9577528766      0.0360319536
C      -0.7358170732     -0.7732148148      0.0275693970
C      -0.3653701210     -2.0344400852      0.1613225358
C      -0.4133994796      1.8126153479     -0.1423640514
H      -1.7597646176     -0.5287775725     -0.0877479164
H       0.7205004162     -2.3454209263      0.0765572391
H      -1.2357796158     -2.6804680220      0.3953576217
H       0.3774071930      2.5144250897     -0.2690196454
H      -0.8755702652      1.9556184407      0.8128732119
H      -1.1676714674      1.9206642772     -0.9547151272
12
Frame=115  time=58.000fs  energy=-306.20106238Ha  molecule=COOCCCHHHHHH
C       0.2096331249      0.3848428746     -0.0672822150
O       1.4856160109      0.3068194811     -0.0196969976
O       2.1044918374     -0.9613243212      0.0350387487
C      -0.7358206799     -0.7713334572      0.0306138061
C      -0.3616155172     -2.0361869631      0.1628290543
C      -0.4139475488      1.8137790225     -0.1436459104
H      -1.7631746578     -0.5241546065     -0.1069357406
H       0.6687132968     -2.3213629720      0.0782517028
H      -1.2429873890     -2.7117340933      0.3937167338
H       0.3925294996      2.5071866122     -0.2706685715
H      -0.8796257212      1.9701527017      0.8126555332
H      -1.1690401248      1.9135242299     -0.9421780093
12
Frame=116  time=58.500fs  energy=-306.18881838Ha  molecule=COOCCCHHHHHH
C       0.2125839402      0.3862180717     -0.0703995850
O       1.4865719202      0.3084207215     -0.0183095088
O       2.1019452950     -0.9647143463      0.0340313586
C      -0.7354912429     -0.7690712832      0.0333324876
C      -0.3580291120     -2.0381261656      0.1646669965
C      -0.4142482259      1.8145469650     -0.1450215611
H      -1.7685058676     -0.5186584356     -0.1236856857
H       0.6174964630     -2.2980118631      0.0802256694
H      -1.2489037741     -2.7440121901      0.3894792487
H       0.4088334206      2.5020347157     -0.2722722401
H      -0.8852966410      1.9852078528      0.8142873195
H      -1.1702033720      1.9060579890     -0.9299838780
12
Frame=117  time=59.000fs  energy=-306.20057959Ha  molecule=COOCCCHHHHHH
C       0.2152767809      0.3877001503     -0.0735132939
O       1.4876353738      0.3099438989     -0.0168767538
O       2.0991019469     -0.9680799413      0.0329942673
C      -0.7354613702     -0.7670267309      0.0354129948
C      -0.3704475407     -2.0406661586      0.1672406554
C      -0.4143724028      1.8150984448     -0.1464761531
H      -1.7673441357     -0.5144772316     -0.1363285395
H       0.7139489994     -2.3094792396      0.0817613612
H      -1.2103396544     -2.7295487744      0.3804501360
H       0.4255249916      2.4980129902     -0.2737264406
H      -0.8915522225      2.0002735588      0.8169580531
H      -1.1715479330      1.8987526033     -0.9183676974
12
Frame=118  time=59.500fs  energy=-306.06486575Ha  molecule=COOCCCHHHHHH
C       0.2157151918      0.3888485745     -0.0766322874
O       1.4897441201      0.3109075936     -0.0153912086
O       2.0959454996     -0.9707900743      0.0319263910
C      -0.7348832024     -0.7642281520      0.0367294464
C      -0.3827080409     -2.0436887425      0.1704096157
C      -0.4135837417      1.8155215844     -0.1479504978
H      -1.7674727168     -0.5090880247     -0.1432417974
H       0.8079392814     -2.3206458020      0.0843914954
H      -1.1712946891     -2.7171403248      0.3666125003
H       0.4388476800      2.4997285076     -0.2751223185
H      -0.8966451537      2.0130199398      0.8221831817
H      -1.1714653346      1.8893227420     -0.9094197411
12
Frame=119  time=60.000fs  energy=-305.24372500Ha  molecule=COOCCCHHHHHH
C       0.2151030769      0.3894514991     -0.0797675672
O       1.4922917106      0.3112631927     -0.0138276456
O       2.0933220176     -0.9726385909      0.0308306322
C      -0.7326540910     -0.7598306090      0.0376656037
C      -0.3413417011     -2.0452908345      0.1733366105
C      -0.4121816901      1.8163777980     -0.1495535726
H      -1.7920457014     -0.4976758569     -0.1457856299
H       0.4059825089     -2.2156334071      0.0904967918
H      -1.2798621588     -2.8638538203      0.3523691443
H       0.4485553790      2.5057292091     -0.2762320199
H      -0.9003604016      2.0225774430      0.8279921341
H      -1.1700692578      1.8770511841     -0.9004332909
12
Frame=120  time=60.500fs  energy=-301.35036218Ha  molecule=COOCCCHHHHHH
C       0.2154638039      0.3910801422     -0.0829905619
O       1.4948024464      0.3110715778     -0.0121015884
O       2.0886274310     -0.9752927307      0.0296779516
C      -0.7349016058     -0.7597281227      0.0389032563
C      -0.4366365037     -2.0504894566      0.1755693049
C      -0.4118013623      1.8183202650     -0.1521706518
H      -1.7484196694     -0.5047149594     -0.1489204734
H       1.2751442316     -2.4058690544      0.0987431628
H      -1.0169731267     -2.6007776037      0.3418731437
H       0.4598135793      2.5108150026     -0.2757028359
H      -0.9040806394      2.0301824374      0.8327476651
H      -1.1650988050      1.8619022960     -0.8811961465
12
Frame=121  time=61.000fs  energy=-272.91807365Ha  molecule=COOCCCHHHHHH
C       0.2159682313      0.3905131567     -0.0862588657
O       1.4947831764      0.3094690076     -0.0103165834
O       2.0888592301     -0.9753875145      0.0285169023
C      -0.7262562487     -0.7503035911      0.0398953994
C      -0.2143093925     -2.0450113971      0.1771211171
C      -0.4107962917      1.8196704757     -0.1537611529
H      -1.8524511907     -0.4755568843     -0.1476967723
H      -0.7942829703     -1.9145445916      0.1122272855
H      -1.6288252315     -3.2751739355      0.3328189017
H       0.4709348106      2.5167570916     -0.2749590472
H      -0.9034261656      2.0347108709      0.8311363379
H      -1.1652815116      1.8453694062     -0.8683015826
12
Frame=122  time=61.500fs  energy=-39.32177036Ha  molecule=COOCCCHHHHHH
C       0.2143326989      0.3956604769     -0.0895324849
O       1.4972825114      0.3065601521     -0.0084926966
O       2.0761610564     -0.9794611995      0.0273568278
C      -0.7412018201     -0.7621631253      0.0407489212
C      -0.8226368217     -2.0645320209      0.1783042770
C      -0.4098251044      1.8204339381     -0.1506676705
H      -1.5652148885     -0.5415663929     -0.1440839443
H       4.8309843232     -3.2223991728      0.1285449191
H       0.0405200659     -1.4808884851      0.3245416429
H       0.4821440643      2.5198890571     -0.2733767880
H      -0.8797135953      2.0369023711      0.8006384332
H      -1.1850894333      1.8339610807     -0.8836991150
12
Frame=123  time=62.000fs  energy=1972.22725391Ha  molecule=COOCCCHHHHHH
C       0.2164965677      0.3843019291     -0.0928020096
O       1.4883214667      0.3031015249     -0.0066710910
O       2.1006276290     -0.9703549142      0.0261982042
C      -0.6834751465     -0.7102519367      0.0416013756
C       0.9224796804     -2.0102455739      0.1794859571
C      -0.4045917814      1.8222585201     -0.1475780572
H      -2.3848155574     -0.3374781917     -0.1404756350
H     -11.3379302129      0.5501006221      0.1448421438
H      -4.7574734015     -6.6582813244      0.3162747366
H       0.4679676601      2.4951808804     -0.2717965077
H      -0.8664570026      2.0356870395      0.7817625353
H      -1.2152989007      1.8191629330     -0.9106612518
12
Frame=124  time=62.500fs  energy=19588.09688136Ha  molecule=COOCCCHHHHHH
C       0.2061075423      0.4208820776     -0.0960674449
O       1.5097663022      0.2982534604     -0.0048517638
O       2.0168966051     -0.9984151925      0.0250410298
C      -0.8332173437     -0.8422511221      0.0424527638
C      -4.2081721057     -2.1703965897      0.1806661592
C      -0.4010908583      1.8255970216     -0.1444923084
H       0.0215008824     -0.9208280328     -0.1368718388
H      36.1640405436    -10.5306072533      0.1611189844
H       9.3439048162      8.5571035694      0.3080181704
H       0.4467346763      2.4600293290     -0.2702182041
H      -0.8419924221      2.0484026860      0.7599527235
H      -1.2342460139      1.8183127525     -0.9346321415
