12
Frame=0  time=0.500fs  energy=-306.20968158Ha  molecule=COOCCCHHHHHH
C       0.1307787910      0.3435443181     -0.0009923946
O       1.4179571958      0.3863820045      0.0020331649
O       2.1482442844     -0.7271132477     -0.0014456661
C      -0.6537171201     -0.8597171728      0.0004379849
C      -0.2084303256     -2.1276578408      0.0007484940
C      -0.5221521291      1.6908979207      0.0053487496
H      -1.7280882559     -0.6578147799     -0.0082815357
H       0.8393246666     -2.3805898730     -0.0076248557
H      -0.9178212821     -2.9412866779     -0.0319637727
H       0.2421810550      2.4697677746     -0.0227861593
H      -1.1604245865      1.7828116683      0.8864945419
H      -1.1608000166      1.7877869432     -0.8912143325
12
Frame=1  time=1.000fs  energy=-306.20772595Ha  molecule=COOCCCHHHHHH
C       0.1253954065      0.3456131163     -0.0019185359
O       1.4238816584      0.3794145276      0.0040463487
O       2.1493681908     -0.7223429614     -0.0028843898
C      -0.6515829868     -0.8589738413      0.0008661805
C      -0.2088614775     -2.1249237113      0.0013823019
C      -0.5276742107      1.6931429801      0.0103228544
H      -1.7264832919     -0.6465805208     -0.0165122161
H       0.8291485696     -2.4022583709     -0.0148765064
H      -0.9023193817     -2.9457408728     -0.0632063232
H       0.2451693146      2.4636855292     -0.0443581825
H      -1.1668842709      1.7624501182      0.8901752855
H      -1.1664775592      1.7711507675     -0.8966088895
12
Frame=2  time=1.500fs  energy=-306.20557936Ha  molecule=COOCCCHHHHHH
C       0.1208485854      0.3475333107     -0.0027361177
O       1.4291652177      0.3728440806      0.0060280926
O       2.1505980197     -0.7178388936     -0.0043125103
C      -0.6496733964     -0.8580074357      0.0012782086
C      -0.2091861024     -2.1223734607      0.0018282246
C      -0.5331547535      1.6950622895      0.0147379546
H      -1.7236086515     -0.6371763210     -0.0246617503
H       0.8209736782     -2.4219058631     -0.0215199797
H      -0.8905610748     -2.9515789904     -0.0932843735
H       0.2468600617      2.4585937701     -0.0639649928
H      -1.1734693114      1.7447160995      0.8948183418
H      -1.1708252662      1.7551987010     -0.8986548054
12
Frame=3  time=2.000fs  energy=-306.20376246Ha  molecule=COOCCCHHHHHH
C       0.1172263443      0.3492800429     -0.0034294743
O       1.4337325781      0.3667238354      0.0079746788
O       2.1519471685     -0.7136389486     -0.0057287055
C      -0.6479915243     -0.8567867162      0.0016713757
C      -0.2094076105     -2.1200907883      0.0020604043
C      -0.5385666720      1.6966143739      0.0185987909
H      -1.7198184913     -0.6296539328     -0.0327156668
H       0.8151039860     -2.4393533658     -0.0274721791
H      -0.8825581316     -2.9583063906     -0.1220428624
H       0.2471003842      2.4546201444     -0.0813629213
H      -1.1799867392      1.7298729580      0.9002961679
H      -1.1741318832      1.7400911211     -0.8975857545
12
Frame=4  time=2.500fs  energy=-306.20236654Ha  molecule=COOCCCHHHHHH
C       0.1144723324      0.3508551817     -0.0040016633
O       1.4376201613      0.3610400439      0.0098876638
O       2.1534117261     -0.7097344229     -0.0071333443
C      -0.6465000218     -0.8553225332      0.0020458699
C      -0.2095427339     -2.1181248493      0.0020852225
C      -0.5438900024      1.6978140497      0.0220051217
H      -1.7155954365     -0.6237962254     -0.0406716352
H       0.8112633072     -2.4546913451     -0.0327532223
H      -0.8776582803     -2.9652574100     -0.1495241727
H       0.2459606244      2.4517192745     -0.0966482437
H      -1.1862222077      1.7177284175      0.9063137895
H      -1.1769036665      1.7258696436     -0.8941997765
12
Frame=5  time=3.000fs  energy=-306.20103669Ha  molecule=COOCCCHHHHHH
C       0.1126005364      0.3520980894     -0.0044659075
O       1.4408491569      0.3557592130      0.0117713675
O       2.1549755287     -0.7060844614     -0.0085277817
C      -0.6452523633     -0.8530067808      0.0024037359
C      -0.2094699020     -2.1169888490      0.0019257741
C      -0.5491435121      1.6987341874      0.0250753339
H      -1.7117112394     -0.6200794615     -0.0485350545
H       0.8094320234     -2.4676676330     -0.0374365173
H      -0.8757051102     -2.9718143615     -0.1758742782
H       0.2436950506      2.4496971503     -0.1100876140
H      -1.1921116746      1.7079073868      0.9125526224
H      -1.1796582378      1.7125079256     -0.8892866643
12
Frame=6  time=3.500fs  energy=-306.20023204Ha  molecule=COOCCCHHHHHH
C       0.1141295524      0.3534357294     -0.0049267687
O       1.4421125181      0.3507193998      0.0136316601
O       2.1566088099     -0.7026398551     -0.0099145558
C      -0.6448199627     -0.8495422587      0.0027656359
C      -0.2088981565     -2.1172405494      0.0016107615
C      -0.5545555520      1.6991326731      0.0276504862
H      -1.7094290084     -0.6200137483     -0.0563475145
H       0.8098704627     -2.4778993630     -0.0416077607
H      -0.8774327615     -2.9768827715     -0.2013092239
H       0.2406539556      2.4478384885     -0.1185009779
H      -1.1971900564      1.7041200964      0.9185124786
H      -1.1842042804      1.6997354155     -0.8826840860
12
Frame=7  time=4.000fs  energy=-306.20042631Ha  molecule=COOCCCHHHHHH
C       0.1179927708      0.3558081958     -0.0054436328
O       1.4419276568      0.3457830363      0.0154717224
O       2.1583415848     -0.6993962548     -0.0112951115
C      -0.6446157810     -0.8470569319      0.0031436031
C      -0.2083328987     -2.1177038354      0.0011536249
C      -0.5596025846      1.6976723970      0.0296345368
H      -1.7077609113     -0.6230691783     -0.0641312007
H       0.8119483216     -2.4825811118     -0.0453053540
H      -0.8837590505     -2.9780529230     -0.2259378046
H       0.2317275185      2.4502857866     -0.1200093471
H      -1.1995466391      1.7116854570      0.9241017740
H      -1.1899730632      1.6905338403     -0.8744890276
12
Frame=8  time=4.500fs  energy=-306.20061893Ha  molecule=COOCCCHHHHHH
C       0.1223770713      0.3568600859     -0.0058742130
O       1.4412051593      0.3414714542      0.0172895765
O       2.1601483533     -0.6964824906     -0.0126678998
C      -0.6438985586     -0.8453179271      0.0035093956
C      -0.2079302305     -2.1179414412      0.0005440024
C      -0.5640665608      1.6956661547      0.0314466483
H      -1.7058361635     -0.6280176333     -0.0718276237
H       0.8153868046     -2.4810112325     -0.0485019189
H      -0.8948637545     -2.9743980560     -0.2496482680
H       0.2177420667      2.4576542055     -0.1199973345
H      -1.2021913424      1.7246017010      0.9281600597
H      -1.1972076371      1.6856415867     -0.8645776768
12
Frame=9  time=5.000fs  energy=-306.20051549Ha  molecule=COOCCCHHHHHH
C       0.1272125402      0.3561644814     -0.0061897047
O       1.4395059254      0.3381354591      0.0190821314
O       2.1621991228     -0.6941765423     -0.0140316853
C      -0.6426063650     -0.8438667429      0.0038577402
C      -0.2076606948     -2.1180526954     -0.0002399208
C      -0.5681303941      1.6940731054      0.0331355586
H      -1.7032316877     -0.6314562915     -0.0794161284
H       0.8195108145     -2.4759555323     -0.0511253318
H      -0.9078338142     -2.9683369384     -0.2723038101
H       0.2015382456      2.4679254017     -0.1189328911
H      -1.2047884961      1.7385152630      0.9315871300
H      -1.2055502711      1.6814339260     -0.8541832360
12
Frame=10  time=5.500fs  energy=-306.20026975Ha  molecule=COOCCCHHHHHH
C       0.1319347602      0.3555246208     -0.0057950102
O       1.4365181510      0.3362522065      0.0207958145
O       2.1649730885     -0.6930717221     -0.0153982109
C      -0.6410726855     -0.8425000313      0.0042931472
C      -0.2074450579     -2.1184287826     -0.0015722949
C      -0.5713381846      1.6922528809      0.0341065660
H      -1.7008407284     -0.6350673227     -0.0881291377
H       0.8239187504     -2.4694845416     -0.0526555224
H      -0.9215620635     -2.9609426716     -0.2913914540
H       0.1839792195      2.4799888724     -0.1155278037
H      -1.2053518447      1.7493114577      0.9352178006
H      -1.2159968135      1.6781867242     -0.8429841956
12
Frame=11  time=6.000fs  energy=-306.20080443Ha  molecule=COOCCCHHHHHH
C       0.1362744722      0.3551822251     -0.0045119616
O       1.4324844966      0.3362648385      0.0224224103
O       2.1686874445     -0.6935491912     -0.0167663608
C      -0.6394950104     -0.8412178342      0.0049272059
C      -0.2071835297     -2.1189441827     -0.0042316195
C      -0.5740280075      1.6898901036      0.0341967791
H      -1.6992420047     -0.6400577714     -0.0972864412
H       0.8282872432     -2.4626017531     -0.0497007228
H      -0.9361723024     -2.9515213459     -0.3035580205
H       0.1666597459      2.4917099091     -0.1094198713
H      -1.2030832759      1.7573178496      0.9394414423
H      -1.2288120355      1.6776224070     -0.8312794674
12
Frame=12  time=6.500fs  energy=-306.20171542Ha  molecule=COOCCCHHHHHH
C       0.1403816308      0.3547471356     -0.0026315661
O       1.4281181516      0.3377762517      0.0239848152
O       2.1730163570     -0.6951894639     -0.0181233501
C      -0.6380808076     -0.8400558179      0.0057273298
C      -0.2067869703     -2.1194276549     -0.0083244164
C      -0.5767889451      1.6870170717      0.0337695922
H      -1.6988270509     -0.6463930944     -0.1057950461
H       0.8323331909     -2.4557758130     -0.0411403072
H      -0.9514181134     -2.9395404895     -0.3088190113
H       0.1504896917      2.5017607879     -0.1013552588
H      -1.1985747681      1.7653556705      0.9439845982
H      -1.2433912412      1.6804426693     -0.8200188494
12
Frame=13  time=7.000fs  energy=-306.20239590Ha  molecule=COOCCCHHHHHH
C       0.1444394581      0.3540992935     -0.0005611037
O       1.4235900919      0.3402379201      0.0255100715
O       2.1776371134     -0.6975105684     -0.0194563664
C      -0.6365958930     -0.8390201862      0.0064865444
C      -0.2064863456     -2.1200338736     -0.0132376607
C      -0.5796700180      1.6838140112      0.0333368854
H      -1.6993543047     -0.6528170196     -0.1127324119
H       0.8359225690     -2.4475707219     -0.0287916733
H      -0.9660138708     -2.9259264261     -0.3103196682
H       0.1351213792      2.5106171330     -0.0923974877
H      -1.1928620025      1.7749382313      0.9481730359
H      -1.2589732619      1.6851491510     -0.8101422009
12
Frame=14  time=7.500fs  energy=-306.20298094Ha  molecule=COOCCCHHHHHH
C       0.1485945061      0.3533212808      0.0017678256
O       1.4191459251      0.3435840020      0.0269683989
O       2.1823370375     -0.7003225411     -0.0207590062
C      -0.6353739824     -0.8383837918      0.0071423536
C      -0.2063634522     -2.1209908249     -0.0184710268
C      -0.5823546647      1.6806032246      0.0329240381
H      -1.7012466850     -0.6593301802     -0.1192671268
H       0.8389259024     -2.4372639105     -0.0154386915
H      -0.9788387071     -2.9115835140     -0.3096333946
H       0.1193802920      2.5199965160     -0.0826132154
H      -1.1860564233      1.7847105182      0.9517813426
H      -1.2759305624      1.6907349650     -0.8017953881
12
Frame=15  time=8.000fs  energy=-306.20357577Ha  molecule=COOCCCHHHHHH
C       0.1527581518      0.3524156780      0.0043866635
O       1.4149771271      0.3479418951      0.0283460496
O       2.1870781102     -0.7036621513     -0.0220232937
C      -0.6345363640     -0.8382776679      0.0076565474
C      -0.2064655234     -2.1223222613     -0.0240268102
C      -0.5848377517      1.6774726738      0.0325579269
H      -1.7044987228     -0.6657794952     -0.1253204842
H       0.8411752497     -2.4246360086     -0.0011327347
H      -0.9893343039     -2.8970868972     -0.3065777020
H       0.1033966086      2.5298591952     -0.0722106902
H      -1.1782116872      1.7943502413      0.9548536179
H      -1.2941682744      1.6970918349     -0.7951447279
12
Frame=16  time=8.500fs  energy=-306.20398801Ha  molecule=COOCCCHHHHHH
C       0.1567182146      0.3513815751      0.0073158876
O       1.4111482565      0.3532432690      0.0296308465
O       2.1918290520     -0.7074671833     -0.0232415117
C      -0.6340097696     -0.8386945646      0.0079893260
C      -0.2067806966     -2.1238794687     -0.0298862362
C      -0.5871099670      1.6744220939      0.0322434934
H      -1.7086687495     -0.6719857227     -0.1308202923
H       0.8425441133     -2.4101811296      0.0139955604
H      -0.9975583019     -2.8828261330     -0.3010754680
H       0.0875094424      2.5398854323     -0.0615161550
H      -1.1694938135      1.8034030226      0.9575909395
H      -1.3132422434      1.7039508418     -0.7900653074
12
Frame=17  time=9.000fs  energy=-306.20405349Ha  molecule=COOCCCHHHHHH
C       0.1601739269      0.3502183375      0.0107048835
O       1.4076000943      0.3592290267      0.0307519528
O       2.1965653264     -0.7115803178     -0.0243828050
C      -0.6335486474     -0.8394915557      0.0079577337
C      -0.2072419695     -2.1253644312     -0.0359848494
C      -0.5891669415      1.6713724124      0.0319838049
H      -1.7129407919     -0.6777645242     -0.1355441309
H       0.8430277301     -2.3950472850      0.0294602051
H      -1.0041889000     -2.8690326879     -0.2927873304
H       0.0722286458      2.5495244685     -0.0510444861
H      -1.1602774571      1.8115291076      0.9602687598
H      -1.3322837473      1.7107085415     -0.7861634590
12
Frame=18  time=9.500fs  energy=-306.20384055Ha  molecule=COOCCCHHHHHH
C       0.1629577114      0.3489486927      0.0146183174
O       1.4044540935      0.3657761976      0.0316717636
O       2.2012339207     -0.7159007455     -0.0254299895
C      -0.6331580467     -0.8406527724      0.0074536104
C      -0.2078341826     -2.1266252790     -0.0422453728
C      -0.5910551599      1.6683786622      0.0317560015
H      -1.7166699803     -0.6829590067     -0.1393756948
H       0.8429435412     -2.3798262598      0.0448303912
H      -1.0096002400     -2.8567100817     -0.2817196896
H       0.0578957800      2.5584941387     -0.0412920353
H      -1.1510622386      1.8184034983      0.9632341249
H      -1.3503788801      1.7168368078     -0.7827750000
12
Frame=19  time=10.000fs  energy=-306.20344447Ha  molecule=COOCCCHHHHHH
C       0.1649766954      0.3476029157      0.0189737081
O       1.4018148485      0.3727517892      0.0324144052
O       2.2057847368     -0.7203271610     -0.0263911472
C      -0.6328660378     -0.8421490373      0.0065139524
C      -0.2085434187     -2.1275582094     -0.0485992399
C      -0.5928340617      1.6655028344      0.0315188506
H      -1.7193620635     -0.6874597795     -0.1423832410
H       0.8427085819     -2.3650249007      0.0599028830
H      -1.0141641971     -2.8467633494     -0.2683630126
H       0.0447700434      2.5665888276     -0.0326070481
H      -1.1422675730      1.8236693643      0.9668322184
H      -1.3667881890      1.7220194310     -0.7791732859
12
Frame=20  time=10.500fs  energy=-306.20297403Ha  molecule=COOCCCHHHHHH
C       0.1662086117      0.3462124544      0.0235652362
O       1.3997366531      0.3800177240      0.0330574527
O       2.2101797062     -0.7247654410     -0.0272963490
C      -0.6326895315     -0.8439288342      0.0053042206
C      -0.2093536091     -2.1281112024     -0.0549978177
C      -0.5945581513      1.6627899791      0.0312303580
H      -1.7207550164     -0.6912074744     -0.1447924427
H       0.8426882005     -2.3510497066      0.0747202091
H      -1.0181673479     -2.8397318523     -0.2535702591
H       0.0330178063      2.5736637258     -0.0251476940
H      -1.1341423884      1.8269749665      0.9713238975
H      -1.3811025832      1.7261917721     -0.7747771158
12
Frame=21  time=11.000fs  energy=-306.20253409Ha  molecule=COOCCCHHHHHH
C       0.1666872091      0.3448069412      0.0282928248
O       1.3982303412      0.3874499546      0.0336350662
O       2.2143934577     -0.7291380692     -0.0281591433
C      -0.6326342992     -0.8459311392      0.0038916430
C      -0.2102488820     -2.1282831136     -0.0613891107
C      -0.5962689503      1.6602667166      0.0308882100
H      -1.7208210857     -0.6941801874     -0.1467165476
H       0.8431155683     -2.3381739910      0.0891838127
H      -1.0217448071     -2.8357709135     -0.2378684080
H       0.0227197543      2.5796269411     -0.0190233511
H      -1.1268609895      1.8282297376      0.9767693275
H      -1.3931512408      1.7292704675     -0.7693262470
12
Frame=22  time=11.500fs  energy=-306.20215938Ha  molecule=COOCCCHHHHHH
C       0.1664800545      0.3434134596      0.0331092347
O       1.3972783571      0.3949455217      0.0341606319
O       2.2184102626     -0.7333850378     -0.0289851694
C      -0.6326985113     -0.8480954315      0.0022979961
C      -0.2112144446     -2.1281096439     -0.0677271088
C      -0.5979941255      1.6579445707      0.0305176199
H      -1.7197037944     -0.6963773459     -0.1482125267
H       0.8440821399     -2.3265530776      0.1031571663
H      -1.0248877602     -2.8347464277     -0.2215924023
H       0.0138963103      2.5844231550     -0.0142851655
H      -1.1205033406      1.8274863470      0.9830825160
H      -1.4029765861      1.7312047516     -0.7628233715
12
Frame=23  time=12.000fs  energy=-306.20184357Ha  molecule=COOCCCHHHHHH
C       0.1656714130      0.3420568957      0.0379742587
O       1.3968476704      0.4024212340      0.0346459060
O       2.2222205785     -0.7374605219     -0.0297795080
C      -0.6328766476     -0.8503666000      0.0005437022
C      -0.2122364018     -2.1276481940     -0.0739760661
C      -0.5997501578      1.6558239176      0.0301572695
H      -1.7176441211     -0.6978099087     -0.1493308276
H       0.8455669900     -2.3162544185      0.1165392445
H      -1.0274875653     -2.8363476080     -0.2050170678
H       0.0065286210      2.5880224490     -0.0109248224
H      -1.1150611934      1.8248495222      0.9900957194
H      -1.4107780955      1.7320068054     -0.7554398652
12
Frame=24  time=12.500fs  energy=-306.20156499Ha  molecule=COOCCCHHHHHH
C       0.1643527930      0.3407600110      0.0428536963
O       1.3968970807      0.4098099112      0.0351010600
O       2.2258190523     -0.7413295318     -0.0305466458
C      -0.6331620846     -0.8526964273     -0.0013527044
C      -0.2133012051     -2.1269665965     -0.0801078575
C      -0.6015454395      1.6538965709      0.0298520383
H      -1.7149221881     -0.6984985383     -0.1501158165
H       0.8474741522     -2.3072810738      0.1292538545
H      -1.0293868905     -2.8401719731     -0.1883686875
H       0.0005672079      2.5904188418     -0.0088919344
H      -1.1104706842      1.8204637256      0.9976004486
H      -1.4168432861      1.7317304090     -0.7474442844
12
Frame=25  time=13.000fs  energy=-306.20120229Ha  molecule=COOCCCHHHHHH
C       0.1626181320      0.3395426234      0.0477183438
O       1.3973803259      0.4170577271      0.0355349643
O       2.2292041168     -0.7449662899     -0.0312906396
C      -0.6335481199     -0.8550439460     -0.0033740903
C      -0.2143953302     -2.1261352291     -0.0861004338
C      -0.6033827275      1.6521472226      0.0296462220
H      -1.7118172260     -0.6984762936     -0.1506081135
H       0.8496658260     -2.2995848602      0.1412445189
H      -1.0304256518     -2.8457814120     -0.1718354323
H      -0.0040676658      2.5916357185     -0.0081015593
H      -1.1066371694      1.8145113600      1.0053810624
H      -1.4214984823      1.7304584755     -0.7391438274
12
Frame=26  time=13.500fs  energy=-306.20094821Ha  molecule=COOCCCHHHHHH
C       0.1603702320      0.3396869959      0.0525437318
O       1.3984721328      0.4238047594      0.0359554137
O       2.2323797693     -0.7482379044     -0.0320153031
C      -0.6340879205     -0.8572322346     -0.0055040870
C      -0.2156760837     -2.1254410094     -0.0919375278
C      -0.6053124702      1.6501138755      0.0295777090
H      -1.7090968633     -0.6999770580     -0.1508468787
H       0.8518635729     -2.2931233535      0.1524741584
H      -1.0295853033     -2.8539549790     -0.1555722158
H      -0.0064789820      2.5902641333     -0.0084381693
H      -1.1030614092      1.8068091474      1.0135196701
H      -1.4246818188      1.7278935468     -0.7311169716
12
Frame=27  time=14.000fs  energy=-306.20075637Ha  molecule=COOCCCHHHHHH
C       0.1576770174      0.3413871448      0.0573092914
O       1.4001100895      0.4299919489      0.0363689201
O       2.2353665801     -0.7511336879     -0.0327239163
C      -0.6349758052     -0.8590944436     -0.0077286380
C      -0.2169706113     -2.1251003219     -0.0976056076
C      -0.6073411064      1.6476991298      0.0296769161
H      -1.7069767367     -0.7016507508     -0.1508671039
H       0.8538723724     -2.2890035813      0.1629116948
H      -1.0262399294     -2.8648593960     -0.1397092035
H      -0.0066816443      2.5861951154     -0.0097809636
H      -1.0995554587      1.7975375513      1.0219154798
H      -1.4265943438      1.7240945564     -0.7236848986
12
Frame=28  time=14.500fs  energy=-306.19988129Ha  molecule=COOCCCHHHHHH
C       0.1550175198      0.3431564639      0.0618717194
O       1.4023051714      0.4352957001      0.0367881858
O       2.2378561600     -0.7532730412     -0.0334144902
C      -0.6358255717     -0.8606280745     -0.0100155027
C      -0.2183304012     -2.1250398465     -0.1030825108
C      -0.6098654995      1.6453868010      0.0301061158
H      -1.7045025827     -0.6996446277     -0.1506646161
H       0.8558124506     -2.2856182021      0.1725556166
H      -1.0202431352     -2.8781219407     -0.1245008992
H      -0.0052585283      2.5801486247     -0.0123185883
H      -1.0967119968      1.7890233555      1.0301780778
H      -1.4275282873      1.7203232952     -0.7171242317
12
Frame=29  time=15.000fs  energy=-306.19926740Ha  molecule=COOCCCHHHHHH
C       0.1528378530      0.3441446036      0.0654150977
O       1.4060474533      0.4389130897      0.0372653025
O       2.2392570716     -0.7538388782     -0.0340596532
C      -0.6367828109     -0.8620264645     -0.0122340949
C      -0.2197315628     -2.1248448874     -0.1082816849
C      -0.6136069837      1.6434172598      0.0317645451
H      -1.7021641329     -0.6956759252     -0.1499785103
H       0.8575480056     -2.2823809345      0.1815509376
H      -1.0124115403     -2.8922087078     -0.1110272382
H      -0.0018866345      2.5714723842     -0.0178765869
H      -1.0966238478      1.7866482642      1.0373184458
H      -1.4258693599      1.7158535260     -0.7127880814
12
Frame=30  time=15.500fs  energy=-306.19927871Ha  molecule=COOCCCHHHHHH
C       0.1513488258      0.3444302118      0.0677613585
O       1.4114115720      0.4404391593      0.0378419966
O       2.2393246219     -0.7524189247     -0.0346753543
C      -0.6382384995     -0.8634175212     -0.0148798031
C      -0.2209600325     -2.1245232826     -0.1119780697
C      -0.6180637106      1.6420276889      0.0348272920
H      -1.7006635480     -0.6909022934     -0.1471052042
H       0.8589110721     -2.2804086887      0.1860949131
H      -1.0030677311     -2.9063975066     -0.1053914061
H       0.0016081915      2.5625986159     -0.0267201168
H      -1.0998655013      1.7893804629      1.0427869610
H      -1.4217093535      1.7085751297     -0.7107280190
12
Frame=31  time=16.000fs  energy=-306.20006676Ha  molecule=COOCCCHHHHHH
C       0.1503838260      0.3446347589      0.0694303596
O       1.4175151576      0.4403476899      0.0384736637
O       2.2383845616     -0.7494273565     -0.0352837798
C      -0.6403184663     -0.8649185038     -0.0181371797
C      -0.2219089534     -2.1242905581     -0.1133485647
C      -0.6219749765      1.6413196631      0.0387683368
H      -1.7005248896     -0.6866200233     -0.1436586624
H       0.8597636744     -2.2804226960      0.1817649291
H      -0.9925136529     -2.9201964138     -0.1102684035
H       0.0028183274      2.5570023234     -0.0376002262
H      -1.1053634290      1.7915062939      1.0465896683
H      -1.4167265338      1.6966557536     -0.7099630585
12
Frame=32  time=16.500fs  energy=-306.20147447Ha  molecule=COOCCCHHHHHH
C       0.1497767718      0.3450442625      0.0710837994
O       1.4236882986      0.4390636183      0.0390975454
O       2.2367481622     -0.7453030906     -0.0358976009
C      -0.6426163931     -0.8664392453     -0.0218553004
C      -0.2227758294     -2.1243902941     -0.1127106471
C      -0.6249574018      1.6412059267      0.0429237053
H      -1.7014864454     -0.6821300714     -0.1415618340
H       0.8600236497     -2.2812777335      0.1684203418
H      -0.9801347884     -2.9340021199     -0.1230932018
H       0.0016488658      2.5549887350     -0.0489655288
H      -1.1114029940      1.7895090606      1.0492652647
H      -1.4127197270      1.6815408086     -0.7098755922
12
Frame=33  time=17.000fs  energy=-306.20231102Ha  molecule=COOCCCHHHHHH
C       0.1493668619      0.3455203408      0.0726401837
O       1.4299426705      0.4371033598      0.0396982682
O       2.2346634906     -0.7404964211     -0.0364929188
C      -0.6450121404     -0.8678601285     -0.0255335304
C      -0.2235471918     -2.1247741645     -0.1113277655
C      -0.6274907019      1.6414144791      0.0474438309
H      -1.7036879510     -0.6771993449     -0.1418850227
H       0.8594058978     -2.2829644341      0.1504481044
H      -0.9658709877     -2.9471011356     -0.1379359446
H       0.0000751541      2.5539555304     -0.0610259027
H      -1.1178431704      1.7853782602      1.0507304750
H      -1.4095229903      1.6647266251     -0.7112858243
12
Frame=34  time=17.500fs  energy=-306.20310503Ha  molecule=COOCCCHHHHHH
C       0.1490847961      0.3459577905      0.0740435073
O       1.4362433228      0.4348070483      0.0403132427
O       2.2322874324     -0.7352983618     -0.0370728910
C      -0.6474228135     -0.8690672906     -0.0293011129
C      -0.2241904803     -2.1254392858     -0.1096101703
C      -0.6298761293      1.6417556373      0.0523782336
H      -1.7072528516     -0.6717017049     -0.1421107455
H       0.8576446824     -2.2854771733      0.1309107015
H      -0.9496886665     -2.9588748970     -0.1538175218
H      -0.0005254066      2.5521085291     -0.0737388748
H      -1.1244503634      1.7802336390      1.0509374570
H      -1.4072873473      1.6474804137     -0.7147850654
12
Frame=35  time=18.000fs  energy=-306.20393810Ha  molecule=COOCCCHHHHHH
C       0.1490245846      0.3463265576      0.0752706045
O       1.4424805227      0.4321632933      0.0409474440
O       2.2295996429     -0.7296863150     -0.0376353099
C      -0.6498442845     -0.8699814972     -0.0331547975
C      -0.2246482042     -2.1264485005     -0.1075525737
C      -0.6320636274      1.6422097214      0.0577457484
H      -1.7121995963     -0.6657253457     -0.1422071350
H       0.8546158990     -2.2888165149      0.1097593145
H      -0.9316859317     -2.9690473368     -0.1706998047
H      -0.0000396717      2.5493504661     -0.0869882737
H      -1.1312479072      1.7740825194      1.0497682261
H      -1.4062482631      1.6299242309     -0.7205568305
12
Frame=36  time=18.500fs  energy=-306.20464357Ha  molecule=COOCCCHHHHHH
C       0.1492990022      0.3465893844      0.0763017462
O       1.4485017600      0.4291860403      0.0416069288
O       2.2265976837     -0.7236635258     -0.0381788360
C      -0.6522829221     -0.8705210530     -0.0370817621
C      -0.2248512614     -2.1278296891     -0.1051724849
C      -0.6340061082      1.6427363916      0.0634959723
H      -1.7182369589     -0.6594701090     -0.1421467978
H       0.8504481455     -2.2929431544      0.0870386858
H      -0.9124180398     -2.9776241878     -0.1884560868
H       0.0015811906      2.5456576616     -0.1005437935
H      -1.1383516019      1.7670643169      1.0473191134
H      -1.4063963824      1.6122221707     -0.7283524229
12
Frame=37  time=19.000fs  energy=-306.20500106Ha  molecule=COOCCCHHHHHH
C       0.1500173752      0.3467071819      0.0771267914
O       1.4541265930      0.4259253665      0.0422981297
O       2.2233066755     -0.7172719889     -0.0387036923
C      -0.6547517591     -0.8706248461     -0.0410574593
C      -0.2247331726     -2.1295504621     -0.1025190266
C      -0.6356722434      1.6432725008      0.0694891741
H      -1.7247353087     -0.6532395944     -0.1419127444
H       0.8456226967     -2.2977733041      0.0629285920
H      -0.8929635564     -2.9850001458     -0.2068472043
H       0.0042850009      2.5411298539     -0.1140535916
H      -1.1459609851      1.7594755204      1.0439559636
H      -1.4073599043      1.5945683037     -0.7373452436
12
Frame=38  time=19.500fs  energy=-306.20488165Ha  molecule=COOCCCHHHHHH
C       0.1512504366      0.3466486736      0.0777511012
O       1.4591840383      0.4224687914      0.0430265439
O       2.2197830049     -0.7105962492     -0.0392121157
C      -0.6572588264     -0.8702800886     -0.0450473196
C      -0.2242529069     -2.1315117652     -0.0996733166
C      -0.6370565912      1.6437394633      0.0755132513
H      -1.7308647710     -0.6473761319     -0.1415031675
H       0.8409218640     -2.3031805569      0.0377525001
H      -0.8747305697     -2.9918876465     -0.2255336073
H       0.0078975739      2.5360058770     -0.1270882550
H      -1.1542871343      1.7517335781      1.0402565773
H      -1.4084396452      1.5771638941     -0.7462407814
12
Frame=39  time=20.000fs  energy=-306.20436068Ha  molecule=COOCCCHHHHHH
C       0.1529346676      0.3463900262      0.0781960811
O       1.4634279246      0.4188004020      0.0437954644
O       2.2161212491     -0.7036929443     -0.0397080036
C      -0.6596296053     -0.8694287945     -0.0490135293
C      -0.2233707986     -2.1334751849     -0.0967341770
C      -0.6381585674      1.6439749679      0.0813445820
H      -1.7357221943     -0.6421582494     -0.1409308486
H       0.8370939264     -2.3094472963      0.0119227246
H      -0.8593490225     -2.9985928691     -0.2441382782
H       0.0122535404      2.5304335738     -0.1392338281
H      -1.1634083605      1.7442421576      1.0368366545
H      -1.4088095123      1.5601622812     -0.7536989602
12
Frame=40  time=20.500fs  energy=-306.20374526Ha  molecule=COOCCCHHHHHH
C       0.1549253166      0.3459217667      0.0784927923
O       1.4666432770      0.4148644392      0.0446057014
O       2.2124244609     -0.6966040280     -0.0401958291
C      -0.6616179518     -0.8680244895     -0.0529228102
C      -0.2220732371     -2.1351819071     -0.0937969245
C      -0.6389812361      1.6438086894      0.0868137314
H      -1.7386740803     -0.6377341082     -0.1402166655
H       0.8346220584     -2.3169750726     -0.0141499685
H      -0.8480465282     -3.0050117914     -0.2623230028
H       0.0171808824      2.5244974751     -0.1501728796
H      -1.1732344433      1.7373037922      1.0341525632
H      -1.4078341402      1.5436776876     -0.7587753543
12
Frame=41  time=21.000fs  energy=-306.20318035Ha  molecule=COOCCCHHHHHH
C       0.1571348557      0.3452572023      0.0786740450
O       1.4688380764      0.4107521822      0.0454562744
O       2.2087638549     -0.6894285038     -0.0406796462
C      -0.6631777385     -0.8661730369     -0.0567500984
C      -0.2204207307     -2.1365480354     -0.0909401406
C      -0.6395480227      1.6432050531      0.0918329108
H      -1.7396525741     -0.6341268767     -0.1393821380
H       0.8337371948     -2.3255888539     -0.0401176610
H      -0.8410205268     -3.0112213449     -0.2798262336
H       0.0223833512      2.5184385345     -0.1597049726
H      -1.1835770565      1.7311243706      1.0324045862
H      -1.4052704912      1.5278380652     -0.7610858376
12
Frame=42  time=21.500fs  energy=-306.20261238Ha  molecule=COOCCCHHHHHH
C       0.1595529622      0.3444259773      0.0787700609
O       1.4702137230      0.4066913698      0.0463451949
O       2.2051753106     -0.6823140108     -0.0411626935
C      -0.6644632057     -0.8641060137     -0.0604783709
C      -0.2185297780     -2.1376626440     -0.0882234387
C      -0.6398972081      1.6422550524      0.0963874896
H      -1.7390551644     -0.6312763135     -0.1384450776
H       0.8344595027     -2.3345711461     -0.0657092244
H      -0.8375930491     -3.0175276426     -0.2964619628
H       0.0274776163      2.5126310740     -0.1677289159
H      -1.1941946294      1.7258234272      1.0315593046
H      -1.4012383777      1.5127899503     -0.7607328019
12
Frame=43  time=22.000fs  energy=-306.20205071Ha  molecule=COOCCCHHHHHH
C       0.1621669397      0.3434593717      0.0788074789
O       1.4709813906      0.4028798474      0.0472698253
O       2.2016814874     -0.6753829308     -0.0416474145
C      -0.6656195604     -0.8620307037     -0.0640977054
C      -0.2165097877     -2.1386415303     -0.0856892543
C      -0.6400597715      1.6410583728      0.1005144320
H      -1.7374115583     -0.6290779018     -0.1374182297
H       0.8365952966     -2.3432588293     -0.0907242651
H      -0.8368404173     -3.0240306315     -0.3121096183
H       0.0321518211      2.5073583846     -0.1742268462
H      -1.2048037179      1.7214214797      1.0314337577
H      -1.3960667479      1.4986533383     -0.7581491945
12
Frame=44  time=22.500fs  energy=-306.20150792Ha  molecule=COOCCCHHHHHH
C       0.1648936204      0.3423797524      0.0788094178
O       1.4712184774      0.3993502386      0.0482269249
O       2.1983101058     -0.6686726218     -0.0421355743
C      -0.6666143345     -0.8600119692     -0.0676049254
C      -0.2144145396     -2.1395038292     -0.0833639314
C      -0.6400446636      1.6396288359      0.1042799631
H      -1.7351054687     -0.6274100083     -0.1363093591
H       0.8397576982     -2.3515324316     -0.1150283873
H      -0.8381144167     -3.0303020373     -0.3267098622
H       0.0362921896      2.5026361871     -0.1792588172
H      -1.2151059232      1.7178328131      1.0317906657
H      -1.3901347147      1.4854737005     -0.7539327821
12
Frame=45  time=23.000fs  energy=-306.20087715Ha  molecule=COOCCCHHHHHH
C       0.1676636484      0.3412099393      0.0787953794
O       1.4710101859      0.3961129635      0.0492126802
O       2.1950756086     -0.6621994667     -0.0426283459
C      -0.6674315929     -0.8580901653     -0.0710033350
C      -0.2122860598     -2.1402764728     -0.0812582585
C      -0.6398647779      1.6379900154      0.1077601929
H      -1.7324702299     -0.6261537416     -0.1351218618
H       0.8435559715     -2.3593268549     -0.1385510142
H      -0.8407845544     -3.0360008574     -0.3402623958
H       0.0398625142      2.4984260560     -0.1829560130
H      -1.2248902276      1.7149236182      1.0324052381
H      -1.3838141559      1.4732419015     -0.7486873328
12
Frame=46  time=23.500fs  energy=-306.19901717Ha  molecule=COOCCCHHHHHH
C       0.1702453474      0.3402253364      0.0792249777
O       1.4700321296      0.3936121992      0.0501970280
O       2.1922593453     -0.6563705284     -0.0431431383
C      -0.6680523797     -0.8563051957     -0.0743756518
C      -0.2101395585     -2.1410424180     -0.0794019574
C      -0.6391654294      1.6361041758      0.1105387245
H      -1.7298020017     -0.6256174848     -0.1339793215
H       0.8476615675     -2.3668101725     -0.1613923306
H      -0.8445512440     -3.0407858015     -0.3523263631
H       0.0425361832      2.4952427180     -0.1844354019
H      -1.2329481958      1.7098203309      1.0335526100
H      -1.3784890963      1.4624947389     -0.7422096902
12
Frame=47  time=24.000fs  energy=-306.19766276Ha  molecule=COOCCCHHHHHH
C       0.1720037853      0.3397596615      0.0806163305
O       1.4675628745      0.3933594735      0.0511338865
O       2.1907525007     -0.6525810088     -0.0436807566
C      -0.6681199831     -0.8545613070     -0.0773149824
C      -0.2081037821     -2.1418466272     -0.0793954888
C      -0.6379802601      1.6335026233      0.1121192761
H      -1.7268773571     -0.6256616400     -0.1334069735
H       0.8518718235     -2.3735513525     -0.1776742254
H      -0.8494540177     -3.0443560757     -0.3553890360
H       0.0462396145      2.4906947882     -0.1826885097
H      -1.2376232107      1.7010060053      1.0359138151
H      -1.3751677924      1.4554258635     -0.7343479408
12
Frame=48  time=24.500fs  energy=-306.19889480Ha  molecule=COOCCCHHHHHH
C       0.1727521690      0.3397048738      0.0828742151
O       1.4636865989      0.3957887527      0.0520366093
O       2.1907804106     -0.6512244325     -0.0442324865
C      -0.6675171816     -0.8527937054     -0.0796409818
C      -0.2062201689     -2.1426112533     -0.0821449262
C      -0.6367787034      1.6299642804      0.1126270023
H      -1.7236358599     -0.6259836708     -0.1324127688
H       0.8560346952     -2.3793843703     -0.1831747706
H      -0.8554203183     -3.0464483036     -0.3459151904
H       0.0526006520      2.4825856429     -0.1780139286
H      -1.2388639690      1.6903368571      1.0395512715
H      -1.3735064612      1.4532239492     -0.7256740100
12
Frame=49  time=25.000fs  energy=-306.20047361Ha  molecule=COOCCCHHHHHH
C       0.1728737829      0.3394161398      0.0853614336
O       1.4593134316      0.3999279043      0.0529562588
O       2.1916999140     -0.6513750437     -0.0447828743
C      -0.6660702416     -0.8512873729     -0.0814518923
C      -0.2047550999     -2.1429400602     -0.0871817353
C      -0.6360839684      1.6257868925      0.1127625747
H      -1.7204285549     -0.6291953733     -0.1300003688
H       0.8600605619     -2.3821944107     -0.1789165674
H      -0.8629328066     -3.0459946550     -0.3267584258
H       0.0615572557      2.4708342356     -0.1718612046
H      -1.2383157496      1.6816336636      1.0436454233
H      -1.3723406158      1.4551248458     -0.7172636594
12
Frame=50  time=25.500fs  energy=-306.20096310Ha  molecule=COOCCCHHHHHH
C       0.1727917557      0.3387474667      0.0877831624
O       1.4548349629      0.4046350358      0.0539237778
O       2.1928628283     -0.6519909630     -0.0453393790
C      -0.6638966960     -0.8502277296     -0.0831671309
C      -0.2037365972     -2.1428478356     -0.0929350683
C      -0.6355590964      1.6214086140      0.1128554045
H      -1.7177171793     -0.6359170028     -0.1258673097
H       0.8637855643     -2.3815873390     -0.1708457404
H      -0.8715473278     -3.0428397547     -0.3051311608
H       0.0708421797      2.4583288314     -0.1647568327
H      -1.2368487438      1.6747097105      1.0474498003
H      -1.3716014911      1.4589894897     -0.7094936573
12
Frame=51  time=26.000fs  energy=-306.20129027Ha  molecule=COOCCCHHHHHH
C       0.1725887030      0.3379554217      0.0901482213
O       1.4501601647      0.4095778724      0.0549236368
O       2.1941391873     -0.6528043503     -0.0459017962
C      -0.6614031486     -0.8494532657     -0.0847608650
C      -0.2028268224     -2.1426966878     -0.0988750576
C      -0.6348802855      1.6168897832      0.1129337459
H      -1.7157772489     -0.6431094940     -0.1216542840
H       0.8668881290     -2.3798996097     -0.1620184290
H      -0.8798869193     -3.0376758479     -0.2828146409
H       0.0792186793      2.4465539106     -0.1565223180
H      -1.2342149486      1.6685762616      1.0507281203
H      -1.3715959847      1.4639485854     -0.7026486033
12
Frame=52  time=26.500fs  energy=-306.20168323Ha  molecule=COOCCCHHHHHH
C       0.1722197083      0.3370515050      0.0924258746
O       1.4452920975      0.4147525636      0.0559628463
O       2.1955330881     -0.6538180893     -0.0464706693
C      -0.6585991643     -0.8489940063     -0.0862123766
C      -0.2019906346     -2.1425289991     -0.1049926647
C      -0.6340182639      1.6122097833      0.1130394827
H      -1.7148140418     -0.6502527869     -0.1173862759
H       0.8690890235     -2.3773695917     -0.1524624421
H      -0.8875191850     -3.0302216404     -0.2599036946
H       0.0864507262      2.4357005983     -0.1470054580
H      -1.2301292214      1.6633939227      1.0533206909
H      -1.3725530464      1.4701657792     -0.6971634763
12
Frame=53  time=27.000fs  energy=-306.20218175Ha  molecule=COOCCCHHHHHH
C       0.1716265101      0.3360212909      0.0945778649
O       1.4402537050      0.4201513585      0.0570498953
O       2.1970421820     -0.6550293177     -0.0470466466
C      -0.6554498944     -0.8489236600     -0.0874974335
C      -0.2012360321     -2.1423387646     -0.1112749010
C      -0.6329409613      1.6073656043      0.1132123081
H      -1.7149404872     -0.6572230682     -0.1130900118
H       0.8701356868     -2.3739400270     -0.1422159661
H      -0.8941706095     -3.0201510800     -0.2365257482
H       0.0922667848      2.4260053824     -0.1360560132
H      -1.2243467461      1.6593404970      1.0551025727
H      -1.3746887426      1.4778118094     -0.6934563419
12
Frame=54  time=27.500fs  energy=-306.20280226Ha  molecule=COOCCCHHHHHH
C       0.1707339956      0.3348506953      0.0965556549
O       1.4350822174      0.4257590135      0.0581952282
O       2.1986611650     -0.6564303829     -0.0476304773
C      -0.6519338712     -0.8493261067     -0.0885870998
C      -0.2005669536     -2.1421020160     -0.1177029672
C      -0.6316164506      1.6023629032      0.1134798499
H      -1.7160974783     -0.6638954767     -0.1087950939
H       0.8698371758     -2.3695903664     -0.1313338054
H      -0.8996642881     -3.0072980955     -0.2128534463
H       0.0963685717      2.4177325038     -0.1235291309
H      -1.2166893536      1.6566112892      1.0560498765
H      -1.3781290579      1.4870504862     -0.6918646644
12
Frame=55  time=28.000fs  energy=-306.20348830Ha  molecule=COOCCCHHHHHH
C       0.1694516917      0.3335270824      0.0982985644
O       1.4298340673      0.4315470398      0.0594112694
O       2.2003789080     -0.6580042534     -0.0482229333
C      -0.6480529474     -0.8502907458     -0.0894483941
C      -0.1999800946     -2.1417697600     -0.1242474615
C      -0.6300195217      1.5972222289      0.1138455945
H      -1.7179865060     -0.6701535489     -0.1045355079
H       0.8681389367     -2.3643661512     -0.1199060400
H      -0.9040035035     -2.9917821101     -0.1891279140
H       0.0984584194      2.4111725668     -0.1093096823
H      -1.2071147467      1.6554072343      1.0563017330
H      -1.3828179970      1.4980078349     -0.6925243122
12
Frame=56  time=28.500fs  energy=-306.20411509Ha  molecule=COOCCCHHHHHH
C       0.1676857088      0.3320424885      0.0995810206
O       1.4245887029      0.4374653236      0.0607775788
O       2.2021740973     -0.6597172723     -0.0488507680
C      -0.6438458531     -0.8518958342     -0.0898928120
C      -0.1994607270     -2.1412657818     -0.1308838231
C      -0.6281452530      1.5919876729      0.1142520586
H      -1.7200341405     -0.6759044733     -0.1005299720
H       0.8652274756     -2.3584225018     -0.1077990631
H      -0.9074683551     -2.9741661524     -0.1661197903
H       0.0983156881      2.4066145236     -0.0932652528
H      -1.1957153809      1.6556915448      1.0562777184
H      -1.3884988738      1.5109120677     -0.6951356843
12
Frame=57  time=29.000fs  energy=-306.20450782Ha  molecule=COOCCCHHHHHH
C       0.1653642059      0.3303983687      0.1002724107
O       1.4194444369      0.4434367090      0.0623313512
O       2.2040120690     -0.6615136162     -0.0495241954
C      -0.6393983661     -0.8541800939     -0.0898358109
C      -0.1989798585     -2.1404968674     -0.1375538460
C      -0.6260247108      1.5867331102      0.1146160730
H      -1.7214418064     -0.6811014892     -0.0968889394
H       0.8616116630     -2.3520557586     -0.0951362113
H      -0.9106644122     -2.9555462827     -0.1444163687
H       0.0959072607      2.4042787527     -0.0754741285
H      -1.1829316981      1.6574381769      1.0565499120
H      -1.3945073398      1.5257060936     -0.6989532966
12
Frame=58  time=29.500fs  energy=-306.20452852Ha  molecule=COOCCCHHHHHH
C       0.1624683538      0.3286093267      0.1003837396
O       1.4145017609      0.4493621412      0.0640509437
O       2.2058467032     -0.6633178469     -0.0502314556
C      -0.6348374723     -0.8571154339     -0.0893366032
C      -0.1984966360     -2.1393808218     -0.1441667733
C      -0.6237301660      1.5815583247      0.1148480053
H      -1.7213695550     -0.6857608066     -0.0935731990
H       0.8580726644     -2.3456800816     -0.0823415041
H      -0.9144184912     -2.9374082601     -0.1242817066
H       0.0914662034      2.4042259940     -0.0562788100
H      -1.1695358540      1.6606060244      1.0577146216
H      -1.3998496672      1.5419839750     -0.7028641557
12
Frame=59  time=30.000fs  energy=-306.20421460Ha  molecule=COOCCCHHHHHH
C       0.1590463825      0.3267020164      0.1000566446
O       1.4098408322      0.4551380405      0.0658642391
O       2.2076285797     -0.6650478731     -0.0509428772
C      -0.6303027635     -0.8606044793     -0.0885772584
C      -0.1979674942     -2.1378818105     -0.1506168508
C      -0.6213591336      1.5765721238      0.1148826081
H      -1.7192078911     -0.6899503195     -0.0904160282
H       0.8554302427     -2.3397326931     -0.0700455693
H      -0.9194962802     -2.9212092854     -0.1056401723
H       0.0854548150      2.4063057194     -0.0362250334
H      -1.1564445403      1.6651079491      1.0602134946
H      -1.4034913371      1.5590851927     -0.7057030475
12
Frame=60  time=30.500fs  energy=-306.20373282Ha  molecule=COOCCCHHHHHH
C       0.1551981183      0.3247091032      0.0993036254
O       1.4055086640      0.4606750518      0.0677609205
O       2.2093142764     -0.6666302891     -0.0516550801
C      -0.6259107180     -0.8645083358     -0.0875958861
C      -0.1973567607     -2.1360295110     -0.1568336030
C      -0.6190064050      1.5718723159      0.1146734624
H      -1.7147754775     -0.6937498510     -0.0874239855
H       0.8542632465     -2.3345650095     -0.0585507936
H      -0.9263110302     -2.9079368743     -0.0887542333
H       0.0784259327      2.4101917285     -0.0157899405
H      -1.1443431176      1.6705483828      1.0642920227
H      -1.4048008455      1.5765471961     -0.7065382949
12
Frame=61  time=31.000fs  energy=-306.20319728Ha  molecule=COOCCCHHHHHH
C       0.1510446710      0.3226626469      0.0981555930
O       1.4015219884      0.4659066172      0.0697280326
O       2.2108709185     -0.6680083462     -0.0523647689
C      -0.6217356080     -0.8686819074     -0.0864356952
C      -0.1966417793     -2.1339116957     -0.1627646377
C      -0.6167440989      1.5675350009      0.1142336539
H      -1.7083261785     -0.6972137874     -0.0845973607
H       0.8547762415     -2.3303908173     -0.0480968331
H      -0.9348182997     -2.8979342961     -0.0737761563
H       0.0708884353      2.4154711815      0.0046040561
H      -1.1336433757      1.6765107163      1.0698794581
H      -1.4035829086      1.5939946089     -0.7049649009
12
Frame=62  time=31.500fs  energy=-306.20263659Ha  molecule=COOCCCHHHHHH
C       0.1467053385      0.3205905631      0.0966524709
O       1.3978759452      0.4707893854      0.0717522794
O       2.2122766097     -0.6691430933     -0.0530690465
C      -0.6178114720     -0.8729947303     -0.0851385598
C      -0.1958120744     -2.1316518279     -0.1683750536
C      -0.6146160616      1.5636122677      0.1136286831
H      -1.7004085076     -0.7003626453     -0.0819337245
H       0.8568353471     -2.3272922927     -0.0388573402
H      -0.9446021371     -2.8909922917     -0.0607688493
H       0.0632434226      2.4217160298      0.0246269841
H      -1.1244726151      1.6826093086      1.0766433592
H      -1.4000385104      1.6111676180     -0.7010944445
12
Frame=63  time=32.000fs  energy=-306.20178500Ha  molecule=COOCCCHHHHHH
C       0.1422853984      0.3185155138      0.0948397633
O       1.3945496834      0.4753032727      0.0738209165
O       2.2135204928     -0.6700136611     -0.0537656435
C      -0.6141430035     -0.8773387704     -0.0837426174
C      -0.1948664772     -2.1293826324     -0.1736477303
C      -0.6126398953      1.5601302871      0.1129540168
H      -1.6916772260     -0.7031990661     -0.0794285988
H       0.8600861947     -2.3252456632     -0.0309357163
H      -0.9550527652     -2.8865504482     -0.0497121382
H       0.0557720165      2.4285241145      0.0440501982
H      -1.1167401405      1.6885193688      1.0841084863
H      -1.3946395796      1.6279114700     -0.6954074400
12
Frame=64  time=32.500fs  energy=-306.20054765Ha  molecule=COOCCCHHHHHH
C       0.1380655869      0.3165736776      0.0928125119
O       1.3914602866      0.4789289687      0.0758997980
O       2.2143359463     -0.6701493336     -0.0544546085
C      -0.6108170321     -0.8817010553     -0.0823232893
C      -0.1937968788     -2.1273294965     -0.1778669184
C      -0.6103162591      1.5573506143      0.1122881986
H      -1.6828620710     -0.7059110018     -0.0787883884
H       0.8641161258     -2.3242067519     -0.0282266430
H      -0.9653301239     -2.8842122577     -0.0430204829
H       0.0468819364      2.4379346117      0.0627947512
H      -1.1104504272      1.6921955176      1.0915611107
H      -1.3882964522      1.6425426458     -0.6882517975
12
Frame=65  time=33.000fs  energy=-306.20028888Ha  molecule=COOCCCHHHHHH
C       0.1342471299      0.3148625922      0.0906636723
O       1.3885352130      0.4813053818      0.0779869366
O       2.2145365207     -0.6692197260     -0.0551490515
C      -0.6078858210     -0.8860765418     -0.0812322992
C      -0.1926011558     -2.1256559049     -0.1801190900
C      -0.6072710006      1.5554441508      0.1116496974
H      -1.6744985571     -0.7086426664     -0.0795963643
H       0.8685534850     -2.3240892491     -0.0341727178
H      -0.9747922612     -2.8835671346     -0.0447194899
H       0.0353812525      2.4514243154      0.0809443616
H      -1.1054351666      1.6920262568      1.0985145093
H      -1.3818682772      1.6540197964     -0.6799558568
12
Frame=66  time=33.500fs  energy=-306.20052106Ha  molecule=COOCCCHHHHHH
C       0.1308407054      0.3133071435      0.0880605593
O       1.3858820349      0.4825445945      0.0801102978
O       2.2141549074     -0.6673013133     -0.0558387016
C      -0.6054092332     -0.8904271690     -0.0805123343
C      -0.1912272517     -2.1243418314     -0.1804670717
C      -0.6036838875      1.5543280696      0.1114786222
H      -1.6669939349     -0.7115937704     -0.0807156777
H       0.8730650623     -2.3251199587     -0.0477450398
H      -0.9833089803     -2.8838330330     -0.0551136172
H       0.0218428603      2.4680941496      0.0976309743
H      -1.1023216045      1.6898769873      1.1043529783
H      -1.3748088728      1.6616457694     -0.6715268296
12
Frame=67  time=34.000fs  energy=-306.20033647Ha  molecule=COOCCCHHHHHH
C       0.1278984287      0.3114186516      0.0846465061
O       1.3841673532      0.4826455759      0.0822969861
O       2.2131069455     -0.6643648780     -0.0565029061
C      -0.6034017354     -0.8946384129     -0.0799258540
C      -0.1896435659     -2.1231878948     -0.1799255177
C      -0.6006167493      1.5537836966      0.1122125686
H      -1.6605124346     -0.7143279949     -0.0809253692
H       0.8773753728     -2.3273217877     -0.0640669971
H      -0.9907756237     -2.8842613995     -0.0703946392
H       0.0087721383      2.4843512791      0.1119596318
H      -1.1016045057      1.6904534175      1.1089051902
H      -1.3662108809      1.6673868093     -0.6642662734
12
Frame=68  time=34.500fs  energy=-306.20035392Ha  molecule=COOCCCHHHHHH
C       0.1254470314      0.3092229649      0.0805398831
O       1.3834550568      0.4815670191      0.0845242798
O       2.2114082001     -0.6604238743     -0.0571345630
C      -0.6020237787     -0.8983551273     -0.0792268564
C      -0.1876451401     -2.1224939879     -0.1791841949
C      -0.5984908723      1.5536307965      0.1137816815
H      -1.6548403640     -0.7131174348     -0.0809626059
H       0.8812899893     -2.3321737084     -0.0808747598
H      -0.9958016129     -2.8858478022     -0.0871811920
H      -0.0027038861      2.4985309114      0.1241350414
H      -1.1027225050      1.6946506451      1.1124437953
H      -1.3562624076      1.6728097804     -0.6586016967
12
Frame=69  time=35.000fs  energy=-306.20033728Ha  molecule=COOCCCHHHHHH
C       0.1234326538      0.3070241110      0.0762599490
O       1.3832262231      0.4796511625      0.0867598455
O       2.2093051080     -0.6558244337     -0.0577521414
C      -0.6012450205     -0.9016459445     -0.0784992717
C      -0.1851230330     -2.1226022336     -0.1783179079
C      -0.5973458211      1.5543837238      0.1156532999
H      -1.6497251823     -0.7056386101     -0.0809472759
H       0.8850546313     -2.3389882341     -0.0981446378
H      -0.9987839509     -2.8881472938     -0.1047294651
H      -0.0106648156      2.5091926363      0.1353640126
H      -1.1034203713      1.6971525601      1.1166667969
H      -1.3454616641      1.6764196432     -0.6552278805
12
Frame=70  time=35.500fs  energy=-306.20028347Ha  molecule=COOCCCHHHHHH
C       0.1215745124      0.3057551780      0.0719015949
O       1.3832917802      0.4772913343      0.0889962468
O       2.2070881659     -0.6509686930     -0.0583580213
C      -0.6009128171     -0.9048468248     -0.0777573781
C      -0.1823374238     -2.1234374530     -0.1773589591
C      -0.5969475101      1.5561102177      0.1177599587
H      -1.6460165473     -0.6970769285     -0.0808868588
H       0.8886926912     -2.3457557853     -0.1157930446
H      -1.0011807950     -2.8896430219     -0.1228184214
H      -0.0137280946      2.5152287673      0.1458186283
H      -1.1028128325      1.6946519128      1.1221896785
H      -1.3335640625      1.6756114586     -0.6548454733
12
Frame=71  time=36.000fs  energy=-306.20046262Ha  molecule=COOCCCHHHHHH
C       0.1195174108      0.3058185506      0.0674787118
O       1.3839107816      0.4743761019      0.0912306059
O       2.2047913255     -0.6458271935     -0.0589511997
C      -0.6007718154     -0.9065507746     -0.0770025501
C      -0.1796842142     -2.1254959262     -0.1763260716
C      -0.5968128438      1.5580897502      0.1201268049
H      -1.6448887715     -0.6931776938     -0.0807688880
H       0.8917454396     -2.3530382094     -0.1337486930
H      -1.0005138253     -2.8932309919     -0.1413533160
H      -0.0121022799      2.5165150780      0.1554537135
H      -1.1033431585      1.6888551441      1.1264856248
H      -1.3232631749      1.6722460427     -0.6552569208
12
Frame=72  time=36.500fs  energy=-306.20107969Ha  molecule=COOCCCHHHHHH
C       0.1174861070      0.3063389183      0.0630582554
O       1.3848931705      0.4711141521      0.0934587939
O       2.2024274780     -0.6404806934     -0.0595288136
C      -0.6008150304     -0.9060369451     -0.0762477216
C      -0.1770428608     -2.1291267578     -0.1752309532
C      -0.5968153032      1.5604231213      0.1229743979
H      -1.6467138435     -0.6943386486     -0.0805556342
H       0.8943076132     -2.3608620445     -0.1519704526
H      -0.9967815736     -2.8987732166     -0.1602558748
H      -0.0067269043      2.5141315210      0.1618160618
H      -1.1063597369      1.6791991605      1.1284819567
H      -1.3148887888      1.6688617449     -0.6562058828
12
Frame=73  time=37.000fs  energy=-306.20161744Ha  molecule=COOCCCHHHHHH
C       0.1157287809      0.3069178012      0.0586219480
O       1.3859801325      0.4677034553      0.0956750097
O       2.2000106504     -0.6350534333     -0.0600863347
C      -0.6009918266     -0.9051736595     -0.0754896029
C      -0.1743549446     -2.1333042255     -0.1740799337
C      -0.5969580649      1.5631382033      0.1263201723
H      -1.6503867865     -0.6957560582     -0.0802291947
H       0.8958182762     -2.3688497917     -0.1704311662
H      -0.9907665692     -2.9035447510     -0.1795125041
H      -0.0001639534      2.5105077345      0.1655497261
H      -1.1102123769      1.6675355052      1.1287482882
H      -1.3076242044      1.6665579455     -0.6588981976
12
Frame=74  time=37.500fs  energy=-306.20237454Ha  molecule=COOCCCHHHHHH
C       0.1144081974      0.3075800790      0.0541372541
O       1.3872711639      0.4642512782      0.0978705277
O       2.1975289620     -0.6296076588     -0.0606174473
C      -0.6014855170     -0.9040433856     -0.0747222919
C      -0.1716582827     -2.1381809520     -0.1728847877
C      -0.5972690215      1.5663783501      0.1301339141
H      -1.6561871618     -0.6975481659     -0.0797675006
H       0.8960862878     -2.3765987292     -0.1890829128
H      -0.9817046937     -2.9077959821     -0.1990915070
H       0.0076432162      2.5055279130      0.1679412109
H      -1.1146773207      1.6547277390      1.1270332839
H      -1.3024060774      1.6646348801     -0.6636147432
12
Frame=75  time=38.000fs  energy=-306.20346118Ha  molecule=COOCCCHHHHHH
C       0.1141949323      0.3084641146      0.0496157911
O       1.3885203680      0.4607757705      0.1000316655
O       2.1949798600     -0.6241848375     -0.0611129434
C      -0.6024990777     -0.9028104077     -0.0739488198
C      -0.1689564920     -2.1437676955     -0.1716691918
C      -0.5977922637      1.5702605216      0.1344768096
H      -1.6641775776     -0.7000472895     -0.0791198817
H       0.8949179294     -2.3840730402     -0.2078361746
H      -0.9691171981     -2.9116587856     -0.2188885021
H       0.0172880768      2.4984849070      0.1687650214
H      -1.1206295826      1.6409176289      1.1227098399
H      -1.3002352492      1.6634997744     -0.6702257715
12
Frame=76  time=38.500fs  energy=-306.20471726Ha  molecule=COOCCCHHHHHH
C       0.1150689807      0.3095677072      0.0450805372
O       1.3897020053      0.4572495184      0.1021382633
O       2.1923920346     -0.6188094462     -0.0615604664
C      -0.6040229708     -0.9014390741     -0.0731741356
C      -0.1662371673     -2.1500133154     -0.1704761675
C      -0.5985389464      1.5748161103      0.1393569453
H      -1.6738359754     -0.7034727041     -0.0782166277
H       0.8923216762     -2.3914438187     -0.2265297811
H      -0.9530928243     -2.9153746373     -0.2387025998
H       0.0288596193      2.4891453067      0.1678125580
H      -1.1284563785      1.6261713171      1.1158841218
H      -1.3011923006      1.6633932932     -0.6787352951
12
Frame=77  time=39.000fs  energy=-306.20572315Ha  molecule=COOCCCHHHHHH
C       0.1166619405      0.3108202173      0.0405709708
O       1.3908889544      0.4536540863      0.1041641132
O       2.1898203217     -0.6135220975     -0.0619457655
C      -0.6059533346     -0.8998589038     -0.0724052310
C      -0.1634877058     -2.1567455644     -0.1693748124
C      -0.5995134649      1.5800000162      0.1446713035
H      -1.6840379100     -0.7079961449     -0.0769743822
H       0.8887631711     -2.3989662683     -0.2449070846
H      -0.9344848393     -2.9196760535     -0.2581975513
H       0.0421326551      2.4777221892      0.1650108729
H      -1.1384108368      1.6107161976      1.1073359022
H      -1.3045083785      1.6644584417     -0.6886727347
12
Frame=78  time=39.500fs  energy=-306.20608338Ha  molecule=COOCCCHHHHHH
C       0.1189533708      0.3122262981      0.0361410393
O       1.3920453372      0.4500835479      0.1060824993
O       2.1873202066     -0.6084297107     -0.0622567779
C      -0.6083419225     -0.8982563279     -0.0716498730
C      -0.1607280322     -2.1636630261     -0.1684538136
C      -0.6007568437      1.5857502456      0.1501706070
H      -1.6934189672     -0.7138298293     -0.0753182465
H       0.8853229564     -2.4066506879     -0.2626416274
H      -0.9147565523     -2.9261371617     -0.2769268678
H       0.0569602570      2.4646779479      0.1605733777
H      -1.1511543731      1.5952288140      1.0980877134
H      -1.3090814212      1.6668699062     -0.6984122766
12
Frame=79  time=40.000fs  energy=-306.20578501Ha  molecule=COOCCCHHHHHH
C       0.1217980378      0.3137668255      0.0318461513
O       1.3931423582      0.4466507721      0.1078744006
O       2.1849518590     -0.6036384798     -0.0624878705
C      -0.6111638570     -0.8968629840     -0.0709143791
C      -0.1579867487     -2.1703831728     -0.1677981815
C      -0.6022987443      1.5919106842      0.1555228844
H      -1.7006946179     -0.7209891557     -0.0732071198
H       0.8833168308     -2.4144681230     -0.2794236031
H      -0.8958094539     -2.9363087598     -0.2944484102
H       0.0729684506      2.4508955259      0.1550167507
H      -1.1669948013      1.5805470472      1.0894094602
H      -1.3132979800      1.6706282992     -0.7059371224
12
Frame=80  time=40.500fs  energy=-306.20517200Ha  molecule=COOCCCHHHHHH
C       0.1249778635      0.3154046860      0.0277294669
O       1.3941635617      0.4434564405      0.1095322351
O       2.1827645125     -0.5992268199     -0.0626403226
C      -0.6143131017     -0.8958878188     -0.0702024121
C      -0.1552957500     -2.1765899022     -0.1674679679
C      -0.6041398899      1.5982853691      0.1604464744
H      -1.7052353341     -0.7292674370     -0.0706391988
H       0.8836776877     -2.4223081238     -0.2950369351
H      -0.8791289895     -2.9509584245     -0.3104372059
H       0.0896338711      2.4373523878      0.1490001687
H      -1.1857160321      1.5674098422      1.0822978684
H      -1.3157242129      1.6756147351     -0.7097040502
12
Frame=81  time=41.000fs  energy=-306.20451160Ha  molecule=COOCCCHHHHHH
C       0.1282735330      0.3170967954      0.0238191872
O       1.3951016174      0.4405746918      0.1110565848
O       2.1807916131     -0.5952412779     -0.0627191448
C      -0.6176346140     -0.8954813264     -0.0695156524
C      -0.1526862563     -2.1821142533     -0.1674965355
C      -0.6062496207      1.6046964978      0.1647966009
H      -1.7071985698     -0.7383173015     -0.0676361565
H       0.8866423153     -2.4299714462     -0.3093639077
H      -0.8653034736     -2.9698179593     -0.3247019319
H       0.1063894445      2.4248312229      0.1431503276
H      -1.2066425488      1.5563159041      1.0771565993
H      -1.3156015499      1.6817071567     -0.7091537474
12
Frame=82  time=41.500fs  energy=-306.20383498Ha  molecule=COOCCCHHHHHH
C       0.1314986403      0.3188014466      0.0201322212
O       1.3959539913      0.4380550859      0.1124520223
O       2.1790535669     -0.5917048897     -0.0627303924
C      -0.6209631513     -0.8957358918     -0.0688548044
C      -0.1501856586     -2.1869223079     -0.1678981036
C      -0.6085722618      1.6110074678      0.1685672485
H      -1.7072491529     -0.7477486872     -0.0642289117
H       0.8918489512     -2.4371981704     -0.3223569540
H      -0.8541218318     -2.9918353243     -0.3371503113
H       0.1226732479      2.4138315369      0.1379909019
H      -1.2288010451      1.5475299645      1.0738172968
H      -1.3128943918      1.6888398079     -0.7046789052
12
Frame=83  time=42.000fs  energy=-306.20308859Ha  molecule=COOCCCHHHHHH
C       0.1345075778      0.3204810251      0.0166747444
O       1.3967222358      0.4359233272      0.1137263734
O       2.1775581202     -0.5886190737     -0.0626807974
C      -0.6241547758     -0.8966869188     -0.0682196918
C      -0.1478120641     -2.1910758539     -0.1686694238
C      -0.6110345116      1.6171254247      0.1718486989
H      -1.7062077298     -0.7571998057     -0.0604556490
H       0.8985819542     -2.4437203898     -0.3340325935
H      -0.8448963865     -3.0155704652     -0.3477808348
H       0.1379654683      2.4045800189      0.1339200697
H      -1.2511265752      1.5411155269      1.0717668145
H      -1.3080846730      1.6969801479     -0.6973189443
12
Frame=84  time=42.500fs  energy=-306.20228587Ha  molecule=COOCCCHHHHHH
C       0.1372020269      0.3221045237      0.0134392607
O       1.3974133204      0.4341768551      0.1148918998
O       2.1762974931     -0.5859591497     -0.0625783973
C      -0.6271099685     -0.8983074390     -0.0676087532
C      -0.1455686653     -2.1946963199     -0.1697864952
C      -0.6135579546      1.6230009671      0.1747746042
H      -1.7048064966     -0.7663876533     -0.0563645856
H       0.9060316142     -2.4493313577     -0.3444828677
H      -0.8367894615     -3.0395921082     -0.3566995481
H       0.1518716430      2.3970683195      0.1311775857
H      -1.2727023713      1.5369485296      1.0704196897
H      -1.3018883078      1.7060722598     -0.6883568402
12
Frame=85  time=43.000fs  energy=-306.20151331Ha  molecule=COOCCCHHHHHH
C       0.1395361385      0.3236505297      0.0104037238
O       1.3980399857      0.4327841231      0.1159652860
O       2.1752479841     -0.5836744857     -0.0624325249
C      -0.6297837179     -0.9005134019     -0.0670188123
C      -0.1434429352     -2.1979285270     -0.1712052761
C      -0.6160762816      1.6286248599      0.1774762916
H      -1.7035688381     -0.7751372302     -0.0520123138
H       0.9135232540     -2.4539408485     -0.3538714487
H      -0.8290775838     -3.0628091968     -0.3641175240
H       0.1642093393      2.3911216368      0.1298228699
H      -1.2929394835      1.5347473027      1.0693115197
H      -1.2949926915      1.7160027714     -0.6789378707
12
Frame=86  time=43.500fs  energy=-306.20080726Ha  molecule=COOCCCHHHHHH
C       0.1414788558      0.3251497942      0.0075354804
O       1.3986353316      0.4316890463      0.1169655991
O       2.1743756277     -0.5816995268     -0.0622528884
C      -0.6321558908     -0.9033353962     -0.0664454838
C      -0.1414441086     -2.2007907299     -0.1728694806
C      -0.6185412537      1.6340114190      0.1800559274
H      -1.7027002375     -0.7831958217     -0.0474569369
H       0.9205348415     -2.4576975709     -0.3624041485
H      -0.8211430464     -3.0846458185     -0.3703123130
H       0.1750042370      2.3865006794      0.1297585252
H      -1.3115935257      1.5341336067      1.0681735972
H      -1.2878789682      1.7266039794     -0.6698543363
12
Frame=87  time=44.000fs  energy=-306.19954679Ha  molecule=COOCCCHHHHHH
C       0.1430660527      0.3260676774      0.0047661468
O       1.3991425048      0.4309915421      0.1179117667
O       2.1736447518     -0.5800342406     -0.0620486918
C      -0.6341442059     -0.9072853558     -0.0658775385
C      -0.1395735731     -2.2028315472     -0.1747208482
C      -0.6208954875      1.6394059045      0.1824873179
H      -1.7017043692     -0.7887169251     -0.0427622664
H       0.9265751057     -2.4611257461     -0.3702894801
H      -0.8127053514     -3.1043682324     -0.3755883668
H       0.1837859346      2.3838439971      0.1320490843
H      -1.3284101845      1.5357250805      1.0669244282
H      -1.2812231973      1.7371470969     -0.6613678925
12
Frame=88  time=44.500fs  energy=-306.19963310Ha  molecule=COOCCCHHHHHH
C       0.1426639917      0.3255903468      0.0019180059
O       1.4002452518      0.4308595552      0.1188202628
O       2.1730625096     -0.5786758861     -0.0618281549
C      -0.6357878145     -0.9116020186     -0.0652814435
C      -0.1372497245     -2.2052294479     -0.1767096621
C      -0.6232693737      1.6443835035      0.1843838263
H      -1.7002827263     -0.7888628422     -0.0380212650
H       0.9334124395     -2.4609233958     -0.3776980369
H      -0.8080752054     -3.1188076798     -0.3802557240
H       0.1849163133      2.3881597102      0.1422392039
H      -1.3360788623      1.5443417448      1.0698680319
H      -1.2708627248      1.7455180295     -0.6571516183
12
Frame=89  time=45.000fs  energy=-306.20009908Ha  molecule=COOCCCHHHHHH
C       0.1400635421      0.3243225221     -0.0009468281
O       1.4021495311      0.4311166471      0.1196960682
O       2.1726147018     -0.5775404102     -0.0615934463
C      -0.6371308517     -0.9162082533     -0.0646707158
C      -0.1344977841     -2.2081776822     -0.1788175123
C      -0.6255671004      1.6487942169      0.1859823984
H      -1.6986903812     -0.7842014712     -0.0332273686
H       0.9410795048     -2.4568817618     -0.3847020449
H      -0.8071341356     -3.1281754730     -0.3843754622
H       0.1795011129      2.3982976010      0.1574013177
H      -1.3362723844      1.5577477519      1.0760653417
H      -1.2569934906      1.7531048172     -0.6568787954
12
Frame=90  time=45.500fs  energy=-306.20019217Ha  molecule=COOCCCHHHHHH
C       0.1372227359      0.3230022698     -0.0037071280
O       1.4039689910      0.4316585343      0.1205388690
O       2.1723182960     -0.5766492581     -0.0613427753
C      -0.6374555815     -0.9211479409     -0.0640704104
C      -0.1319855090     -2.2116396493     -0.1810461313
C      -0.6278524365      1.6529605275      0.1884576746
H      -1.7081595652     -0.7784779907     -0.0283399853
H       0.9448524118     -2.4515431561     -0.3913026969
H      -0.8004025240     -3.1293741286     -0.3878884742
H       0.1745193911      2.4105799182      0.1733217252
H      -1.3312340981      1.5707057498      1.0762214678
H      -1.2472433297      1.7614571038     -0.6622856307
12
Frame=91  time=46.000fs  energy=-306.20031127Ha  molecule=COOCCCHHHHHH
C       0.1338775103      0.3219526585     -0.0059069837
O       1.4051090290      0.4331612667      0.1213102626
O       2.1725753598     -0.5766121623     -0.0610888908
C      -0.6374334947     -0.9264508787     -0.0635331252
C      -0.1296294046     -2.2149736309     -0.1834821837
C      -0.6293910356      1.6569016535      0.1905152666
H      -1.7183092594     -0.7752102067     -0.0236187897
H       0.9478708435     -2.4448418469     -0.3974938321
H      -0.7941196806     -3.1280025775     -0.3899972377
H       0.1679311049      2.4243933658      0.1909161141
H      -1.3239509081      1.5808532499      1.0760969890
H      -1.2394078777      1.7701783146     -0.6681293378
12
Frame=92  time=46.500fs  energy=-306.20092547Ha  molecule=COOCCCHHHHHH
C       0.1299475153      0.3213485072     -0.0073127678
O       1.4052888583      0.4358238933      0.1219821449
O       2.1735377029     -0.5776402615     -0.0608327436
C      -0.6370771349     -0.9320475708     -0.0630552422
C      -0.1273953319     -2.2182750303     -0.1862281212
C      -0.6299800569      1.6605366370      0.1919338785
H      -1.7284711623     -0.7736894126     -0.0193712559
H       0.9500349973     -2.4370551513     -0.4031534652
H      -0.7880224839     -3.1243908517     -0.3899692975
H       0.1594046936      2.4397380315      0.2106746731
H      -1.3139763597      1.5870806022      1.0759961781
H      -1.2341033824      1.7796587944     -0.6742593628
12
Frame=93  time=47.000fs  energy=-306.20149608Ha  molecule=COOCCCHHHHHH
C       0.1256036977      0.3210080483     -0.0080791284
O       1.4048178010      0.4392203365      0.1225515808
O       2.1749679288     -0.5793763725     -0.0605616190
C      -0.6364777155     -0.9378369508     -0.0626412041
C      -0.1252395501     -2.2215330263     -0.1892749084
C      -0.6299273246      1.6638701037      0.1929124846
H      -1.7377881470     -0.7727790541     -0.0153620935
H       0.9512244751     -2.4283815178     -0.4081416772
H      -0.7816239868     -3.1189971564     -0.3880099059
H       0.1490635518      2.4557272858      0.2321263505
H      -1.3019462250      1.5912459746      1.0759893009
H      -1.2309860336      1.7903182539     -0.6811830455
12
Frame=94  time=47.500fs  energy=-306.20195190Ha  molecule=COOCCCHHHHHH
C       0.1210434966      0.3206680143     -0.0085636485
O       1.4041066681      0.4429045483      0.1230260224
O       2.1765901568     -0.5814224164     -0.0602543694
C      -0.6357452540     -0.9437914241     -0.0622736596
C      -0.1231395189     -2.2245946023     -0.1925873348
C      -0.6295632545      1.6669339703      0.1938602775
H      -1.7453341173     -0.7725035518     -0.0112348376
H       0.9513994643     -2.4187995328     -0.4122764371
H      -0.7749904045     -3.1119614850     -0.3846189620
H       0.1370457315      2.4714196411      0.2542427055
H      -1.2892234128      1.5960706840      1.0759858246
H      -1.2291657736      1.8018859156     -0.6895153167
12
Frame=95  time=48.000fs  energy=-306.20235341Ha  molecule=COOCCCHHHHHH
C       0.1163008190      0.3203381314     -0.0087193542
O       1.4031009104      0.4468775024      0.1233866180
O       2.1784145977     -0.5837944279     -0.0599039804
C      -0.6349337364     -0.9498685294     -0.0619658893
C      -0.1210838452     -2.2273666470     -0.1962007047
C      -0.6288441872      1.6696948372      0.1947182654
H      -1.7500023282     -0.7732007160     -0.0069771107
H       0.9507451073     -2.4083686312     -0.4154484721
H      -0.7685615986     -3.1037292141     -0.3795943798
H       0.1232694297      2.4864337070      0.2768800939
H      -1.2763552858      1.6016017471      1.0764002553
H      -1.2285784376      1.8144443950     -0.6989407164
12
Frame=96  time=48.500fs  energy=-306.20265433Ha  molecule=COOCCCHHHHHH
C       0.1114353393      0.3200288351     -0.0085104487
O       1.4017519546      0.4511163739      0.1236175250
O       2.1804379781     -0.5864864024     -0.0595044769
C      -0.6341099581     -0.9559994494     -0.0617305355
C      -0.1190531341     -2.2297406644     -0.2001361085
C      -0.6277599232      1.6721293629      0.1954100897
H      -1.7507230865     -0.7752042233     -0.0025812834
H       0.9496988194     -2.3972718772     -0.4175971556
H      -0.7630034294     -3.0950924642     -0.3728103083
H       0.1078763331      2.5004123123      0.2997969160
H      -1.2640443196      1.6078153200      1.0776944880
H      -1.2289493233      1.8279914235     -0.7088317003
12
Frame=97  time=49.000fs  energy=-306.20269565Ha  molecule=COOCCCHHHHHH
C       0.1064776818      0.3197433286     -0.0079158760
O       1.3999287562      0.4554846109      0.1237073559
O       2.1826552317     -0.5894294812     -0.0590514399
C      -0.6332110568     -0.9620202471     -0.0615784687
C      -0.1169951791     -2.2315364900     -0.2043976091
C      -0.6263298899      1.6741619395      0.1958518321
H      -1.7466610341     -0.7787741949      0.0019546361
H       0.9488275952     -2.3861175190     -0.4187191399
H      -0.7593206996     -3.0867238252     -0.3642339669
H       0.0913505535      2.5129758176      0.3226732368
H      -1.2530203627      1.6145851797      1.0802885624
H      -1.2297743944      1.8424106662     -0.7182888336
12
Frame=98  time=49.500fs  energy=-306.20284565Ha  molecule=COOCCCHHHHHH
C       0.1013072796      0.3194686594     -0.0069278756
O       1.3972142212      0.4595337216      0.1236489574
O       2.1850875610     -0.5924060136     -0.0585419189
C      -0.6320182972     -0.9674779921     -0.0615185367
C      -0.1147039901     -2.2321692514     -0.2089744346
C      -0.6245228709      1.6755554121      0.1959663535
H      -1.7340520368     -0.7845842056      0.0066278065
H       0.9495709198     -2.3768050399     -0.4188604821
H      -0.7609727083     -3.0801940680     -0.3539150532
H       0.0742634239      2.5230464824      0.3451421203
H      -1.2439492102      1.6216542802      1.0846034934
H      -1.2304159924      1.8574583966     -0.7263970818
12
Frame=99  time=50.000fs  energy=-306.20316098Ha  molecule=COOCCCHHHHHH
C       0.0959381192      0.3191909801     -0.0055367518
O       1.3933972671      0.4630247194      0.1234339361
O       2.1877284410     -0.5952897932     -0.0579724072
C      -0.6299473159     -0.9721671873     -0.0615609308
C      -0.1121863162     -2.2316671556     -0.2138537678
C      -0.6224782656      1.6761336549      0.1956908408
H      -1.7171833545     -0.7919959466      0.0114354166
H       0.9511987116     -2.3700560077     -0.4180753257
H      -0.7667272348     -3.0732549537     -0.3419148728
H       0.0581557139      2.5309585530      0.3667926445
H      -1.2372987840      1.6287148770      1.0905706607
H      -1.2300963710      1.8728844208     -0.7318793906
12
Frame=100  time=50.500fs  energy=-306.20345929Ha  molecule=COOCCCHHHHHH
C       0.0905418921      0.3189206517     -0.0037445430
O       1.3885712300      0.4659890568      0.1230578674
O       2.1905251098     -0.5980674195     -0.0573407036
C      -0.6270112553     -0.9760822400     -0.0617135164
C      -0.1094831955     -2.2301397418     -0.2190106687
C      -0.6203558462      1.6759529543      0.1950162553
H      -1.6981448806     -0.8007790180      0.0163710393
H       0.9540599459     -2.3658049056     -0.4164564337
H      -0.7761059733     -3.0663766723     -0.3283644308
H       0.0440625399      2.5371196874      0.3872044526
H      -1.2334415572      1.6354554572      1.0978662317
H      -1.2283559955      1.8884993932     -0.7337975605
12
Frame=101  time=51.000fs  energy=-306.20338032Ha  molecule=COOCCCHHHHHH
C       0.0854163127      0.3186826488     -0.0015691403
O       1.3831067570      0.4687037356      0.1225222227
O       2.1933863991     -0.6008279123     -0.0566466139
C      -0.6235419141     -0.9794320282     -0.0619799649
C      -0.1067164398     -2.2279478785     -0.2244072804
C      -0.6183554743      1.6752573519      0.1940121379
H      -1.6796329134     -0.8106023198      0.0214239875
H       0.9584531003     -2.3630652850     -0.4141359969
H      -0.7876867740     -3.0606308124     -0.3134709628
H       0.0327643422      2.5423157967      0.4060039396
H      -1.2324387307      1.6415638734      1.1057363908
H      -1.2251352431      1.9041833685     -0.7317233383
12
Frame=102  time=51.500fs  energy=-306.20320802Ha  molecule=COOCCCHHHHHH
C       0.0816709131      0.3186839300      0.0009545044
O       1.3768329705      0.4712951186      0.1218353030
O       2.1962240539     -0.6036051186     -0.0558923719
C      -0.6199055845     -0.9825632799     -0.0623583731
C      -0.1039501331     -2.2253090248     -0.2299953100
C      -0.6166694870      1.6742646169      0.1928177552
H      -1.6641928733     -0.8213503297      0.0265793272
H       0.9642383656     -2.3613339210     -0.4112761156
H      -0.8000441995     -3.0562786568     -0.2975056355
H       0.0256536659      2.5462967572      0.4229254506
H      -1.2348948663      1.6469744842      1.1125158520
H      -1.2216502257      1.9200880025     -0.7252150975
12
Frame=103  time=52.000fs  energy=-306.20300194Ha  molecule=COOCCCHHHHHH
C       0.0791765552      0.3188832593      0.0037828841
O       1.3699071723      0.4737229692      0.1210090816
O       2.1989958450     -0.6063404317     -0.0550815714
C      -0.6160238870     -0.9853870183     -0.0628431091
C      -0.1011921333     -2.2224146039     -0.2357241109
C      -0.6153617307      1.6730297830      0.1916015025
H      -1.6534104353     -0.8326231397      0.0318202435
H       0.9708984251     -2.3605779220     -0.4080429149
H      -0.8121610501     -3.0526061249     -0.2807575731
H       0.0229719429      2.5492354748      0.4378149027
H      -1.2400605545      1.6513163094      1.1173782832
H      -1.2181732176      1.9360292728     -0.7151122153
12
Frame=104  time=52.500fs  energy=-306.20273990Ha  molecule=COOCCCHHHHHH
C       0.0771103937      0.3190980636      0.0068692451
O       1.3628274910      0.4759871262      0.1200571120
O       2.2016732185     -0.6089846909     -0.0542184564
C      -0.6117489630     -0.9876678156     -0.0634262155
C      -0.0984582149     -2.2195413065     -0.2415451975
C      -0.6144179044      1.6716031141      0.1905276648
H      -1.6481081947     -0.8438957632      0.0371294009
H       0.9777711530     -2.3605536396     -0.4045926524
H      -0.8229627123     -3.0488119252     -0.2635073739
H       0.0239924708      2.5516754220      0.4506195628
H      -1.2464940294      1.6541208877      1.1202017925
H      -1.2144017618      1.9516528230     -0.7030067955
12
Frame=105  time=53.000fs  energy=-306.20261451Ha  molecule=COOCCCHHHHHH
C       0.0754090449      0.3193096338      0.0101662974
O       1.3556958001      0.4780580484      0.1189934797
O       2.2042263927     -0.6114940101     -0.0533075628
C      -0.6069094684     -0.9893984118     -0.0640982462
C      -0.0957878333     -2.2169988879     -0.2474143291
C      -0.6138551032      1.6700333347      0.1897382393
H      -1.6509905112     -0.8545334087      0.0424896388
H       0.9833555861     -2.3609960103     -0.4010658110
H      -0.8301546987     -3.0425769415     -0.2460142450
H       0.0287057631      2.5536811852      0.4613765851
H      -1.2535701870      1.6552447770      1.1204619292
H      -1.2107975737      1.9668378216     -0.6899145880
12
Frame=106  time=53.500fs  energy=-306.20248670Ha  molecule=COOCCCHHHHHH
C       0.0740129780      0.3195169898      0.0136335739
O       1.3486113686      0.4799030495      0.1178289125
O       2.2066234935     -0.6138254666     -0.0523521449
C      -0.6018465308     -0.9905110158     -0.0648519223
C      -0.0931024376     -2.2147236944     -0.2532925902
C      -0.6135889818      1.6684246623      0.1893584567
H      -1.6585627984     -0.8649502322      0.0478857195
H       0.9880787507     -2.3620241882     -0.3975866017
H      -0.8348267559     -3.0353263162     -0.2285080128
H       0.0362744730      2.5544199006      0.4701298224
H      -1.2609269946      1.6546177007      1.1180183620
H      -1.2079536927      1.9814868086     -0.6770490132
12
Frame=107  time=54.000fs  energy=-306.20231365Ha  molecule=COOCCCHHHHHH
C       0.0728637793      0.3197189527      0.0172309957
O       1.3416636925      0.4814939337      0.1165739356
O       2.2088373139     -0.6159413481     -0.0513554523
C      -0.5967287719     -0.9909825915     -0.0656795473
C      -0.0903638569     -2.2127540325     -0.2591438478
C      -0.6135606054      1.6668492600      0.1894846852
H      -1.6693165144     -0.8751953484      0.0533024171
H       0.9917509286     -2.3636203360     -0.3942697828
H      -0.8370083262     -3.0272406381     -0.2112031790
H       0.0460917241      2.5533934542      0.4769758950
H      -1.2682347812      1.6522444501      1.1128421930
H      -1.2063227159      1.9954900195     -0.6654418463
12
Frame=108  time=54.500fs  energy=-306.20208317Ha  molecule=COOCCCHHHHHH
C       0.0719023992      0.3199178313      0.0209182979
O       1.3349311333      0.4828099864      0.1152396858
O       2.2108468157     -0.6178120789     -0.0503211246
C      -0.5917288032     -0.9908195534     -0.0665723001
C      -0.0875348987     -2.2110919389     -0.2649355226
C      -0.6137077074      1.6653663186      0.1901665693
H      -1.6815746317     -0.8853249655      0.0587242641
H       0.9943288471     -2.3657700273     -0.3912178347
H      -0.8369480326     -3.0186585376     -0.1942936612
H       0.0575218518      2.5502073700      0.4820724382
H      -1.2752973920      1.6482346406      1.1051633272
H      -1.2061847860      2.0087399249     -0.6558928793
12
Frame=109  time=55.000fs  energy=-306.20181167Ha  molecule=COOCCCHHHHHH
C       0.0710713041      0.3201173159      0.0246566435
O       1.3284757451      0.4838410100      0.1138378517
O       2.2126394128     -0.6194191670     -0.0492532426
C      -0.5869930785     -0.9900607467     -0.0675203301
C      -0.0845869166     -2.2097137988     -0.2706403009
C      -0.6139739471      1.6640161888      0.1913951718
H      -1.6938168284     -0.8953669866      0.0641360545
H       0.9958799372     -2.3684506553     -0.3885154414
H      -0.8350078422     -3.0099500787     -0.1779418597
H       0.0699745113      2.5446508666      0.4856272743
H      -1.2820829856      1.6427988869      1.0954762757
H      -1.2075743377      2.0211370760     -0.6488364817
12
Frame=110  time=55.500fs  energy=-306.20144324Ha  molecule=COOCCCHHHHHH
C       0.0703174545      0.3203204808      0.0284110785
O       1.3223404941      0.4845879459      0.1123800431
O       2.2142114787     -0.6207559724     -0.0481561007
C      -0.5826270736     -0.9887707235     -0.0685134674
C      -0.0815028876     -2.2085780819     -0.2762374057
C      -0.6143147878      1.6628191916      0.1931096569
H      -1.7048483268     -0.9053169430      0.0695237544
H       0.9965616166     -2.3716305861     -0.3862257796
H      -0.8316043063     -3.0014640067     -0.1622703719
H       0.0829562650      2.5367129095      0.4878739374
H      -1.2887017697      1.6362171987      1.0844563069
H      -1.2102924411      2.0326003542     -0.6443250683
12
Frame=111  time=56.000fs  energy=-306.20099474Ha  molecule=COOCCCHHHHHH
C       0.0697605330      0.3203401675      0.0321525024
O       1.3167035362      0.4845928585      0.1108771205
O       2.2153398462     -0.6214654836     -0.0470339013
C      -0.5783527150     -0.9869283224     -0.0695420155
C      -0.0785145017     -2.2077243178     -0.2817130369
C      -0.6150350220      1.6618367811      0.1952190853
H      -1.7132566489     -0.9137117799      0.0748754300
H       0.9967210349     -2.3737790547     -0.3843897094
H      -0.8263519270     -2.9945286208     -0.1473591142
H       0.0964965075      2.5259372605      0.4890477820
H      -1.2953187705      1.6297215462      1.0729456281
H      -1.2139810199      2.0440072925     -0.6422587346
12
Frame=112  time=56.500fs  energy=-306.20066049Ha  molecule=COOCCCHHHHHH
C       0.0695674583      0.3198499134      0.0356878339
O       1.3121744449      0.4834396980      0.1093482692
O       2.2156737564     -0.6210860822     -0.0458838825
C      -0.5744743449     -0.9846281540     -0.0705695707
C      -0.0754900693     -2.2069180309     -0.2870455420
C      -0.6164915637      1.6610755086      0.1978175559
H      -1.7188166557     -0.9207341126      0.0802289463
H       0.9965570050     -2.3754759613     -0.3829910886
H      -0.8198051343     -2.9890302883     -0.1334469146
H       0.1107170960      2.5119147348      0.4889469193
H      -1.3025203762      1.6253408861      1.0614718686
H      -1.2178317641      2.0558091997     -0.6426390763
12
Frame=113  time=57.000fs  energy=-306.20079438Ha  molecule=COOCCCHHHHHH
C       0.0696710661      0.3189303138      0.0385332131
O       1.3089176957      0.4812850388      0.1078276979
O       2.2152301541     -0.6196789531     -0.0446912399
C      -0.5719655250     -0.9818529238     -0.0715131530
C      -0.0719415937     -2.2058083153     -0.2921911575
C      -0.6185342554      1.6604916463      0.2013406733
H      -1.7171795649     -0.9269588577      0.0857056123
H       0.9976169149     -2.3795260671     -0.3819426804
H      -0.8151394313     -2.9874990060     -0.1210990496
H       0.1247460145      2.4943343228      0.4866085201
H      -1.3116644651      1.6248819711      1.0500962862
H      -1.2204179242      2.0660789380     -0.6459210628
12
Frame=114  time=57.500fs  energy=-306.20115993Ha  molecule=COOCCCHHHHHH
C       0.0697830005      0.3178724444      0.0406357294
O       1.3065091696      0.4787613641      0.1063214819
O       2.2143660693     -0.6177848212     -0.0434560540
C      -0.5709925045     -0.9787344019     -0.0723650518
C      -0.0678069871     -2.2042601302     -0.2971251167
C      -0.6206333627      1.6600284078      0.2057746266
H      -1.7070143135     -0.9340819733      0.0913021828
H       1.0004714410     -2.3862746736     -0.3813139637
H      -0.8140295325     -2.9902791017     -0.1104747170
H       0.1377155444      2.4740498533      0.4820349538
H      -1.3230135561      1.6272282823      1.0390573864
H      -1.2214065206      2.0731774599     -0.6518007394
12
Frame=115  time=58.000fs  energy=-306.20128655Ha  molecule=COOCCCHHHHHH
C       0.0697333244      0.3168186068      0.0423955713
O       1.3045358429      0.4760578375      0.1048075396
O       2.2132793890     -0.6156519029     -0.0421949072
C      -0.5704848179     -0.9753735046     -0.0731959032
C      -0.0635530295     -2.2028006602     -0.3018403821
C      -0.6226804097      1.6596372821      0.2106084580
H      -1.6945316614     -0.9407701584      0.0968811670
H       1.0031889157     -2.3932872188     -0.3813487945
H      -0.8124777958     -2.9938917993     -0.1013174405
H       0.1501906333      2.4525498406      0.4762948653
H      -1.3354991436      1.6302549389      1.0290272970
H      -1.2213327128      2.0777988826     -0.6592024618
12
Frame=116  time=58.500fs  energy=-306.20087061Ha  molecule=COOCCCHHHHHH
C       0.0693030632      0.3157576439      0.0440899840
O       1.3031111909      0.4731767681      0.1032767042
O       2.2119956122     -0.6132959213     -0.0409224746
C      -0.5703468275     -0.9717907728     -0.0741094519
C      -0.0592109583     -2.2014919174     -0.3062539885
C      -0.6246940861      1.6593421584      0.2154494418
H      -1.6804850897     -0.9467843968      0.1026667071
H       1.0057063482     -2.4004697998     -0.3823369373
H      -0.8102137576     -2.9980562432     -0.0939104144
H       0.1619777580      2.4304246790      0.4702010143
H      -1.3483323894      1.6329176041      1.0209302578
H      -1.2203870650      2.0808283049     -0.6675122437
12
Frame=117  time=59.000fs  energy=-306.20090889Ha  molecule=COOCCCHHHHHH
C       0.0663235130      0.3142896398      0.0457601045
O       1.3033569798      0.4699136919      0.1017389162
O       2.2103727759     -0.6104364505     -0.0396527295
C      -0.5701729667     -0.9675566625     -0.0753828331
C      -0.0548523740     -2.2006809069     -0.3095694707
C      -0.6262660513      1.6592296983      0.2201648195
H      -1.6655254937     -0.9513957536      0.1090218280
H       1.0081736014     -2.4072565724     -0.3872386650
H      -0.8068983783     -3.0029325061     -0.0918627329
H       0.1699622310      2.4116809273      0.4640185299
H      -1.3592235503      1.6333006332      1.0166364700
H      -1.2161375243      2.0805836572     -0.6776917999
12
Frame=118  time=59.500fs  energy=-306.20107552Ha  molecule=COOCCCHHHHHH
C       0.0621197050      0.3127390505      0.0474251468
O       1.3047597276      0.4661163427      0.1001892825
O       2.2082748705     -0.6069311185     -0.0383891473
C      -0.5702607708     -0.9631473223     -0.0770443279
C      -0.0505164533     -2.2003677279     -0.3114601441
C      -0.6272760459      1.6594789830      0.2246619868
H      -1.6511049821     -0.9548051961      0.1153013711
H       1.0105867578     -2.4134438280     -0.3977194103
H      -0.8018993651     -3.0085811463     -0.0964006097
H       0.1744677639      2.3969311431      0.4579326279
H      -1.3695274152      1.6310827220      1.0154222742
H      -1.2096301739      2.0766633638     -0.6882143912
12
Frame=119  time=60.000fs  energy=-306.20117459Ha  molecule=COOCCCHHHHHH
C       0.0582233718      0.3114068545      0.0490651688
O       1.3071729873      0.4623566212      0.0986204380
O       2.2056879891     -0.6031159929     -0.0371256022
C      -0.5713542495     -0.9593553130     -0.0788854857
C      -0.0463785365     -2.2007807637     -0.3123343983
C      -0.6280004752      1.6603544580      0.2288965026
H      -1.6392859333     -0.9570887743      0.1207536700
H       1.0131628309     -2.4174485738     -0.4125633552
H      -0.7936578022     -3.0161527049     -0.1055292811
H       0.1767795566      2.3857400635      0.4520522860
H      -1.3806841542      1.6273618000      1.0164888809
H      -1.2018819345      2.0697331389     -0.6976796858
12
Frame=120  time=60.500fs  energy=-306.20130164Ha  molecule=COOCCCHHHHHH
C       0.0547103421      0.3102513863      0.0506376957
O       1.3108446142      0.4593197295      0.0970422370
O       2.2027922524     -0.5994870194     -0.0358576838
C      -0.5736014531     -0.9564540749     -0.0807240041
C      -0.0425722546     -2.2020341989     -0.3129323884
C      -0.6289088204      1.6617727545      0.2328453267
H      -1.6317439456     -0.9578426980      0.1258662844
H       1.0160200915     -2.4182164326     -0.4285038226
H      -0.7813863491     -3.0258981846     -0.1162498616
H       0.1783105636      2.3771734317      0.4465027654
H      -1.3925010596      1.6237849531      1.0199014810
H      -1.1924741915      2.0609779672     -0.7058293946
12
Frame=121  time=61.000fs  energy=-306.20250510Ha  molecule=COOCCCHHHHHH
C       0.0516209682      0.3092617892      0.0521389132
O       1.3156312450      0.4570151118      0.0954606438
O       2.1996393064     -0.5960822268     -0.0345885211
C      -0.5756829721     -0.9546332076     -0.0825479565
C      -0.0393655033     -2.2048144711     -0.3132820931
C      -0.6302934579      1.6634577736      0.2364788376
H      -1.6430204364     -0.9545446991      0.1306826710
H       1.0149161474     -2.4150573256     -0.4453759619
H      -0.7578233327     -3.0290626323     -0.1285091685
H       0.1813097156      2.3733131184      0.4415131773
H      -1.4042577424      1.6205520993      1.0248542122
H      -1.1809253350      2.0504611573     -0.7118035417
12
Frame=122  time=61.500fs  energy=-306.20331134Ha  molecule=COOCCCHHHHHH
C       0.0488402935      0.3085029555      0.0535548442
O       1.3211319825      0.4550897304      0.0938833407
O       2.1962660761     -0.5927480011     -0.0333231858
C      -0.5782813192     -0.9535851194     -0.0843336895
C      -0.0363837110     -2.2078561217     -0.3133705995
C      -0.6319440202      1.6652183460      0.2397516145
H      -1.6590070010     -0.9493484170      0.1351241238
H       1.0145867212     -2.4101110738     -0.4632051362
H      -0.7323256506     -3.0335105676     -0.1424832960
H       0.1843968841      2.3723124406      0.4374590000
H      -1.4156879684      1.6178255479      1.0317051317
H      -1.1672987808      2.0379501976     -0.7158248652
12
Frame=123  time=62.000fs  energy=-306.20375240Ha  molecule=COOCCCHHHHHH
C       0.0462728623      0.3080105530      0.0548757719
O       1.3268536671      0.4531778693      0.0923201254
O       2.1927361955     -0.5893369557     -0.0320677984
C      -0.5809775268     -0.9531172536     -0.0860513151
C      -0.0334813064     -2.2106043015     -0.3132045656
C      -0.6338262450      1.6666990580      0.2426718764
H      -1.6780124789     -0.9423506160      0.1391131332
H       1.0156324598     -2.4047910466     -0.4819389837
H      -0.7074035367     -3.0391119905     -0.1582624049
H       0.1877905930      2.3739634991      0.4347518129
H      -1.4259054518      1.6156929033      1.0398594118
H      -1.1516611310      2.0233148936     -0.7179121519
12
Frame=124  time=62.500fs  energy=-306.20382789Ha  molecule=COOCCCHHHHHH
C       0.0440529657      0.3078299696      0.0561014293
O       1.3326640868      0.4513228652      0.0907812587
O       2.1890823853     -0.5858969624     -0.0308283819
C      -0.5839173866     -0.9533238984     -0.0876698439
C      -0.0306270077     -2.2128436428     -0.3128189807
C      -0.6359105156      1.6678424444      0.2453159658
H      -1.6979464674     -0.9339356178      0.1425955483
H       1.0187044299     -2.3990834186     -0.5014180855
H      -0.6845351278     -3.0470163631     -0.1757766531
H       0.1910775885      2.3781879227      0.4337210068
H      -1.4340838563      1.6142828681      1.0483667414
H      -1.1346982191      2.0067979482     -0.7185457312
12
Frame=125  time=63.000fs  energy=-306.20357070Ha  molecule=COOCCCHHHHHH
C       0.0422946126      0.3079735089      0.0572422543
O       1.3384138007      0.4495715136      0.0892751926
O       2.1853529411     -0.5824850362     -0.0296095002
C      -0.5872660246     -0.9542193590     -0.0891640910
C      -0.0277807148     -2.2144340245     -0.3122722006
C      -0.6381037009      1.6686386973      0.2478078690
H      -1.7161626606     -0.9247306106      0.1455549858
H       1.0240471525     -2.3929373268     -0.5214001452
H      -0.6648578952     -3.0579597466     -0.1947955042
H       0.1935836265      2.3843962975      0.4345091088
H      -1.4396136905      1.6136345879      1.0562427963
H      -1.1174716777      1.9888952148     -0.7186085475
12
Frame=126  time=63.500fs  energy=-306.20323038Ha  molecule=COOCCCHHHHHH
C       0.0410692587      0.3084287172      0.0583158495
O       1.3439726034      0.4479634633      0.0878072933
O       2.1815981483     -0.5791542078     -0.0284136576
C      -0.5914676307     -0.9557064718     -0.0905184687
C      -0.0248352930     -2.2151128443     -0.3116310542
C      -0.6402216380      1.6691571385      0.2502769100
H      -1.7265230411     -0.9160526003      0.1480093527
H       1.0326884736     -2.3865164681     -0.5416193540
H      -0.6510001133     -3.0744215765     -0.2149983550
H       0.1941037709      2.3912023495      0.4370583657
H      -1.4423565210      1.6137176778      1.0628947865
H      -1.1012135920      1.9702311355     -0.7192400303
12
Frame=127  time=64.000fs  energy=-306.20366009Ha  molecule=COOCCCHHHHHH
C       0.0404340613      0.3091868773      0.0593398864
O       1.3492327824      0.4465355389      0.0863825540
O       2.1778611518     -0.5759524942     -0.0272433444
C      -0.5973779531     -0.9576206984     -0.0917187907
C      -0.0215925541     -2.2143452065     -0.3109557673
C      -0.6419965431      1.6695268425      0.2528255807
H      -1.7180545794     -0.9100410250      0.1499728391
H       1.0472025529     -2.3802957221     -0.5618358689
H      -0.6482089339     -3.1018712081     -0.2360971744
H       0.1908016941      2.3965223836      0.4412563001
H      -1.4425264086      1.6145021643      1.0681978824
H      -1.0871851222      1.9514117553     -0.7216679521
12
Frame=128  time=64.500fs  energy=-306.20347219Ha  molecule=COOCCCHHHHHH
C       0.0405093092      0.3101972705      0.0603299272
O       1.3540333476      0.4453537825      0.0850104176
O       2.1742009107     -0.5729457209     -0.0261042783
C      -0.6036368894     -0.9601188039     -0.0927372506
C      -0.0183736964     -2.2131449870     -0.3103033943
C      -0.6435573310      1.6695683063      0.2555262098
H      -1.7064739947     -0.9042749716      0.1514144950
H       1.0617164888     -2.3730062374     -0.5818106324
H      -0.6470492069     -3.1293426338     -0.2578816274
H       0.1852673515      2.4020674867      0.4470824904
H      -1.4396336337      1.6158664297      1.0710544753
H      -1.0759691204      1.9328816156     -0.7259506636
12
Frame=129  time=65.000fs  energy=-306.20278205Ha  molecule=COOCCCHHHHHH
C       0.0413251579      0.3114047466      0.0613055973
O       1.3582821791      0.4444569521      0.0836944019
O       2.1706622529     -0.5701783310     -0.0249984871
C      -0.6099973406     -0.9631377806     -0.0935635701
C      -0.0152377515     -2.2117511158     -0.3097295471
C      -0.6448455815      1.6692789774      0.2583767726
H      -1.6940451594     -0.8986671597      0.1523513327
H       1.0748629070     -2.3643854277     -0.6013260111
H      -0.6456134904     -3.1544731754     -0.2800736041
H       0.1775916344      2.4076732595      0.4543017749
H      -1.4341741213      1.6177037348      1.0715652098
H      -1.0679826744      1.9150735107     -0.7321595824
12
Frame=130  time=65.500fs  energy=-306.20104876Ha  molecule=COOCCCHHHHHH
C       0.0443963394      0.3130736806      0.0622846946
O       1.3611713897      0.4437729311      0.0824311814
O       2.1672524580     -0.5676568146     -0.0239237680
C      -0.6164872540     -0.9669419390     -0.0942082801
C      -0.0122020864     -2.2102011885     -0.3092732035
C      -0.6459228702      1.6687240053      0.2613050778
H      -1.6833179543     -0.8935366860      0.1528458434
H       1.0856318468     -2.3547140913     -0.6202442751
H      -0.6423059079     -3.1753847685     -0.3024001638
H       0.1696171786      2.4119591995      0.4625386823
H      -1.4287071173      1.6203452202      1.0692116139
H      -1.0646135745      1.8986772485     -0.7386179653
12
Frame=131  time=66.000fs  energy=-306.20266618Ha  molecule=COOCCCHHHHHH
C       0.0490107218      0.3149305200      0.0632796542
O       1.3630176979      0.4433281592      0.0812139252
O       2.1640041335     -0.5653806035     -0.0228757494
C      -0.6198691785     -0.9716401393     -0.0946924609
C      -0.0099858162     -2.2107979035     -0.3089540820
C      -0.6473364830      1.6675478236      0.2642217184
H      -1.7112318246     -0.8825642207      0.1529745069
H       1.0824797454     -2.3417472397     -0.6385095835
H      -0.6167078303     -3.1695924085     -0.3246553440
H       0.1659979921      2.4204693673      0.4714278091
H      -1.4225420501      1.6233121813      1.0637880705
H      -1.0636886182      1.8833833282     -0.7436506382
12
Frame=132  time=66.500fs  energy=-306.20247643Ha  molecule=COOCCCHHHHHH
C       0.0541010235      0.3167780915      0.0643094801
O       1.3643034658      0.4432342613      0.0800537099
O       2.1609654049     -0.5634168058     -0.0218620498
C      -0.6231026148     -0.9765125359     -0.0949813242
C      -0.0079063533     -2.2114250900     -0.3088382600
C      -0.6483701506      1.6660956539      0.2670218764
H      -1.7391119897     -0.8722662728      0.1526875678
H       1.0774629343     -2.3275304707     -0.6558425177
H      -0.5899025429     -3.1603078315     -0.3466066129
H       0.1605599987      2.4286679064      0.4808558374
H      -1.4162281480      1.6264273074      1.0582123989
H      -1.0652373666      1.8694128948     -0.7491837493
12
Frame=133  time=67.000fs  energy=-306.20096146Ha  molecule=COOCCCHHHHHH
C       0.0595283309      0.3185559749      0.0653867588
O       1.3650706722      0.4435049405      0.0789504136
O       2.1581554607     -0.5617796945     -0.0208828678
C      -0.6263594672     -0.9814169468     -0.0950745192
C      -0.0059191689     -2.2119283381     -0.3089598011
C      -0.6489868707      1.6644048109      0.2696077971
H      -1.7642108028     -0.8632484472      0.1520104654
H       1.0717685537     -2.3123662830     -0.6721133323
H      -0.5636670007     -3.1495421687     -0.3680601481
H       0.1531727122      2.4362536750      0.4905802072
H      -1.4104616452      1.6295826517      1.0532854261
H      -1.0688295727      1.8568443393     -0.7547028428
12
Frame=134  time=67.500fs  energy=-306.20164489Ha  molecule=COOCCCHHHHHH
C       0.0651038866      0.3202951803      0.0665110385
O       1.3654835060      0.4440719170      0.0778924824
O       2.1555319523     -0.5604132578     -0.0199307618
C      -0.6322133726     -0.9859303351     -0.0950077923
C      -0.0034102166     -2.2104685831     -0.3093020195
C      -0.6488031854      1.6628539064      0.2719476558
H      -1.7556574684     -0.8607013615      0.1510338516
H       1.0758519540     -2.2985325010     -0.6874141389
H      -0.5555698015     -3.1572967149     -0.3889605298
H       0.1403254368      2.4391094941      0.5003597515
H      -1.4063633653      1.6328109957      1.0506052847
H      -1.0744941232      1.8455892485     -0.7609418234
12
Frame=135  time=68.000fs  energy=-306.20144466Ha  molecule=COOCCCHHHHHH
C       0.0707504909      0.3218877611      0.0677586928
O       1.3655359417      0.4449546797      0.0768764975
O       2.1531249504     -0.5593327961     -0.0190088638
C      -0.6380767319     -0.9902954726     -0.0947898073
C      -0.0009650007     -2.2088255910     -0.3098992712
C      -0.6483161986      1.6611193124      0.2739000670
H      -1.7439681431     -0.8595150513      0.1497560023
H       1.0804056546     -2.2842556614     -0.7016460319
H      -0.5491511643     -3.1652498940     -0.4090793221
H       0.1262947599      2.4415845071      0.5101888907
H      -1.4033013136      1.6356050335      1.0494043944
H      -1.0811715237      1.8357784432     -0.7660618212
12
Frame=136  time=68.500fs  energy=-306.20107331Ha  molecule=COOCCCHHHHHH
C       0.0763778754      0.3232995050      0.0693909389
O       1.3652697130      0.4461445835      0.0758858416
O       2.1509385942     -0.5585329353     -0.0181258978
C      -0.6437988306     -0.9944590375     -0.0944675798
C       0.0013949374     -2.2070643721     -0.3107885498
C      -0.6475975681      1.6591931624      0.2751419224
H      -1.7306472107     -0.8594570298      0.1481355321
H       1.0853599286     -2.2696157443     -0.7148047552
H      -0.5439949558     -3.1730267280     -0.4280147758
H       0.1115917053      2.4439976375      0.5205344483
H      -1.4007997822      1.6368980760      1.0501679828
H      -1.0890283662      1.8283248300     -0.7692386593
12
Frame=137  time=69.000fs  energy=-306.20011014Ha  molecule=COOCCCHHHHHH
C       0.0818005843      0.3245007342      0.0713797054
O       1.3645347119      0.4474127458      0.0748860985
O       2.1489892787     -0.5579013714     -0.0172630486
C      -0.6490013833     -0.9982196149     -0.0936906398
C       0.0037257641     -2.2050777907     -0.3124228765
C      -0.6466983709      1.6569427006      0.2757392632
H      -1.7167733288     -0.8602551073      0.1440630716
H       1.0905179521     -2.2554203086     -0.7263349890
H      -0.5402651532     -3.1796739825     -0.4430062605
H       0.0968751668      2.4463285871      0.5311353957
H      -1.3989207307      1.6367884006      1.0527771011
H      -1.0974581828      1.8228418341     -0.7702817313
12
Frame=138  time=69.500fs  energy=-306.19917852Ha  molecule=COOCCCHHHHHH
C       0.0865238914      0.3253711096      0.0734190121
O       1.3628555489      0.4485279308      0.0738862299
O       2.1475152339     -0.5574824866     -0.0163981433
C      -0.6528134158     -1.0010530354     -0.0922372642
C       0.0062002890     -2.2023826711     -0.3154270684
C      -0.6459547322      1.6538180013      0.2760566042
H      -1.7025879291     -0.8615109265      0.1377085005
H       1.0954215818     -2.2436763948     -0.7335725881
H      -0.5392897128     -3.1828891352     -0.4515138875
H       0.0842364982      2.4463220376      0.5412019609
H      -1.3978698126      1.6374251120      1.0568340187
H      -1.1050921051      1.8190999246     -0.7697657459
12
Frame=139  time=70.000fs  energy=-306.19931274Ha  molecule=COOCCCHHHHHH
C       0.0902320522      0.3258200778      0.0754155948
O       1.3600328015      0.4495260945      0.0729240231
O       2.1467095653     -0.5574331013     -0.0155352357
C      -0.6547599940     -1.0026835709     -0.0903399312
C       0.0089037349     -2.1987191730     -0.3200133655
C      -0.6457142206      1.6494688270      0.2761891939
H      -1.6884440421     -0.8628703239      0.1320025067
H       1.0997755084     -2.2353819610     -0.7339664170
H      -0.5416748143     -3.1813750541     -0.4536254254
H       0.0753669792      2.4421270785      0.5505958632
H      -1.3972616171      1.6400309796      1.0621868485
H      -1.1114227825      1.8178629790     -0.7680542522
12
Frame=140  time=70.500fs  energy=-306.19982997Ha  molecule=COOCCCHHHHHH
C       0.0929732683      0.3258572463      0.0773794641
O       1.3561903947      0.4504248223      0.0720331661
O       2.1465213871     -0.5577257552     -0.0146906941
C      -0.6543969987     -1.0032650823     -0.0884455836
C       0.0116853148     -2.1945890026     -0.3256144727
C      -0.6460845877      1.6439289790      0.2761241867
H      -1.6815788377     -0.8630723055      0.1295463107
H       1.1014945149     -2.2298499293     -0.7282842521
H      -0.5433356776     -3.1713875412     -0.4526734101
H       0.0710710809      2.4351159084      0.5594131881
H      -1.3966391548      1.6441774539      1.0683392997
H      -1.1164192579      1.8190747753     -0.7649232500
12
Frame=141  time=71.000fs  energy=-306.20073215Ha  molecule=COOCCCHHHHHH
C       0.0951009276      0.3255612287      0.0793423024
O       1.3517428876      0.4512329984      0.0711972665
O       2.1466875824     -0.5581728009     -0.0138661882
C      -0.6511313970     -1.0033338471     -0.0865857984
C       0.0141390234     -2.1912923158     -0.3316705390
C      -0.6469812646      1.6375593517      0.2758768243
H      -1.6973776761     -0.8597656146      0.1289879279
H       1.0963719623     -2.2247623788     -0.7195483791
H      -0.5350162610     -3.1459110674     -0.4506045574
H       0.0716291248      2.4299413012      0.5675761429
H      -1.3958379317      1.6483321015      1.0742931734
H      -1.1200417796      1.8214570348     -0.7595433406
12
Frame=142  time=71.500fs  energy=-306.20098070Ha  molecule=COOCCCHHHHHH
C       0.0968640251      0.3250031853      0.0814618788
O       1.3472666074      0.4522525224      0.0704002191
O       2.1470280887     -0.5588067678     -0.0130620938
C      -0.6474462295     -1.0030319074     -0.0846697950
C       0.0165002635     -2.1880330472     -0.3379057896
C      -0.6479327731      1.6310818378      0.2758311516
H      -1.7150738764     -0.8568578493      0.1284906533
H       1.0920031206     -2.2197101870     -0.7099351244
H      -0.5275872529     -3.1207468915     -0.4479456203
H       0.0731160829      2.4258114540      0.5696233574
H      -1.3972230505      1.6483729278      1.0802525083
H      -1.1215830965      1.8277036647     -0.7526802903
12
Frame=143  time=72.000fs  energy=-306.20091430Ha  molecule=COOCCCHHHHHH
C       0.0981410543      0.3241321099      0.0837172188
O       1.3428211056      0.4535011749      0.0696493274
O       2.1475574554     -0.5596387638     -0.0122827764
C      -0.6433929094     -1.0022660984     -0.0826893794
C       0.0187811205     -2.1847604636     -0.3443166248
C      -0.6489438309      1.6245297743      0.2759541707
H      -1.7336777801     -0.8546092394      0.1280359903
H       1.0889484639     -2.2148086945     -0.6994448870
H      -0.5219016161     -3.0969555418     -0.4447379183
H       0.0755399925      2.4228137577      0.5661932461
H      -1.4004670457      1.6445322438      1.0860261967
H      -1.1212792992      1.8373209509     -0.7442652023
12
Frame=144  time=72.500fs  energy=-306.19685210Ha  molecule=COOCCCHHHHHH
C       0.0965343030      0.3224331779      0.0859888534
O       1.3396362040      0.4550868585      0.0689484979
O       2.1483001705     -0.5606695741     -0.0115309528
C      -0.6386947832     -1.0004269628     -0.0806263077
C       0.0209592392     -2.1816859368     -0.3508806959
C      -0.6499026973      1.6178973712      0.2759631136
H      -1.7512964876     -0.8526167364      0.1275726077
H       1.0877961722     -2.2096859032     -0.6881595840
H      -0.5187622098     -3.0758278804     -0.4411178667
H       0.0766586626      2.4228132207      0.5617751539
H      -1.4016980244      1.6387774244      1.0933508226
H      -1.1181377348      1.8467521677     -0.7359637348
12
Frame=145  time=73.000fs  energy=-306.20245006Ha  molecule=COOCCCHHHHHH
C       0.0922563122      0.3201259012      0.0882665591
O       1.3377088857      0.4569435187      0.0682976897
O       2.1492027583     -0.5618605424     -0.0108065746
C      -0.6392542572     -0.9968518033     -0.0784900935
C       0.0243780847     -2.1747019396     -0.3575680720
C      -0.6497030768      1.6120139122      0.2759111422
H      -1.6980802290     -0.8627362093      0.1270925414
H       1.1104506588     -2.2087797722     -0.6762070652
H      -0.5563884182     -3.1001145587     -0.4371948047
H       0.0677989095      2.4154819263      0.5565269538
H      -1.4033302689      1.6314419917      1.1041187182
H      -1.1150987033      1.8561293930     -0.7303360324
12
Frame=146  time=73.500fs  energy=-306.18124003Ha  molecule=COOCCCHHHHHH
C       0.0869242715      0.3172929783      0.0905407529
O       1.3361327728      0.4590922576      0.0677341451
O       2.1503704704     -0.5632952449     -0.0101309182
C      -0.6391728119     -0.9924914435     -0.0762411258
C       0.0276319434     -2.1679501352     -0.3644189777
C      -0.6494779960      1.6063305071      0.2758398705
H      -1.6472232123     -0.8734582259      0.1265763151
H       1.1339116883     -2.2080865964     -0.6633320745
H      -0.5949476232     -3.1254529134     -0.4329220890
H       0.0612499477      2.4089538188      0.5501539972
H      -1.4063063994      1.6217641466      1.1122858193
H      -1.1137381883      1.8654356839     -0.7219536084
12
Frame=147  time=74.000fs  energy=-306.19802238Ha  molecule=COOCCCHHHHHH
C       0.0812901559      0.3138513887      0.0927995281
O       1.3344653141      0.4614645796      0.0672266606
O       2.1517850248     -0.5649034366     -0.0094860816
C      -0.6255893338     -0.9893576618     -0.0739308455
C       0.0277520465     -2.1706828397     -0.3713457364
C      -0.6517410274      1.5990920723      0.2758146567
H      -1.7556111538     -0.8579020828      0.1260298314
H       1.1073375818     -2.1976785863     -0.6499731065
H      -0.5464627088     -3.0540298793     -0.4285321060
H       0.0761853879      2.4249096074      0.5432046895
H      -1.4048901908      1.6101528735      1.1128497586
H      -1.1087900594      1.8740628451     -0.7065551389
12
Frame=148  time=74.500fs  energy=-306.16520408Ha  molecule=COOCCCHHHHHH
C       0.0751158527      0.3102023343      0.0950181561
O       1.3329933053      0.4640321148      0.0668159259
O       2.1534084164     -0.5667032672     -0.0088948346
C      -0.6183764071     -0.9847189790     -0.0715287755
C       0.0292513304     -2.1689442938     -0.3783568299
C      -0.6528372050      1.5929964209      0.2759550909
H      -1.7842364156     -0.8571646020      0.1254381971
H       1.1061330287     -2.1926937497     -0.6360032665
H      -0.5424113064     -3.0327817221     -0.4241089052
H       0.0811928676      2.4298853686      0.5355781672
H      -1.4049482923      1.5971432330      1.1142475691
H      -1.1075441261      1.8830686490     -0.6941816969
12
Frame=149  time=75.000fs  energy=-306.04486034Ha  molecule=COOCCCHHHHHH
C       0.0686119643      0.3068250816      0.0971982243
O       1.3318100445      0.4666242308      0.0664635801
O       2.1550677180     -0.5685646110     -0.0083357895
C      -0.6288366996     -0.9774813507     -0.0690845074
C       0.0347324062     -2.1548249840     -0.3853865533
C      -0.6506814332      1.5893898624      0.2762431893
H      -1.5995691950     -0.8933918029      0.1248111805
H       1.1721829463     -2.2013367029     -0.6217785077
H      -0.6557308250     -3.1428886284     -0.4197736719
H       0.0582907418      2.4050091617      0.5276983626
H      -1.4101330122      1.5842144824      1.1227177985
H      -1.1132629971      1.8929754441     -0.6907556036
12
Frame=150  time=75.500fs  energy=-305.97078956Ha  molecule=COOCCCHHHHHH
C       0.0625184808      0.3026879956      0.0994301030
O       1.3301055147      0.4692664538      0.0660254898
O       2.1568134400     -0.5703897436     -0.0077299671
C      -0.6030430703     -0.9752062457     -0.0667087997
C       0.0319748765     -2.1660928768     -0.3924046546
C      -0.6552244697      1.5808340237      0.2763226723
H      -1.8507303021     -0.8547230971      0.1241724840
H       1.1011645438     -2.1824585739     -0.6077238384
H      -0.5298458510     -2.9855877861     -0.4151957621
H       0.0928818505      2.4414382867      0.5198876993
H      -1.4045258960      1.5703077349      1.1156567389
H      -1.1055786789      1.9010510168     -0.6687627003
12
Frame=151  time=76.000fs  energy=-305.94724912Ha  molecule=COOCCCHHHHHH
C       0.0561209950      0.2997722951      0.1017649533
O       1.3289699074      0.4716092610      0.0654639889
O       2.1581180396     -0.5719877503     -0.0070578797
C      -0.6205811074     -0.9678314741     -0.0644081364
C       0.0393012101     -2.1462562739     -0.3994674662
C      -0.6518921176      1.5771760707      0.2760067545
H      -1.5837077381     -0.9032099610      0.1235231281
H       1.1977222616     -2.1958139821     -0.5936870942
H      -0.6934231216     -3.1491618929     -0.4100466508
H       0.0601926476      2.4079450157      0.5118618573
H      -1.4138320366      1.5602625096      1.1324668169
H      -1.1080568657      1.9122566889     -0.6651495595
12
Frame=152  time=76.500fs  energy=-305.96179945Ha  molecule=COOCCCHHHHHH
C       0.0498304327      0.2957931342      0.1042772204
O       1.3272225701      0.4740471862      0.0647490702
O       2.1595670840     -0.5736089057     -0.0062983740
C      -0.5922561337     -0.9666839898     -0.0621819099
C       0.0363386018     -2.1578633639     -0.4066634564
C      -0.6572171317      1.5668987320      0.2779288291
H      -1.8657516244     -0.8572668046      0.1228875283
H       1.1257904732     -2.1747435593     -0.5793610943
H      -0.5605978222     -2.9798733760     -0.4038824296
H       0.1015310128      2.4544919000      0.5036380820
H      -1.3975272693      1.5468861125      1.1137888632
H      -1.1036268432      1.9243461431     -0.6524298854
12
Frame=153  time=77.000fs  energy=-306.05602276Ha  molecule=COOCCCHHHHHH
C       0.0429330673      0.2932263235      0.1069173491
O       1.3260373545      0.4760556340      0.0639310918
O       2.1610368001     -0.5752397711     -0.0054852795
C      -0.6120729856     -0.9588357128     -0.0599879100
C       0.0425721341     -2.1440853255     -0.4139895373
C      -0.6531117365      1.5632875023      0.2795194877
H      -1.5729428045     -0.9089980352      0.1222322876
H       1.1906042996     -2.1800331344     -0.5646668934
H      -0.6740611222     -3.0821560590     -0.3968750519
H       0.0597448706      2.4156513730      0.4946964010
H      -1.3995642499      1.5379709510      1.1234488650
H      -1.1133446962      1.9413243916     -0.6633768619
12
Frame=154  time=77.500fs  energy=-306.17537747Ha  molecule=COOCCCHHHHHH
C       0.0358832126      0.2897370426      0.1096547736
O       1.3243129604      0.4779189228      0.0630446441
O       2.1632519688     -0.5772346506     -0.0046376832
C      -0.5970048473     -0.9553355388     -0.0578107507
C       0.0406498869     -2.1547334903     -0.4214261984
C      -0.6560848036      1.5559543078      0.2809469063
H      -1.6929636702     -0.8917669674      0.1215513889
H       1.1250684799     -2.1612302642     -0.5496064365
H      -0.5584910393     -2.9300812877     -0.3891929912
H       0.0734906133      2.4376208521      0.4851025911
H      -1.3912753616      1.5277520379      1.1174624769
H      -1.1103972756      1.9576968258     -0.6561972230
12
Frame=155  time=78.000fs  energy=-306.09312305Ha  molecule=COOCCCHHHHHH
C       0.0298796714      0.2858962706      0.1123504585
O       1.3219346380      0.4793816883      0.0621794847
O       2.1660502337     -0.5796090465     -0.0038027736
C      -0.5823132149     -0.9529535447     -0.0556475358
C       0.0417861624     -2.1488393092     -0.4287953050
C      -0.6575705588      1.5522495277      0.2824191880
H      -1.7962251454     -0.8815361302      0.1208554849
H       1.1481289106     -2.1662194177     -0.5347272502
H      -0.5777315876     -2.9378644394     -0.3818014569
H       0.0688695323      2.4383066260      0.4758203507
H      -1.3891974548      1.5184943886      1.1179525121
H      -1.1144443378      1.9745740651     -0.6561313668
12
Frame=156  time=78.500fs  energy=-305.51728086Ha  molecule=COOCCCHHHHHH
C       0.0288074488      0.2837234769      0.1149794527
O       1.3174131597      0.4803937161      0.0612867058
O       2.1692655537     -0.5823852439     -0.0029558381
C      -0.5974587282     -0.9481586347     -0.0534671092
C       0.0492487454     -2.1219448496     -0.4362212336
C      -0.6547396515      1.5538552506      0.2835096286
H      -1.5517397496     -0.9345724151      0.1200968242
H       1.2822741660     -2.1965027284     -0.5196181187
H      -0.7873806991     -3.1625535093     -0.3741101246
H       0.0230707260      2.3881649542      0.4707769463
H      -1.4011478453      1.5156454989      1.1294497361
H      -1.1343484867      1.9927106380     -0.6657141147
12
Frame=157  time=79.000fs  energy=-304.31457548Ha  molecule=COOCCCHHHHHH
C       0.0314824463      0.2812308552      0.1174975402
O       1.3111710598      0.4823362881      0.0602991216
O       2.1734483229     -0.5860628397     -0.0020635628
C      -0.5651524829     -0.9480322303     -0.0513896591
C       0.0376153772     -2.1643590883     -0.4437368922
C      -0.6665798629      1.5468005055      0.2834238824
H      -1.9097400920     -0.8875283153      0.1203949938
H       1.0422037822     -2.1486714799     -0.5035752049
H      -0.3795989552     -2.6996242865     -0.3663599353
H       0.0965391537      2.4633258802      0.4780041412
H      -1.3883455474      1.5183431212      1.1020435780
H      -1.1347722710      2.0022756549     -0.6322945217
12
Frame=158  time=79.500fs  energy=-300.37218125Ha  molecule=COOCCCHHHHHH
C       0.0338305559      0.2810430066      0.1198279001
O       1.3079363119      0.4845234789      0.0593742690
O       2.1766464639     -0.5898649941     -0.0012105622
C      -0.6239901114     -0.9423467968     -0.0502253212
C       0.0626299918     -2.0974100781     -0.4497600976
C      -0.6558685876      1.5581058378      0.2823972149
H      -1.1775465015     -1.0239646269      0.1254730258
H       1.3542276252     -2.2034317008     -0.4906308648
H      -0.9840743317     -3.3719089679     -0.3668539970
H      -0.0258178245      2.3339948299      0.4959797366
H      -1.4132641576      1.5310070091      1.1405030874
H      -1.1792303067      2.0100381777     -0.6627526001
12
Frame=159  time=80.000fs  energy=-282.04841468Ha  molecule=COOCCCHHHHHH
C       0.0393670392      0.2762556302      0.1222891756
O       1.3031437741      0.4877923624      0.0584784940
O       2.1804022858     -0.5935980943     -0.0004006654
C      -0.4854844173     -0.9618165375     -0.0500583239
C       0.0368242634     -2.1958820214     -0.4530592334
C      -0.6851556269      1.5451051633      0.2812010112
H      -2.8505162810     -0.7501200780      0.1321556735
H       0.7798369726     -2.0755753340     -0.4876207808
H      -0.0710651017     -2.3566391711     -0.3797113445
H       0.1931702839      2.5670616497      0.5143209440
H      -1.3671744659      1.5201629609      1.0757230568
H      -1.1534564594      1.9956208190     -0.5895373362
12
Frame=160  time=80.500fs  energy=-187.46872616Ha  molecule=COOCCCHHHHHH
C       0.0429111859      0.2834797711      0.1248906672
O       1.3049797947      0.4885791344      0.0575522820
O       2.1806740642     -0.5954848149      0.0003875938
C      -0.7962447123     -0.9236618058     -0.0503962945
C       0.1022155568     -2.0010154521     -0.4538054015
C      -0.6344579401      1.5886616467      0.2798994493
H       0.8243708422     -1.3825843882      0.1361885444
H       1.8568651334     -2.2744145338     -0.4963424760
H      -1.9155287797     -4.4207592560     -0.4027047990
H      -0.2708640556      2.0879989533      0.5328898235
H      -1.4564256530      1.5265047207      1.2183438679
H      -1.2635348554      1.9993321038     -0.7234264741
12
Frame=161  time=81.000fs  energy=331.34292956Ha  molecule=COOCCCHHHHHH
C       0.0536048978      0.2669004423      0.1274777887
O       1.2938143059      0.4926696938      0.0565549257
O       2.1861886743     -0.5988223558      0.0011902201
C      -0.1185100081     -1.0146455735     -0.0504631022
C      -0.0492479890     -2.4627991197     -0.4534305985
C      -0.7585463041      1.5108766339      0.2787147682
H      -7.3397587362      0.0057263431      0.1344907479
H      -0.5877236290     -1.7854406995     -0.5128333979
H       2.4195787391      0.3897880670     -0.4286030694
H       0.7701222299      3.2045280425      0.5511940122
H      -1.2450951694      1.4757081338      0.9019577426
H      -1.0725395390      1.9452857683     -0.3985488137
12
Frame=162  time=81.500fs  energy=3263.45854790Ha  molecule=COOCCCHHHHHH
C       0.0475726037      0.3094511027      0.1291600844
O       1.3131027187      0.4862211917      0.0555967416
O       2.1782626354     -0.5968459030      0.0020292335
C      -1.6922769324     -0.8167208976     -0.0503153704
C       0.3100168387     -1.3626970429     -0.4528109277
C      -0.4730446389      1.7151991869      0.2785445099
H      11.4497990135     -3.1891091249      0.1319211332
H       5.3802005041     -2.9601926131     -0.5304402056
H      -7.9018490899    -11.1345954872     -0.4558620130
H      -1.6998282578      0.6103561922      0.5672566918
H      -1.7393409113      1.5555096526      1.6586334960
H      -1.5825430393      2.0149906337     -1.1491229712
12
Frame=163  time=82.000fs  energy=20044.88968954Ha  molecule=COOCCCHHHHHH
C       0.0806502695      0.2206083335      0.1296087775
O       1.2611450727      0.5030268916      0.0547114085
O       2.2025967277     -0.6068034864      0.0029136405
C       2.0192206348     -1.2892842011     -0.0499641323
C      -0.5442937350     -4.0007366383     -0.4520989929
C      -1.1594146807      1.2480797955      0.2797305432
H     -33.0905963923      4.3836879880      0.1296977925
H      -8.7912045382     -0.1597646457     -0.5477208511
H      16.7846798284     16.3427106827     -0.4844608158
H       4.1599208735      6.8046495955      0.5803264721
H      -0.5637574915      1.3344928065     -0.1360596234
H      -0.4165906237      1.7746797714      0.6484686515
