12
Frame=0  time=0.500fs  energy=-306.20544343Ha  molecule=COOCCCHHHHHH
C       0.0580063031      0.3477939997     -0.0003048823
O       1.3428688810      0.3018804512     -0.0037499078
O       1.9752199354     -0.8778972644      0.0022064524
C      -0.7089910747     -0.8731738886     -0.0030027855
C      -2.0527311174     -0.8818552625      0.0040304244
C      -0.4996899667      1.7209400241     -0.0012460070
H      -0.1422459606     -1.7459776306      0.0112416391
H      -2.6746003592      0.0533499646     -0.0024540692
H      -2.5779625061     -1.8398496251     -0.0108478894
H       0.3086543983      2.5124557166      0.0119704170
H      -1.1654851440      1.9098801712      0.8928530396
H      -1.1302612796      1.8648663708     -0.8720286668
12
Frame=1  time=1.000fs  energy=-306.19209414Ha  molecule=COOCCCHHHHHH
C       0.0508373455      0.3477245806     -0.0005496860
O       1.3458216092      0.3001636854     -0.0074766740
O       1.9736813841     -0.8765404238      0.0044019555
C      -0.7065391290     -0.8730890647     -0.0059363850
C      -2.0555806509     -0.8831422250      0.0079848043
C      -0.4910595578      1.7169463657     -0.0017901882
H      -0.1557441122     -1.7207259323      0.0220620457
H      -2.7012192241      0.0680967562     -0.0047722312
H      -2.5555610774     -1.8624831224     -0.0213243700
H       0.3131472680      2.5562763701      0.0233118989
H      -1.1909148437      1.9343908421      0.8950549200
H      -1.1267334546      1.8476254726     -0.8620542657
12
Frame=2  time=1.500fs  energy=-306.20354857Ha  molecule=COOCCCHHHHHH
C       0.0442969449      0.3475897311     -0.0007152419
O       1.3485127838      0.2985345507     -0.0111695961
O       1.9720774155     -0.8752453127      0.0065889509
C      -0.7080273900     -0.8668134512     -0.0087932236
C      -2.0616474103     -0.8805835808      0.0118539872
C      -0.4800185002      1.7173105793      0.0023274783
H      -0.1245208711     -1.7673407545      0.0324296905
H      -2.6901871625      0.0243712350     -0.0068697647
H      -2.5298631727     -1.8751174802     -0.0314313169
H       0.2683334960      2.5530653658      0.0346793033
H      -1.1865605853      1.9510005557      0.8578488331
H      -1.1350873679      1.8344978125     -0.8696335695
12
Frame=3  time=2.000fs  energy=-306.20003347Ha  molecule=COOCCCHHHHHH
C       0.0390846317      0.3474929114     -0.0007340844
O       1.3506284921      0.2969920750     -0.0148103474
O       1.9705103689     -0.8740411645      0.0087490046
C      -0.7102656033     -0.8602885602     -0.0114717115
C      -2.0673427511     -0.8782363210      0.0155328591
C      -0.4697048377      1.7185443799      0.0068492578
H      -0.0918892036     -1.8158731300      0.0417137147
H      -2.6774280079     -0.0226188410     -0.0086392841
H      -2.5055329301     -1.8844973763     -0.0405761472
H       0.2218075316      2.5431787882      0.0442513141
H      -1.1774620399      1.9636736262      0.8169991563
H      -1.1423402633      1.8227112751     -0.8788021961
12
Frame=4  time=2.500fs  energy=-306.15887622Ha  molecule=COOCCCHHHHHH
C       0.0350648635      0.3474477520     -0.0006211019
O       1.3522289829      0.2955213714     -0.0184027872
O       1.9689913141     -0.8729199130      0.0108823462
C      -0.7125879036     -0.8544901105     -0.0139817101
C      -2.0722973037     -0.8770033879      0.0190353079
C      -0.4604222436      1.7200286532      0.0111129618
H      -0.0649064810     -1.8550377856      0.0499904341
H      -2.6693622576     -0.0628816536     -0.0101119612
H      -2.4813881096     -1.8893907295     -0.0488195123
H       0.1803022656      2.5331766914      0.0521067120
H      -1.1678766017      1.9736217001      0.7780764638
H      -1.1469064440      1.8116952716     -0.8871160539
12
Frame=5  time=3.000fs  energy=-306.17091727Ha  molecule=COOCCCHHHHHH
C       0.0322241812      0.3476936392     -0.0004705810
O       1.3535636877      0.2938978059     -0.0219800820
O       1.9676469848     -0.8716818679      0.0130030416
C      -0.7070678543     -0.8658020193     -0.0164316271
C      -2.0701179925     -0.8865258858      0.0224769619
C      -0.4586011569      1.7177060364      0.0134836115
H      -0.1573694524     -1.6973770239      0.0579172387
H      -2.7396581770      0.0115717750     -0.0115143634
H      -2.4484439951     -1.8771683357     -0.0567332125
H       0.2003620910      2.5768718409      0.0590803246
H      -1.1540631452      1.9810174976      0.7311519360
H      -1.1304108212      1.7954049901     -0.8645164396
12
Frame=6  time=3.500fs  energy=-306.14227532Ha  molecule=COOCCCHHHHHH
C       0.0336813582      0.3466829325     -0.0001466408
O       1.3525941749      0.2926637829     -0.0255522962
O       1.9661184978     -0.8705086279      0.0151035077
C      -0.7106120792     -0.8656897148     -0.0188353414
C      -2.0649295254     -0.8830490130      0.0258451722
C      -0.4556390550      1.7140042238      0.0092255468
H      -0.1658112969     -1.6682906515      0.0654076410
H      -2.7663904543      0.0175918334     -0.0128390576
H      -2.4741918618     -1.9559955644     -0.0641659390
H       0.2445590707      2.6349387033      0.0583272287
H      -1.1967611735      1.9962612780      0.7641800852
H      -1.1035923578      1.7801661237     -0.8367762305
12
Frame=7  time=4.000fs  energy=-306.01078518Ha  molecule=COOCCCHHHHHH
C       0.0385209551      0.3453338681      0.0003932138
O       1.3495867349      0.2916290701     -0.0291093593
O       1.9643454345     -0.8694232085      0.0171934565
C      -0.7259037315     -0.8451215271     -0.0212204348
C      -2.0668420457     -0.8910565399      0.0291556661
C      -0.4470989210      1.7162107684      0.0055253819
H      -0.0295933259     -1.8771548266      0.0725968305
H      -2.7876445719      0.0099841813     -0.0139758906
H      -2.4227503151     -1.8917204597     -0.0712919574
H       0.2341177414      2.6309299149      0.0498779314
H      -1.2510436683      2.0043895330      0.8239858656
H      -1.0838196382      1.7675427948     -0.8371395500
12
Frame=8  time=4.500fs  energy=-305.90789138Ha  molecule=COOCCCHHHHHH
C       0.0438793501      0.3461879588      0.0009984249
O       1.3462381798      0.2897235915     -0.0326291800
O       1.9630841288     -0.8680924917      0.0192915451
C      -0.7139211435     -0.8648556634     -0.0235940263
C      -2.0709832035     -0.8743748391      0.0324401737
C      -0.4397446730      1.7190544050      0.0150085065
H      -0.1941085087     -1.6149284513      0.0797340191
H      -2.7210167763     -0.1343010250     -0.0148440203
H      -2.4677462335     -1.9870118427     -0.0784743905
H       0.2323647100      2.6253371885      0.0432313428
H      -1.2429850832      1.9922914698      0.8035249500
H      -1.1189999372      1.7640174319     -0.9176228674
12
Frame=9  time=5.000fs  energy=-305.67886771Ha  molecule=COOCCCHHHHHH
C       0.0490564016      0.3469044706      0.0017951040
O       1.3432065432      0.2878810174     -0.0361867549
O       1.9610722827     -0.8665699339      0.0214043357
C      -0.7366183964     -0.8321310666     -0.0258672704
C      -2.0715713710     -0.8904652557      0.0358179124
C      -0.4346104816      1.7245803083      0.0243020601
H       0.0136842765     -1.9622021731      0.0848802827
H      -2.7611926649     -0.1052340853     -0.0173881832
H      -2.3942134401     -1.8773014426     -0.0851562437
H       0.2005032734      2.5920327301      0.0376714022
H      -1.2079832784      1.9750625307      0.7447744481
H      -1.1286296733      1.7555205285     -0.9597003273
12
Frame=10  time=5.500fs  energy=-305.20810690Ha  molecule=COOCCCHHHHHH
C       0.0541053016      0.3487242171      0.0035628089
O       1.3412969924      0.2849647475     -0.0398247600
O       1.9597744681     -0.8646229730      0.0234713854
C      -0.7130068601     -0.8701108761     -0.0275211950
C      -2.0644029379     -0.8872132864      0.0385428842
C      -0.4330041921      1.7280870035      0.0134390168
H      -0.2964088806     -1.4643976046      0.0837734497
H      -2.8066499788     -0.0630440962     -0.0212438553
H      -2.4639817239     -2.0094151267     -0.0862119154
H       0.1929387991      2.5738655763      0.0311039164
H      -1.2492089525      1.9753013968      0.7953998988
H      -1.0497020840      1.7313121049     -0.8771838554
12
Frame=11  time=6.000fs  energy=-302.94591338Ha  molecule=COOCCCHHHHHH
C       0.0584962792      0.3497851676      0.0065905357
O       1.3397517959      0.2841776713     -0.0435164036
O       1.9578141313     -0.8640229462      0.0255006538
C      -0.7563404565     -0.8055979309     -0.0284277329
C      -2.0587684134     -0.9218540754      0.0400241617
C      -0.4348949374      1.7285627586      0.0012095824
H       0.1340724249     -2.1540345825      0.0764398802
H      -2.9261702585      0.1040080311     -0.0236999035
H      -2.3607641164     -1.8332808105     -0.0792548268
H       0.2080540129      2.5668658264      0.0274980015
H      -1.2832005162      1.9737503597      0.8428130265
H      -0.9699182608      1.7150024009     -0.7889694465
12
Frame=12  time=6.500fs  energy=-290.92630143Ha  molecule=COOCCCHHHHHH
C       0.0626794582      0.3534005628      0.0106579263
O       1.3387369024      0.2823193710     -0.0471096793
O       1.9581731579     -0.8637209290      0.0275430369
C      -0.6850660805     -0.9089032096     -0.0288002336
C      -2.0790705409     -0.8490797249      0.0401845132
C      -0.4392724319      1.7251194437      0.0426691490
H      -0.6601434767     -0.8598661779      0.0661395350
H      -2.5912681234     -0.4395541237     -0.0216849488
H      -2.5885681036     -2.2147907232     -0.0659955997
H       0.2717335220      2.5939807223      0.0355221593
H      -1.0795066532      1.9135870465      0.5721297692
H      -1.1448526693      1.7654250024     -1.0466555618
12
Frame=13  time=7.000fs  energy=-217.50397636Ha  molecule=COOCCCHHHHHH
C       0.0663302478      0.3520780034      0.0143310995
O       1.3371651799      0.2865211397     -0.0509583739
O       1.9551067544     -0.8661945228      0.0294770871
C      -0.8624711348     -0.6456066395     -0.0289731792
C      -2.0520132266     -1.0116576543      0.0397650672
C      -0.4373613074      1.7232280924     -0.0269008531
H       1.2166130570     -3.8836631919      0.0557701820
H      -3.2010680529      0.4957544353     -0.0187849749
H      -2.0531144628     -1.3014720182     -0.0489423451
H       0.2812486902      2.5709269105      0.0239862281
H      -1.3926258512      1.9831674121      1.0096372763
H      -0.8447145712      1.7047331341     -0.6595088447
12
Frame=14  time=7.500fs  energy=279.64275028Ha  molecule=COOCCCHHHHHH
C       0.0714059502      0.3621499875      0.0186085646
O       1.3388232356      0.2783428081     -0.0543952511
O       1.9611793469     -0.8636709047      0.0315618138
C      -0.4306567305     -1.2928608159     -0.0291195958
C      -2.0873597158     -0.6321302166      0.0391903168
C      -0.4429337902      1.7233679520      0.0752055247
H      -3.5285615239      3.7930809357      0.0455923840
H      -1.9330141686     -1.5086391221     -0.0126885077
H      -3.5330394550     -3.8259648695     -0.0335046901
H       0.3475037634      2.5950607086      0.0428704088
H      -0.9073036411      1.8550865506      0.3552795706
H      -1.2804985593      1.8192259195     -1.2730460145
12
Frame=15  time=8.000fs  energy=3768.02082834Ha  molecule=COOCCCHHHHHH
C       0.0745839253      0.3435185631      0.0214202835
O       1.3339900124      0.3035732964     -0.0582760680
O       1.9435419187     -0.8750113193      0.0333211838
C      -1.5647776405      0.4046582158     -0.0288323760
C      -2.0106561396     -1.6715782084      0.0388357450
C      -0.4224345485      1.7251933128     -0.1009569469
H       8.7996934703    -16.1282371301      0.0346101867
H      -5.3178780823      3.7674016367     -0.0106483499
H       0.4851920667      3.0526007721     -0.0172765143
H       0.2012199225      2.4416778496      0.0127478228
H      -1.7595837250      2.0642545737      1.5347608717
H      -0.5684371934      1.6681160710     -0.3295004919
