12
Frame=0  time=0.500fs  energy=-306.20545809Ha  molecule=COOCCCHHHHHH
C       0.0629521921      0.3549206547     -0.0002731391
O       1.3366539772      0.2980313556      0.0022324094
O       1.9793660942     -0.8789949008     -0.0011615618
C      -0.7047362764     -0.8666897532     -0.0011482780
C      -2.0556244060     -0.8811484465     -0.0023455315
C      -0.5110630105      1.7231763505      0.0045248690
H      -0.1363760758     -1.7720993974      0.0206094332
H      -2.6206522313     -0.0100166618      0.0080944389
H      -2.6333648684     -1.8197696016      0.0169506797
H       0.3037321995      2.4785836735     -0.0223050974
H      -1.1014352015      1.8802201000      0.8478164876
H      -1.1006033788      1.8790631586     -0.8971951434
12
Frame=1  time=1.000fs  energy=-306.19214880Ha  molecule=COOCCCHHHHHH
C       0.0603374921      0.3617151010     -0.0005227877
O       1.3337067785      0.2925515754      0.0044598839
O       1.9819290483     -0.8787212561     -0.0023220960
C      -0.6980225812     -0.8609128998     -0.0022708916
C      -2.0603950116     -0.8831805741     -0.0046192577
C      -0.5128330355      1.7208776676      0.0081965490
H      -0.1476060512     -1.7658985495      0.0408260354
H      -2.6051906611     -0.0396834894      0.0157000027
H      -2.6628448941     -1.8213721554      0.0336195589
H       0.3067764123      2.4926798328     -0.0436800152
H      -1.0758515528      1.8795384306      0.8208766180
H      -1.0687882425      1.8751571938     -0.9106130625
12
Frame=2  time=1.500fs  energy=-306.20354065Ha  molecule=COOCCCHHHHHH
C       0.0579713605      0.3681865041     -0.0007619713
O       1.3308126388      0.2872441704      0.0066741483
O       1.9844333143     -0.8784856467     -0.0034857670
C      -0.6935497928     -0.8533884274     -0.0033611908
C      -2.0617338503     -0.8940844101     -0.0068141104
C      -0.5079370814      1.7198218918      0.0069982085
H      -0.1436101943     -1.7828781723      0.0605935736
H      -2.6399826337      0.0085886923      0.0227090247
H      -2.6723335723     -1.7930491265      0.0500352430
H       0.2821512210      2.4801852073     -0.0647552255
H      -1.0977242033      1.8910942216      0.8605998689
H      -1.0433088372      1.8727199957     -0.9328521626
12
Frame=3  time=2.000fs  energy=-306.19993399Ha  molecule=COOCCCHHHHHH
C       0.0559355592      0.3740031039     -0.0009402284
O       1.3281104208      0.2822536239      0.0088866801
O       1.9868442167     -0.8783126773     -0.0046482220
C      -0.6904619239     -0.8462746412     -0.0043658477
C      -2.0621951077     -0.9048427116     -0.0088395433
C      -0.5024049423      1.7191487086      0.0049894980
H      -0.1375331181     -1.7992994909      0.0792693608
H      -2.6764083371      0.0603340320      0.0285146532
H      -2.6791434779     -1.7663744813      0.0657912377
H       0.2584710943      2.4661372424     -0.0832621800
H      -1.1259216958      1.9044994257      0.9062123651
H      -1.0226120568      1.8699718579     -0.9546944919
12
Frame=4  time=2.500fs  energy=-306.16422917Ha  molecule=COOCCCHHHHHH
C       0.0541720074      0.3792054997     -0.0010620803
O       1.3255715671      0.2775628406      0.0111016793
O       1.9891668190     -0.8782019605     -0.0058096375
C      -0.6886697162     -0.8394033381     -0.0052759367
C      -2.0621761935     -0.9131732794     -0.0107166426
C      -0.4971562307      1.7187068964      0.0028527322
H      -0.1285303925     -1.8166239239      0.0968568817
H      -2.7040224394      0.0994722432      0.0332344511
H      -2.6904039833     -1.7527996883      0.0809703354
H       0.2392514168      2.4540969735     -0.0993330486
H      -1.1536087359      1.9178334283      0.9483144839
H      -1.0055134305      1.8666490195     -0.9748078994
12
Frame=5  time=3.000fs  energy=-306.18000936Ha  molecule=COOCCCHHHHHH
C       0.0532373810      0.3844541834     -0.0011556256
O       1.3228898351      0.2729063079      0.0133213510
O       1.9915055311     -0.8780334070     -0.0069684343
C      -0.6848189542     -0.8396832517     -0.0061452761
C      -2.0639405526     -0.8997098622     -0.0125392074
C      -0.5003700968      1.7139950945      0.0025943816
H      -0.1658301415     -1.7529775675      0.1140021708
H      -2.6331272817     -0.0180379261      0.0375766362
H      -2.7644464852     -1.8409555852      0.0959099540
H       0.2896427415      2.5034377308     -0.1141458944
H      -1.1565720268      1.9243455125      0.9517669254
H      -0.9824769752      1.8605560618     -0.9804427297
12
Frame=6  time=3.500fs  energy=-306.14469294Ha  molecule=COOCCCHHHHHH
C       0.0540491051      0.3895819836     -0.0013373863
O       1.3199857472      0.2683573741      0.0155574369
O       1.9936643716     -0.8777813988     -0.0081197091
C      -0.6870567932     -0.8361848032     -0.0069430598
C      -2.0648902248     -0.8998904228     -0.0142879265
C      -0.5054944623      1.7126731248      0.0082767409
H      -0.1657003974     -1.7418450509      0.1306327936
H      -2.6057002433     -0.0618423825      0.0414277673
H      -2.7770706869     -1.8369588227      0.1104478112
H       0.3251990613      2.5286544825     -0.1209995930
H      -1.1126527288      1.9204854990      0.8784146707
H      -0.9756811871      1.8511905027     -0.9876776995
12
Frame=7  time=4.000fs  energy=-306.03478848Ha  molecule=COOCCCHHHHHH
C       0.0544957551      0.3923661924     -0.0016741927
O       1.3180605459      0.2643603087      0.0177942035
O       1.9955462394     -0.8775767157     -0.0092691246
C      -0.6955731355     -0.8259076636     -0.0076792367
C      -2.0674936068     -0.9291457976     -0.0159791176
C      -0.5021584823      1.7168952710      0.0132951236
H      -0.1104861503     -1.8074114465      0.1469167501
H      -2.6686030229      0.0476668689      0.0448195497
H      -2.6604814054     -1.6350004739      0.1247221086
H       0.2989103132      2.4919021237     -0.1200358176
H      -1.0887781217      1.9244079838      0.8242113244
H      -0.9940483331      1.8409770572     -1.0125096679
12
Frame=8  time=4.500fs  energy=-306.14733111Ha  molecule=COOCCCHHHHHH
C       0.0540732344      0.3924882171     -0.0020517868
O       1.3169800446      0.2606735390      0.0200053940
O       1.9973551466     -0.8772881296     -0.0104268053
C      -0.6986962657     -0.8264808965     -0.0084067852
C      -2.0591372826     -0.9059523476     -0.0176485355
C      -0.4982031225      1.7220069298      0.0079864374
H      -0.1293630081     -1.7350409278      0.1630950625
H      -2.6036746522     -0.0309649972      0.0479349882
H      -2.7933728372     -1.8650120966      0.1390321982
H       0.2676350268      2.4544005933     -0.1204013247
H      -1.1123550838      1.9407438676      0.8314618495
H      -0.9683775450      1.8204371633     -0.9733977824
12
Frame=9  time=5.000fs  energy=-306.03001186Ha  molecule=COOCCCHHHHHH
C       0.0535619953      0.3918754542     -0.0019163763
O       1.3156458986      0.2577050419      0.0221979276
O       1.9993690792     -0.8774532364     -0.0115938380
C      -0.6992759941     -0.8316276858     -0.0089019400
C      -2.0535172336     -0.9129872767     -0.0192538198
C      -0.4920840069      1.7259657843      0.0019745745
H      -0.1696773016     -1.6213548188      0.1759246468
H      -2.6477306024      0.0487879357      0.0488429724
H      -2.7948626464     -1.8813095891      0.1543012035
H       0.2476304631      2.4302527401     -0.1190542683
H      -1.1516296705      1.9583732070      0.8621963492
H      -0.9609165774      1.8048424438     -0.9557079533
12
Frame=10  time=5.500fs  energy=-305.39746349Ha  molecule=COOCCCHHHHHH
C       0.0531386690      0.3906666942     -0.0007470515
O       1.3134458499      0.2556594334      0.0243497508
O       2.0012179641     -0.8781996896     -0.0127800554
C      -0.7193239526     -0.8042549191     -0.0091664692
C      -2.0677815844     -0.9361307838     -0.0204119112
C      -0.4880617818      1.7282164233     -0.0051635719
H       0.0289344869     -1.9030774101      0.1829164936
H      -2.6294725727      0.0207083500      0.0442479431
H      -2.6165898906     -1.5948082880      0.1702492842
H       0.2561946730      2.4354266110     -0.1155296491
H      -1.1886988615      1.9708498795      0.8928230324
H      -0.9559873688      1.7919981738     -0.9354519227
12
Frame=11  time=6.000fs  energy=-303.60896729Ha  molecule=COOCCCHHHHHH
C       0.0524954188      0.3892709156      0.0015202712
O       1.3115066208      0.2530083932      0.0265081126
O       2.0039190157     -0.8787182319     -0.0139631506
C      -0.6933434849     -0.8519262848     -0.0094158168
C      -2.0550984423     -0.8966530830     -0.0205614150
C      -0.4905646313      1.7280348708      0.0071819581
H      -0.3173980743     -1.3144178371      0.1844187888
H      -2.5732969518     -0.0701648610      0.0322110337
H      -2.8153035307     -1.9724347268      0.1842029651
H       0.3170492224      2.4884580256     -0.1063246837
H      -1.1191526697      1.9540955977      0.7798204470
H      -1.0328501995      1.8023067420     -1.0199332424
12
Frame=12  time=6.500fs  energy=-293.50749508Ha  molecule=COOCCCHHHHHH
C       0.0518228447      0.3853364222      0.0041952131
O       1.3094549531      0.2525978258      0.0286025804
O       2.0050057202     -0.8801837747     -0.0151649013
C      -0.7703500076     -0.7447247652     -0.0099028076
C      -2.0380441141     -0.9522766122     -0.0195678416
C      -0.4925243341      1.7280368195      0.0011997585
H       0.4619423855     -2.5532987299      0.1837073362
H      -2.8177148788      0.3013333509      0.0136326132
H      -2.6213837621     -1.6877204897      0.1946602922
H       0.3675478290      2.5292095376     -0.0994079931
H      -1.1338109687      1.9601972791      0.7847347837
H      -1.0364353902      1.8001400058     -1.0037278734
12
Frame=13  time=7.000fs  energy=-231.02350921Ha  molecule=COOCCCHHHHHH
C       0.0522710620      0.3859729373      0.0068243544
O       1.3083794845      0.2475598029      0.0306748108
O       2.0097272874     -0.8800642301     -0.0163672921
C      -0.6062845625     -0.9894675079     -0.0105941822
C      -2.0883100143     -0.8248196652     -0.0179016577
C      -0.4799097132      1.7386137152     -0.0131861136
H      -1.3209076530      0.3444227553      0.1829461009
H      -2.1993056899     -0.6916980227     -0.0079582579
H      -2.8905237825     -2.1880455620      0.2024286939
H       0.2908704837      2.4471629849     -0.0940981665
H      -1.2068194719      1.9834788966      0.8752568413
H      -1.0227839392      1.7966100147     -0.9703014735
12
Frame=14  time=7.500fs  energy=189.60204589Ha  molecule=COOCCCHHHHHH
C       0.0508020497      0.3748556037      0.0094673078
O       1.3059575603      0.2550996098      0.0327555183
O       2.0059044923     -0.8849103468     -0.0175639103
C      -1.0254263218     -0.3821941606     -0.0112842935
C      -1.9843596504     -1.1624463510     -0.0162418279
C      -0.4743265500      1.7406411234     -0.0228265204
H       3.1026266670     -6.7875201927      0.1821910992
H      -3.7098968018      1.6697571893     -0.0294347429
H      -1.9096318793     -0.5741384045      0.2101446728
H       0.2750070223      2.4280142575     -0.0879574778
H      -1.2649364581      2.0057737340      0.9427886196
H      -1.0366005012      1.8023935281     -0.9716627534
12
Frame=15  time=8.000fs  energy=3139.18226818Ha  molecule=COOCCCHHHHHH
C       0.0532411208      0.3930465410      0.0118977398
O       1.3094369468      0.2321926350      0.0350511705
O       2.0240014776     -0.8778384505     -0.0187815487
C       0.0343490699     -1.9529748411     -0.0116464352
C      -2.1960565138     -0.2407763620     -0.0146349781
C      -0.5134269209      1.7356073343     -0.0011010578
H      -8.3250731674     11.6931902946      0.1811124872
H       0.0520394630     -4.2510522531     -0.0495288411
H      -4.7849034532     -5.4989464449      0.2163584835
H       0.5816905539      2.6886316664     -0.0760630847
H      -1.0350419204      1.9463947199      0.6009614482
H      -1.0437837034      1.7956784023     -0.9465656858
