12
Frame=0  time=0.500fs  energy=-306.20542660Ha  molecule=COOCCCHHHHHH
C       0.0731652074      0.3455677198      0.0016042044
O       1.3426587273      0.3041747455      0.0009017284
O       1.9749369547     -0.8800758613     -0.0009339915
C      -0.7153611491     -0.8713051145     -0.0022633102
C      -2.0529413484     -0.8768517873      0.0033916984
C      -0.5103004136      1.7225700474     -0.0063338381
H      -0.1102138686     -1.7529022586      0.0062456251
H      -2.6245110712     -0.0111049001      0.0085621683
H      -2.6394017860     -1.8093061922     -0.0282017756
H       0.3016778261      2.4805219360      0.0142766446
H      -1.1388157236      1.8915661124      0.8666565577
H      -1.1385964403      1.8793266721     -0.8241132844
12
Frame=1  time=1.000fs  energy=-306.19214663Ha  molecule=COOCCCHHHHHH
C       0.0802829598      0.3434219745      0.0031988570
O       1.3456893024      0.3047003061      0.0017957625
O       1.9731552607     -0.8808928149     -0.0018592680
C      -0.7185222285     -0.8699856640     -0.0044712520
C      -2.0554626254     -0.8746546033      0.0067067915
C      -0.5114515029      1.7195679876     -0.0118116137
H      -0.0968155209     -1.7289191563      0.0120594058
H      -2.6124863232     -0.0413342428      0.0171317595
H      -2.6748002863     -1.8009568949     -0.0558158840
H       0.3021850499      2.4969004018      0.0276788732
H      -1.1430084514      1.8993835368      0.8511258051
H      -1.1481468914      1.8770906522     -0.7751785699
12
Frame=2  time=1.500fs  energy=-306.20347327Ha  molecule=COOCCCHHHHHH
C       0.0871387400      0.3413937732      0.0047952380
O       1.3487394569      0.3052504724      0.0026921469
O       1.9714055456     -0.8817583317     -0.0027716995
C      -0.7231097368     -0.8667786612     -0.0066136676
C      -2.0550117933     -0.8814134560      0.0099316162
C      -0.5060987594      1.7177192380     -0.0124987616
H      -0.0700078488     -1.7292947377      0.0173739203
H      -2.6503372322      0.0070363416      0.0257885186
H      -2.6900182593     -1.7631393024     -0.0828143580
H       0.2744069524      2.4869638590      0.0408241831
H      -1.1514136722      1.9078495727      0.8464408846
H      -1.2025314313      1.8862785544     -0.7940902166
12
Frame=3  time=2.000fs  energy=-306.19992870Ha  molecule=COOCCCHHHHHH
C       0.0931378230      0.3397695517      0.0063595263
O       1.3519313915      0.3057583514      0.0035683720
O       1.9697715286     -0.8827051818     -0.0036642041
C      -0.7272031006     -0.8635741746     -0.0086140202
C      -2.0547490904     -0.8882236059      0.0129639621
C      -0.5004808917      1.7159813648     -0.0123910791
H      -0.0451195514     -1.7327300528      0.0215687841
H      -2.6888506315      0.0602515126      0.0344583915
H      -2.7023710218     -1.7281098987     -0.1083257752
H       0.2463782211      2.4762519178      0.0515501694
H      -1.1592035257      1.9141764078      0.8453698916
H      -1.2582481777      1.8958526543     -0.8230615984
12
Frame=4  time=2.500fs  energy=-306.16515899Ha  molecule=COOCCCHHHHHH
C       0.0983433181      0.3385039829      0.0078875263
O       1.3552330380      0.3062315251      0.0044263503
O       1.9682425463     -0.8837291237     -0.0045384811
C      -0.7309403991     -0.8602072857     -0.0104727123
C      -2.0549270419     -0.8926873836      0.0158098235
C      -0.4954828324      1.7142260062     -0.0121679597
H      -0.0207248103     -1.7407437447      0.0246616610
H      -2.7173566735      0.1015865943      0.0431368756
H      -2.7194318524     -1.7078906010     -0.1324060406
H       0.2217591307      2.4681890440      0.0599556475
H      -1.1657128177      1.9182267033      0.8461992559
H      -1.3090189545      1.9041363506     -0.8523593297
12
Frame=5  time=3.000fs  energy=-306.18060343Ha  molecule=COOCCCHHHHHH
C       0.1024434793      0.3374278416      0.0093914757
O       1.3586641181      0.3065870455      0.0052744900
O       1.9668592424     -0.8848055569     -0.0054063506
C      -0.7273980119     -0.8630337661     -0.0122646725
C      -2.0613433273     -0.8760029590      0.0185735682
C      -0.4988404452      1.7081001239     -0.0135067164
H      -0.0468469149     -1.6725039191      0.0272534931
H      -2.6447864571     -0.0060797964      0.0517913840
H      -2.7946767005     -1.7915779015     -0.1558456573
H       0.2653514383      2.5229143244      0.0671592049
H      -1.1624342187      1.9179099825      0.8325218889
H      -1.3341994306      1.9049701783     -0.8469277301
12
Frame=6  time=3.500fs  energy=-306.13465234Ha  molecule=COOCCCHHHHHH
C       0.1037727966      0.3364646444      0.0109911878
O       1.3633881284      0.3069973601      0.0060927886
O       1.9654898251     -0.8859687742     -0.0062716569
C      -0.7261042177     -0.8611503875     -0.0140151423
C      -2.0691946093     -0.8718869850      0.0212482165
C      -0.5047602510      1.7045208280     -0.0220362089
H      -0.0404145635     -1.6620229531      0.0292966840
H      -2.6109555346     -0.0441882922      0.0603792652
H      -2.8135691653     -1.7934238755     -0.1784664753
H       0.2857007679      2.5624238970      0.0660707832
H      -1.1664070315      1.9143140926      0.8394431189
H      -1.2923505408      1.8931203030     -0.7684595820
12
Frame=7  time=4.000fs  energy=-305.97143637Ha  molecule=COOCCCHHHHHH
C       0.1040829277      0.3374049141      0.0127530921
O       1.3687812351      0.3071169127      0.0069021216
O       1.9641117329     -0.8870724909     -0.0071309964
C      -0.7301188259     -0.8535483157     -0.0157575876
C      -2.0787725274     -0.9004469234      0.0238629989
C      -0.5040538655      1.7058156370     -0.0299019721
H       0.0132613779     -1.7341139027      0.0310220564
H      -2.6816705801      0.0867551844      0.0690554574
H      -2.6924577481     -1.5724635682     -0.2006127031
H       0.2433814907      2.5405362573      0.0573121522
H      -1.1795157550      1.9044713068      0.8763222019
H      -1.2548644905      1.8837674277     -0.7217007969
12
Frame=8  time=4.500fs  energy=-306.04221977Ha  molecule=COOCCCHHHHHH
C       0.1042836773      0.3404796389      0.0145822423
O       1.3740830634      0.3066882253      0.0077512980
O       1.9629453660     -0.8880266515     -0.0079734518
C      -0.7286261193     -0.8569418323     -0.0174957263
C      -2.0758090611     -0.8682579545      0.0264563031
C      -0.5035553290      1.7078463440     -0.0202280541
H      -0.0188852360     -1.6797038065      0.0327469304
H      -2.5930540681     -0.0164139450      0.0780508545
H      -2.8628812351     -1.8469831119     -0.2228710339
H       0.2021897295      2.5106542878      0.0513786161
H      -1.1126117588      1.8706246631      0.8083710291
H      -1.2936996154      1.8887485710     -0.7836501678
12
Frame=9  time=5.000fs  energy=-305.88315335Ha  molecule=COOCCCHHHHHH
C       0.1048314147      0.3442103137      0.0162285656
O       1.3785866196      0.3066664695      0.0086146572
O       1.9621302087     -0.8894188349     -0.0087989617
C      -0.7237251384     -0.8650034133     -0.0188561638
C      -2.0764427297     -0.8924342750      0.0289755431
C      -0.5015716578      1.7092068710     -0.0104027043
H      -0.0898199808     -1.5780417042      0.0313863840
H      -2.6943800693      0.1688397264      0.0857127311
H      -2.8029994131     -1.7365196274     -0.2439606228
H       0.1659509384      2.4862337404      0.0450002658
H      -1.0557516015      1.8383109873      0.7548820297
H      -1.3415040654      1.8940374456     -0.8601049370
12
Frame=10  time=5.500fs  energy=-305.35749917Ha  molecule=COOCCCHHHHHH
C       0.1053498512      0.3473983292      0.0169131326
O       1.3822357310      0.3075007477      0.0094184840
O       1.9612041568     -0.8913822886     -0.0096235737
C      -0.7353391065     -0.8448482978     -0.0190442670
C      -2.0964677901     -0.8877354360      0.0307912807
C      -0.4986498090      1.7070631447     -0.0500090289
H       0.0452633855     -1.8180596202      0.0224893856
H      -2.5699198402     -0.0033905252      0.0918661758
H      -2.7346210574     -1.6113669095     -0.2597371288
H       0.1695538104      2.4998344409      0.0282062512
H      -1.2486140840      1.8680488811      1.0397018336
H      -1.1873623932      1.8471042530     -0.6648696529
12
Frame=11  time=6.000fs  energy=-304.70692439Ha  molecule=COOCCCHHHHHH
C       0.1055629469      0.3498045191      0.0169899684
O       1.3860442092      0.3084044393      0.0105195945
O       1.9608079645     -0.8934250717     -0.0103109185
C      -0.7266767347     -0.8623500346     -0.0177916982
C      -2.0820937486     -0.8647537757      0.0311801873
C      -0.5062585562      1.7000448107      0.0088387574
H      -0.0916114571     -1.6302016408      0.0059461253
H      -2.5952747236      0.0517014964      0.1017039326
H      -2.9009274603     -1.9127167357     -0.2691497781
H       0.2591358323      2.5924235967      0.0268751993
H      -0.9889892786      1.7905036974      0.6998624574
H      -1.4485775231      1.8982000758     -1.0358776329
12
Frame=12  time=6.500fs  energy=-303.04096764Ha  molecule=COOCCCHHHHHH
C       0.1062022305      0.3513580593      0.0159263154
O       1.3899860219      0.3098076765      0.0113345737
O       1.9601499583     -0.8957939240     -0.0110982788
C      -0.7314335036     -0.8556420160     -0.0156175445
C      -2.0905666501     -0.9066534006      0.0304157969
C      -0.5153388774      1.6998729584     -0.0717340555
H      -0.0523697657     -1.7372213343     -0.0145362517
H      -2.7298360002      0.2585785443      0.1126148071
H      -2.6944105227     -1.5874031215     -0.2712790467
H       0.2824449088      2.6221159119     -0.0004275148
H      -1.3197744895      1.8620510845      1.1609033337
H      -1.0461860248      1.7900085517     -0.5023412293
12
Frame=13  time=7.000fs  energy=-297.45326729Ha  molecule=COOCCCHHHHHH
C       0.1067565798      0.3525422808      0.0156226709
O       1.3938928527      0.3113007166      0.0126321988
O       1.9595603704     -0.8983473407     -0.0117032746
C      -0.7361871649     -0.8483085490     -0.0132350400
C      -2.0973474163     -0.8389808955      0.0288343101
C      -0.4950285910      1.7160987873      0.0543921250
H      -0.0141398108     -1.8410032200     -0.0347234962
H      -2.4641333105     -0.1472832467      0.1300607597
H      -2.9009802031     -1.9590320188     -0.2726642172
H       0.0575113315      2.4196026995      0.0090063074
H      -0.7806136243      1.7270116077      0.4462382927
H      -1.6216131114      1.9244003361     -1.3128725077
12
Frame=14  time=7.500fs  energy=-274.23870523Ha  molecule=COOCCCHHHHHH
C       0.1068205385      0.3545911198      0.0140786378
O       1.3975088230      0.3119603714      0.0131250719
O       1.9597067657     -0.9005445045     -0.0126172801
C      -0.7043348412     -0.8943812868     -0.0108844376
C      -2.1126140937     -0.9345238486      0.0275646655
C      -0.5343542536      1.6986645123     -0.1626661544
H      -0.3654437920     -1.3197719724     -0.0552688522
H      -2.7937723507      0.3463085829      0.1411441727
H      -2.4682860466     -1.2652580794     -0.2709487279
H       0.3320324411      2.6739400631     -0.0423410819
H      -1.6647813894      1.9311216451      1.6532746520
H      -0.5532208930      1.6526464527      0.1379375661
12
Frame=15  time=8.000fs  energy=-162.36823967Ha  molecule=COOCCCHHHHHH
C       0.1058963867      0.3540149012      0.0151842074
O       1.3999643967      0.3141901664      0.0149764511
O       1.9580488639     -0.9032137301     -0.0128989996
C      -0.7886585776     -0.7718494056     -0.0088086311
C      -2.0732879050     -0.7227483722      0.0257390261
C      -0.4864016679      1.7144189195      0.2629040360
H       0.4946618063     -2.7415954565     -0.0747095237
H      -2.1784659914     -0.5716454406      0.1633078884
H      -3.3943759445     -2.8567384664     -0.2738233242
H       0.0228529240      2.3885132925      0.0199654495
H       0.0915918034      1.5013079774     -0.7078923011
H      -2.5865988678      2.1415159135     -2.6753788685
12
Frame=16  time=8.500fs  energy=439.80383797Ha  molecule=COOCCCHHHHHH
C       0.1077619220      0.3595659574      0.0122207297
O       1.4025696286      0.3108309183      0.0134645526
O       1.9608852209     -0.9037822359     -0.0142571641
C      -0.5860934406     -1.0626195933     -0.0075150023
C      -2.1564454433     -1.2527299652      0.0251442975
C      -0.5416065937      1.6838755509     -0.6205850681
H      -1.6351221581      0.6406456524     -0.0948461876
H      -3.9013648265      1.9978903746      0.1596555250
H      -1.0728229090      0.9987410017     -0.2623788831
H       0.4702687887      2.8005226746     -0.1500463920
H      -3.7594063496      2.4251598466      4.5434949869
H       1.4744448797      1.1389546892      2.8561276138
12
Frame=17  time=9.000fs  energy=3953.45692097Ha  molecule=COOCCCHHHHHH
C       0.0992623576      0.3502126453      0.0202166261
O       1.4032770878      0.3199485646      0.0181302403
O       1.9526848208     -0.9088862999     -0.0129555957
C      -1.0965114306     -0.3136060836     -0.0068288539
C      -1.9809000560      0.1936802411      0.0220818485
C      -0.4761996533      1.7277662313      1.2944591450
H       3.7318239874     -8.0135139350     -0.1108992814
H       0.9500166706     -5.2786781542      0.2057045711
H      -7.0732108061     -9.0947551166     -0.2730834206
H      -0.2069328991      2.1691984311      0.1751997186
H       4.7341737181      0.3603084586     -7.0179267423
H      -7.1285976742      3.2225746992     -8.9090735633
12
Frame=18  time=9.500fs  energy=25726.98121752Ha  molecule=COOCCCHHHHHH
C       0.1197304619      0.3785228327      0.0068473566
O       1.4078684297      0.2950330602      0.0080965106
O       1.9736968471     -0.9016139735     -0.0170603570
C       0.2578646646     -2.2916864299     -0.0074604119
C      -2.4341747341     -3.7468557687      0.0246109646
C      -0.5955274583      1.6607769622     -2.9168233176
H     -10.5613448453     14.8989503616     -0.1328873414
H     -12.4810133462     14.8639563621      0.1365820759
H       9.2758965372     18.2470291874     -0.2254679095
H       0.8416910659      3.1577111807     -0.5853641617
H     -13.9153388197      4.8817484807     18.4175083208
H      11.8811606618     -1.4147920645     17.0039300224
