12
Frame=0  time=0.500fs  energy=-306.20534312Ha  molecule=COOCCCHHHHHH
C       0.0599340413      0.3445703143     -0.0006507829
O       1.3436610378      0.3058758772      0.0020081049
O       1.9776262427     -0.8785049390     -0.0014281846
C      -0.7019881023     -0.8732577689      0.0000721185
C      -2.0553354082     -0.8771885516     -0.0006493102
C      -0.5083919666      1.7260315018      0.0071921163
H      -0.1466404995     -1.7551782744      0.0062311377
H      -2.6687113399      0.0002312851      0.0027703521
H      -2.5711209277     -1.7939051230     -0.0322766876
H       0.2947166906      2.4426596065     -0.0216621434
H      -1.1514173011      1.8629521914      0.8902585407
H      -1.1611882712      1.8673235123     -0.9255972588
12
Frame=1  time=1.000fs  energy=-306.19233598Ha  molecule=COOCCCHHHHHH
C       0.0545707443      0.3414229462     -0.0012433709
O       1.3474364525      0.3080886630      0.0040022030
O       1.9784791479     -0.8776977244     -0.0028534865
C      -0.6928821739     -0.8733544876      0.0001721163
C      -2.0595745094     -0.8740643332     -0.0013591515
C      -0.5093565796      1.7260516523      0.0135254521
H      -0.1645859852     -1.7385467560      0.0121009802
H      -2.6958132163     -0.0254507302      0.0054941638
H      -2.5462317605     -1.7804026547     -0.0639505765
H       0.2937310854      2.4275252557     -0.0423793464
H      -1.1667601425      1.8437683065      0.8944638898
H      -1.1807559828      1.8504416819     -0.9561754809
12
Frame=2  time=1.500fs  energy=-306.20346481Ha  molecule=COOCCCHHHHHH
C       0.0495261779      0.3383059812     -0.0017884594
O       1.3510480043      0.3103474817      0.0059730077
O       1.9792683451     -0.8768824133     -0.0042792022
C      -0.6888382270     -0.8675749697      0.0003024234
C      -2.0585747497     -0.8683103625     -0.0021320783
C      -0.5159066966      1.7253331463      0.0150106766
H      -0.1393132501     -1.7907583829      0.0175695678
H      -2.7352836941     -0.0274996198      0.0080983698
H      -2.5543694859     -1.8237325244     -0.0949449927
H       0.3115724058      2.4311594662     -0.0628059003
H      -1.1788274354      1.8246973852      0.8920904118
H      -1.1559835375      1.8229406796     -0.9226513227
12
Frame=3  time=2.000fs  energy=-306.20013390Ha  molecule=COOCCCHHHHHH
C       0.0455876884      0.3355918162     -0.0021626348
O       1.3541502770      0.3125303215      0.0079078468
O       1.9800587679     -0.8760141701     -0.0056973584
C      -0.6862477718     -0.8617408465      0.0004912320
C      -2.0566196011     -0.8629859750     -0.0030657845
C      -0.5229819749      1.7241671891      0.0156873555
H      -0.1121671882     -1.8442394664      0.0221569958
H      -2.7734724176     -0.0253574602      0.0105881094
H      -2.5639926651     -1.8693801966     -0.1244062323
H       0.3284374944      2.4365496369     -0.0806226934
H      -1.1886431073      1.8082916641      0.8884736809
H      -1.1270786224      1.7957810103     -0.8817632807
12
Frame=4  time=2.500fs  energy=-306.16648938Ha  molecule=COOCCCHHHHHH
C       0.0426966936      0.3332753046     -0.0023679517
O       1.3567765877      0.3146267417      0.0098087123
O       1.9808625661     -0.8750935014     -0.0071069166
C      -0.6841936170     -0.8569415656      0.0007313015
C      -2.0545498345     -0.8592419079     -0.0041539343
C      -0.5297944066      1.7226702124      0.0162346409
H      -0.0911435097     -1.8862593288      0.0259150646
H      -2.8112070772     -0.0184431638      0.0129770677
H      -2.5672317402     -1.9039046198     -0.1524039581
H       0.3416647224      2.4410445868     -0.0959039138
H      -1.1966891094      1.7945014011      0.8845948408
H      -1.1002682771      1.7704533311     -0.8425200050
12
Frame=5  time=3.000fs  energy=-306.17989714Ha  molecule=COOCCCHHHHHH
C       0.0413633619      0.3314814901     -0.0024994172
O       1.3589885564      0.3164736556      0.0116990737
O       1.9817857597     -0.8740180807     -0.0085102284
C      -0.6739911331     -0.8682071359      0.0009899499
C      -2.0576231319     -0.8629332239     -0.0053041374
C      -0.5314437068      1.7239112708      0.0185141418
H      -0.1810166592     -1.7442979127      0.0293483722
H      -2.8439711733     -0.0266588310      0.0153577657
H      -2.5118991539     -1.8332441757     -0.1798235185
H       0.3120098488      2.4058257432     -0.1098978683
H      -1.2065039561      1.7830946846      0.8849915249
H      -1.0926701666      1.7511054244     -0.8300208105
12
Frame=6  time=3.500fs  energy=-306.13309903Ha  molecule=COOCCCHHHHHH
C       0.0437469466      0.3309430399     -0.0026706590
O       1.3593034789      0.3182318197      0.0135902868
O       1.9826296122     -0.8728636260     -0.0099013615
C      -0.6725291024     -0.8718476507      0.0012965314
C      -2.0585058160     -0.8573137705     -0.0065286560
C      -0.5312677769      1.7217943514      0.0272248923
H      -0.2034935497     -1.7023400101      0.0324153567
H      -2.8405930084     -0.0799774309      0.0177384779
H      -2.4911952666     -1.8293238884     -0.2066375591
H       0.2984033760      2.3869651833     -0.1156438186
H      -1.2033160602      1.7772245850      0.8748809666
H      -1.1396538254      1.7451051997     -0.8915572844
12
Frame=7  time=4.000fs  energy=-305.92461486Ha  molecule=COOCCCHHHHHH
C       0.0482670978      0.3306004518     -0.0029668648
O       1.3581551639      0.3204701653      0.0154719333
O       1.9832912701     -0.8719463148     -0.0112879800
C      -0.6904937054     -0.8490461782      0.0016460559
C      -2.0566524841     -0.8541012905     -0.0077912328
C      -0.5306460582      1.7175606793      0.0352783976
H      -0.0342918335     -1.9708453204      0.0352653404
H      -2.8366005869     -0.1135664660      0.0199906249
H      -2.4622992231     -1.8237074977     -0.2330532328
H       0.2760842010      2.3731067683     -0.1136537695
H      -1.1964470817      1.7840302262      0.8664149357
H      -1.1878535249      1.7430865140     -0.9531839996
12
Frame=8  time=4.500fs  energy=-305.66744823Ha  molecule=COOCCCHHHHHH
C       0.0529218399      0.3303207388     -0.0033191623
O       1.3567784205      0.3223782008      0.0173217976
O       1.9846047975     -0.8709679129     -0.0126851169
C      -0.6748404624     -0.8771904133      0.0019943429
C      -2.0515043603     -0.8368394086     -0.0090371052
C      -0.5365736445      1.7087641274      0.0302639978
H      -0.2516277031     -1.6287075813      0.0381155081
H      -2.8131626538     -0.1687308579      0.0219984368
H      -2.5178314676     -1.9665593789     -0.2593548277
H       0.3088906685      2.4167071978     -0.1138018279
H      -1.2347436080      1.8048753085      0.9146634051
H      -1.1646392295      1.7265377626     -0.9123793278
12
Frame=9  time=5.000fs  energy=-304.81592962Ha  molecule=COOCCCHHHHHH
C       0.0573146677      0.3292552661     -0.0036346903
O       1.3556751255      0.3247982730      0.0191997845
O       1.9850394092     -0.8700456291     -0.0140943791
C      -0.7043773778     -0.8363561069      0.0025023283
C      -2.0420863793     -0.8688022840     -0.0101335151
C      -0.5418579294      1.6999536542      0.0252026492
H       0.0218930985     -2.0889999073      0.0394453426
H      -2.9559236462      0.0373058772      0.0227979038
H      -2.3912333843     -1.7957093605     -0.2861849054
H       0.3367683271      2.4518956055     -0.1150346871
H      -1.2780159441      1.8261303385      0.9704306169
H      -1.1456205629      1.7124169712     -0.8785681376
12
Frame=10  time=5.500fs  energy=-300.98566809Ha  molecule=COOCCCHHHHHH
C       0.0617855610      0.3300880510     -0.0028203139
O       1.3556743926      0.3249372568      0.0210810184
O       1.9863338430     -0.8679651583     -0.0155143280
C      -0.6588167168     -0.9065055534      0.0036384241
C      -2.0429695033     -0.8317126750     -0.0119169943
C      -0.5550232317      1.6966009690      0.0371826096
H      -0.5160497360     -1.2277590318      0.0344860594
H      -2.8365292651     -0.1566700656      0.0229526967
H      -2.5208304132     -2.0485690159     -0.3076510526
H       0.3276111842      2.4506187335     -0.1106948454
H      -1.1711853868      1.8076358729      0.8210036668
H      -1.1444721376      1.7065355114     -0.8592801152
12
Frame=11  time=6.000fs  energy=-278.68434963Ha  molecule=COOCCCHHHHHH
C       0.0661993448      0.3290510995     -0.0006806121
O       1.3551724792      0.3276316281      0.0229106965
O       1.9851218701     -0.8667660266     -0.0169748852
C      -0.7653787531     -0.7472674299      0.0055809923
C      -2.0368041430     -0.9049648697     -0.0149938770
C      -0.5462435254      1.7017563580      0.0476356032
H       0.6136109787     -3.0471271863      0.0228229515
H      -3.0355403599      0.1637488327      0.0244786045
H      -2.2164023577     -1.5375433376     -0.3206955317
H       0.1531900870      2.2991216377     -0.1033838830
H      -1.1125208304      1.7980874098      0.7513720181
H      -1.1974421675      1.7199849787     -0.9161792581
12
Frame=12  time=6.500fs  energy=-134.01118814Ha  molecule=COOCCCHHHHHH
C       0.0710166399      0.3358128333      0.0021569015
O       1.3554476625      0.3230799053      0.0245868674
O       1.9892924109     -0.8626367321     -0.0185127317
C      -0.5253327807     -1.1047588397      0.0080759551
C      -2.0670277782     -0.7037776173     -0.0193115073
C      -0.5466344157      1.6750887830      0.0074609495
H      -2.0167946267      1.2185385384      0.0077705540
H      -2.2827601369     -1.0033473982      0.0284443020
H      -2.9362147795     -2.7662111878     -0.3262687133
H       0.3585323432      2.4911631265     -0.1028493013
H      -1.3921885826      1.8592775198      1.1534602478
H      -1.1493159691      1.7033429204     -0.8376945051
12
Frame=13  time=7.000fs  energy=863.63516345Ha  molecule=COOCCCHHHHHH
C       0.0742271763      0.3258085646      0.0053474146
O       1.3530838403      0.3361410132      0.0264836350
O       1.9802963364     -0.8653553943     -0.0199683535
C      -1.1428052345     -0.1898089549      0.0107862138
C      -1.9784815852     -1.2758692505     -0.0243958614
C      -0.5573709350      1.6856110028      0.0624823301
H       4.6214859984     -9.4920128443     -0.0071142088
H      -4.3839139033      2.3066217589      0.0371300867
H      -0.9481606199      0.6224089363     -0.3298603463
H       0.1361818971      2.3133178551     -0.0853483403
H      -0.9954565981      1.7616018760      0.6106211757
H      -1.2759923550      1.7348579610     -0.9749527197
12
Frame=14  time=7.500fs  energy=7926.20785278Ha  molecule=COOCCCHHHHHH
C       0.0818235805      0.3586933159      0.0081117933
O       1.3598237989      0.3032459866      0.0280350521
O       2.0047788514     -0.8496614607     -0.0215334147
C       0.4614465248     -2.5805773788      0.0134176551
C      -2.1731741755      0.2303063580     -0.0293480508
C      -0.5792506163      1.6595802493     -0.0168928728
H     -12.8016067233     18.6840595784     -0.0220593965
H       1.0588337415     -6.1875848950      0.0431686883
H      -6.3990844375     -8.6559764534     -0.3319950727
H       0.5196199048      2.6590588802     -0.0917071421
H      -1.3716593722      1.8346953605      1.1351214819
H      -0.9741952300      1.6450482078     -0.5412574210
