12
Frame=0  time=0.500fs  energy=-306.20548348Ha  molecule=COOCCCHHHHHH
C       0.0653504413      0.3388029904      0.0009723225
O       1.3418300532      0.2966321666     -0.0030035094
O       1.9758463802     -0.8778600640      0.0001078887
C      -0.7175507354     -0.8632762752      0.0063948172
C      -2.0426442044     -0.8752523408     -0.0021458889
C      -0.5148714675      1.7296853371     -0.0014733568
H      -0.0891667890     -1.7974800497     -0.0126462223
H      -2.6601229057      0.0403699952      0.0090065012
H      -2.6242502448     -1.8313331638      0.0059791338
H       0.2930711267      2.4854505335      0.0168383504
H      -1.0826425971      1.8694695464      0.8651470114
H      -1.1370500031      1.8772645837     -0.8830240208
12
Frame=1  time=1.000fs  energy=-306.19192234Ha  molecule=COOCCCHHHHHH
C       0.0650612013      0.3302629804      0.0019177531
O       1.3438551034      0.2897121147     -0.0060083556
O       1.9750093757     -0.8765460066      0.0002171931
C      -0.7219860090     -0.8551578325      0.0127042476
C      -2.0362645379     -0.8706733745     -0.0042166885
C      -0.5204400999      1.7334541741     -0.0035152106
H      -0.0623717669     -1.8050999404     -0.0248580496
H      -2.6744181325      0.0469812278      0.0178685795
H      -2.6428338421     -1.8404593390      0.0116488618
H       0.2863633633      2.5070904133      0.0324790942
H      -1.0388819178      1.8576447938      0.8549472646
H      -1.1402424049      1.8721159942     -0.8822679048
12
Frame=2  time=1.500fs  energy=-306.20353988Ha  molecule=COOCCCHHHHHH
C       0.0649858000      0.3224257331      0.0028187923
O       1.3456967495      0.2828070532     -0.0090243369
O       1.9743134072     -0.8753452457      0.0003249228
C      -0.7213323463     -0.8534718104      0.0189194965
C      -2.0355570082     -0.8687127284     -0.0062014800
C      -0.5200897212      1.7377070352     -0.0100655773
H      -0.0816611406     -1.7405386266     -0.0365966680
H      -2.6722622146      0.0276812876      0.0265012757
H      -2.6271745291     -1.7921692850      0.0170098304
H       0.2582900559      2.5075235035      0.0461229879
H      -1.0409106682      1.8570569551      0.9072540525
H      -1.1463487355      1.8685213214     -0.8874032461
12
Frame=3  time=2.000fs  energy=-306.19971693Ha  molecule=COOCCCHHHHHH
C       0.0650489229      0.3158550886      0.0036544285
O       1.3472590368      0.2761426869     -0.0120445557
O       1.9737968846     -0.8744498175      0.0004378912
C      -0.7198794109     -0.8523461168      0.0249241978
C      -2.0360401038     -0.8667847646     -0.0079962298
C      -0.5188911333      1.7413361127     -0.0166863625
H      -0.1036050091     -1.6762944717     -0.0472349969
H      -2.6671507702      0.0075761607      0.0347984268
H      -2.6087052284     -1.7431286267      0.0215647886
H       0.2314694847      2.5062750409      0.0570152926
H      -1.0511510761      1.8576633501      0.9644466785
H      -1.1541160384      1.8662181633     -0.8927846062
12
Frame=4  time=2.500fs  energy=-306.15879002Ha  molecule=COOCCCHHHHHH
C       0.0652066512      0.3103769066      0.0044309440
O       1.3485848528      0.2697154827     -0.0150662634
O       1.9734256006     -0.8738318280      0.0005563905
C      -0.7186375417     -0.8504956073      0.0307383935
C      -2.0367665365     -0.8634249293     -0.0096202161
C      -0.5177006404      1.7443398794     -0.0227708481
H      -0.1190600646     -1.6265352597     -0.0568865421
H      -2.6576467789     -0.0156513677      0.0428009964
H      -2.5967492532     -1.7086260800      0.0253883722
H       0.2084025711      2.5060178142      0.0655884875
H      -1.0627649047      1.8578695417      1.0175675675
H      -1.1627995228      1.8648420661     -0.8972510947
12
Frame=5  time=3.000fs  energy=-306.16769347Ha  molecule=COOCCCHHHHHH
C       0.0650159600      0.3048750729      0.0051930404
O       1.3496950586      0.2636095602     -0.0180817048
O       1.9729586407     -0.8734254787      0.0006784260
C      -0.7276943842     -0.8310832508      0.0364853335
C      -2.0302615708     -0.8556986681     -0.0111881040
C      -0.5232231077      1.7434115343     -0.0268143871
H      -0.0101221607     -1.7816793399     -0.0662044413
H      -2.6719613144      0.0091190629      0.0507333896
H      -2.6407595972     -1.7767647059      0.0289503413
H       0.2423601386      2.5571457065      0.0737359460
H      -1.0541281269      1.8519756437      1.0378216072
H      -1.1677277826      1.8618197875     -0.8925983762
12
Frame=6  time=3.500fs  energy=-306.15484705Ha  molecule=COOCCCHHHHHH
C       0.0660793311      0.3014458793      0.0060985810
O       1.3501763367      0.2570471043     -0.0210822048
O       1.9727576765     -0.8729706558      0.0008088821
C      -0.7245229880     -0.8287875383      0.0421120318
C      -2.0277034593     -0.8479294576     -0.0126850374
C      -0.5298472410      1.7435804351     -0.0233180414
H      -0.0202926828     -1.7465873719     -0.0750566589
H      -2.6816205450      0.0359687528      0.0587241511
H      -2.6762740731     -1.8444917531      0.0321471712
H       0.2636125508      2.5915755216      0.0761283579
H      -1.0049725171      1.8329456076      0.9798389375
H      -1.1892518247      1.8680650769     -0.8954538046
12
Frame=7  time=4.000fs  energy=-306.07198621Ha  molecule=COOCCCHHHHHH
C       0.0677853811      0.3031124270      0.0071599128
O       1.3504003587      0.2495832560     -0.0240841930
O       1.9728587387     -0.8724258829      0.0009409737
C      -0.7153077638     -0.8359058811      0.0476236198
C      -2.0361499586     -0.8615491690     -0.0141162892
C      -0.5293297260      1.7453670348     -0.0191647402
H      -0.0879710574     -1.6286976112     -0.0835167781
H      -2.7167846843      0.1003247490      0.0666800930
H      -2.5787482579     -1.6918549465      0.0350980698
H       0.2359604725      2.5738126677      0.0703165059
H      -0.9764978780      1.8152329851      0.9333190590
H      -1.2255750146      1.8844578418     -0.9107774388
12
Frame=8  time=4.500fs  energy=-306.06773753Ha  molecule=COOCCCHHHHHH
C       0.0695196177      0.3077325615      0.0081746515
O       1.3501905010      0.2417965298     -0.0271131899
O       1.9729925474     -0.8719302680      0.0010618739
C      -0.7163081348     -0.8285579737      0.0531124392
C      -2.0397720835     -0.8310410949     -0.0155206605
C      -0.5290313142      1.7463137494     -0.0275911995
H      -0.0548244887     -1.6883519351     -0.0919019992
H      -2.6005233732     -0.0622740139      0.0743718782
H      -2.6661630144     -1.8468680706      0.0381025689
H       0.2108267933      2.5533932975      0.0619022520
H      -1.0030577153      1.8097390973      0.9628431848
H      -1.2038058788      1.8859257730     -0.8483891908
12
Frame=9  time=5.000fs  energy=-306.11438330Ha  molecule=COOCCCHHHHHH
C       0.0715488149      0.3130713041      0.0089021946
O       1.3491980917      0.2345518130     -0.0301329502
O       1.9735431039     -0.8719839192      0.0011863349
C      -0.7128914292     -0.8274444062      0.0583242196
C      -2.0468656921     -0.8519052025     -0.0168715242
C      -0.5280046958      1.7473228075     -0.0356503667
H      -0.0714906836     -1.6811771746     -0.0972560584
H      -2.6568201880      0.0379367060      0.0835735498
H      -2.5443483395     -1.6515785815      0.0398027902
H       0.1839601841      2.5322489925      0.0526797943
H      -1.0317355216      1.8043734107      0.9940680724
H      -1.1826985001      1.8853197489     -0.7886241773
12
Frame=10  time=5.500fs  energy=-306.11170689Ha  molecule=COOCCCHHHHHH
C       0.0728658736      0.3185575890      0.0086926129
O       1.3472980631      0.2293094650     -0.0330812730
O       1.9748767506     -0.8736566689      0.0013517751
C      -0.7171997413     -0.8183448050      0.0628860354
C      -2.0357136634     -0.8480380961     -0.0175596130
C      -0.5235975061      1.7470197648     -0.0272996264
H      -0.0274460485     -1.7704310564     -0.0963931061
H      -2.7183658383      0.1520112206      0.0938815955
H      -2.6005398992     -1.7634084500      0.0360359014
H       0.1599648030      2.5130390193      0.0436924363
H      -1.0124969088      1.7891622534      0.9565772410
H      -1.2450236878      1.9002314735     -0.8485514786
12
Frame=11  time=6.000fs  energy=-305.99157238Ha  molecule=COOCCCHHHHHH
C       0.0735764205      0.3250278154      0.0073234181
O       1.3445648159      0.2260804034     -0.0359863334
O       1.9775127668     -0.8772945193      0.0015563105
C      -0.7046225413     -0.8317061383      0.0666825454
C      -2.0419344945     -0.8273464244     -0.0170258712
C      -0.5235681174      1.7436316538     -0.0176126315
H      -0.1458209314     -1.5956015510     -0.0896214117
H      -2.6345170781      0.0362237389      0.1025519869
H      -2.6406421999     -1.8442040522      0.0247084888
H       0.1757211178      2.5252775830      0.0317472553
H      -0.9868461420      1.7759206836      0.9036652680
H      -1.2948212923      1.9079075397     -0.8956626902
12
Frame=12  time=6.500fs  energy=-305.92550904Ha  molecule=COOCCCHHHHHH
C       0.0737951783      0.3311061657      0.0052113605
O       1.3416139980      0.2247562740     -0.0389255405
O       1.9804000874     -0.8823958540      0.0017620229
C      -0.7176647141     -0.8065199365      0.0701154559
C      -2.0456925217     -0.8305169784     -0.0154128133
C      -0.5235443886      1.7396861818     -0.0354342882
H       0.0151723442     -1.8693186844     -0.0811842528
H      -2.6333210503      0.0495752641      0.1073842646
H      -2.5921310441     -1.7734394045      0.0082245241
H       0.1893955473      2.5299513145      0.0134693086
H      -1.0896563701      1.7981923239      1.0248118650
H      -1.2180699915      1.8847912111     -0.7745200425
12
Frame=13  time=7.000fs  energy=-305.96030655Ha  molecule=COOCCCHHHHHH
C       0.0741379734      0.3377378187      0.0031945080
O       1.3390572867      0.2233777623     -0.0417944616
O       1.9840004715     -0.8877483247      0.0019979070
C      -0.6971216736     -0.8314332959      0.0733776131
C      -2.0548085579     -0.8326492539     -0.0132848525
C      -0.5245111602      1.7356929468     -0.0245417852
H      -0.1871231142     -1.5578489415     -0.0727388541
H      -2.6275730259      0.0497922105      0.1104019486
H      -2.5370767387     -1.6952607280     -0.0107372617
H       0.2082903596      2.5361599637      0.0001901850
H      -1.0626675520      1.7906385677      0.9694170380
H      -1.2677597062      1.8939573903     -0.8265496485
12
Frame=14  time=7.500fs  energy=-306.12281337Ha  molecule=COOCCCHHHHHH
C       0.0744543406      0.3435968488      0.0011848668
O       1.3369286185      0.2229710693     -0.0446591839
O       1.9870683948     -0.8934921405      0.0022326015
C      -0.7108765567     -0.8085734777      0.0766601134
C      -2.0465593118     -0.8221525429     -0.0111782133
C      -0.5242660311      1.7327947913     -0.0136941010
H      -0.0379694128     -1.8143082153     -0.0643972699
H      -2.6439322187      0.0945486823      0.1134740256
H      -2.6029970470     -1.8198634627     -0.0296252415
H       0.2151443703      2.5328042834     -0.0129910169
H      -1.0392223938      1.7845048498      0.9189497948
H      -1.3209255656      1.9046070329     -0.8832171055
12
Frame=15  time=8.000fs  energy=-306.04882551Ha  molecule=COOCCCHHHHHH
C       0.0752302898      0.3499101555     -0.0006110756
O       1.3355317192      0.2229290278     -0.0477047360
O       1.9903561902     -0.8994872538      0.0024996156
C      -0.7089901760     -0.8104651358      0.0795169551
C      -2.0418862383     -0.8202410699     -0.0089396724
C      -0.5244716626      1.7306163855     -0.0218973028
H      -0.0613441728     -1.7953581040     -0.0552915170
H      -2.6860245872      0.1772293886      0.1151552834
H      -2.6321882220     -1.8797801747     -0.0474110619
H       0.2233088658      2.5318631359     -0.0300543902
H      -1.1015066654      1.8004558361      0.9841839626
H      -1.2871227162      1.8942014699     -0.8218503385
12
Frame=16  time=8.500fs  energy=-305.47380406Ha  molecule=COOCCCHHHHHH
C       0.0765961238      0.3569025944     -0.0017866718
O       1.3345381197      0.2231804780     -0.0510268452
O       1.9937350580     -0.9057735573      0.0028655129
C      -0.6943988533     -0.8258642211      0.0816904221
C      -2.0754052666     -0.8210756066     -0.0066191770
C      -0.5282381401      1.7275150990     -0.0298399898
H      -0.1776221943     -1.6294277684     -0.0453071353
H      -2.5341768807     -0.0484410784      0.1151941748
H      -2.4720736809     -1.6034978140     -0.0629116822
H       0.2575018639      2.5554106672     -0.0475588632
H      -1.1565098391      1.8159444433      1.0370872798
H      -1.2457012594      1.8814917443     -0.7497427926
12
Frame=17  time=9.000fs  energy=-304.52127905Ha  molecule=COOCCCHHHHHH
C       0.0776369341      0.3626133460     -0.0020306669
O       1.3343819838      0.2240987240     -0.0545923803
O       1.9968182763     -0.9121326088      0.0033907618
C      -0.7058301983     -0.8170683378      0.0831113751
C      -2.0320270078     -0.8201587585     -0.0043042271
C      -0.5271593931      1.7302120284      0.0042851474
H      -0.1126493794     -1.7555108034     -0.0345119848
H      -2.7880557609      0.3741814292      0.1142183206
H      -2.6920506813     -1.9935132282     -0.0758425328
H       0.2205979512      2.5166986787     -0.0580534076
H      -1.0212401817      1.7868486889      0.8297945055
H      -1.3875945737      1.9132073738     -0.9288447023
12
Frame=18  time=9.500fs  energy=-301.41587499Ha  molecule=COOCCCHHHHHH
C       0.0794635424      0.3696988154     -0.0017856149
O       1.3336091465      0.2250978395     -0.0586492041
O       1.9995924335     -0.9186503409      0.0039690211
C      -0.7056798810     -0.8037144995      0.0837787149
C      -2.1063944899     -0.8026009430     -0.0018771628
C      -0.5365410223      1.7272204152     -0.0317052042
H      -0.0189948165     -1.9302480003     -0.0229824775
H      -2.3259994797     -0.3359937839      0.1101645774
H      -2.3940364263     -1.4639642995     -0.0853424821
H       0.2687790920      2.5532670739     -0.0814248502
H      -1.1768540984      1.8284177247      1.0146224655
H      -1.1912250287      1.8608911566     -0.6439812825
12
Frame=19  time=10.000fs  energy=-288.16506537Ha  molecule=COOCCCHHHHHH
C       0.0810641669      0.3749087915     -0.0007509204
O       1.3346842758      0.2260792195     -0.0627564534
O       2.0025208145     -0.9241954620      0.0046960613
C      -0.6918395814     -0.8507778699      0.0839305576
C      -1.9817776736     -0.8314285849      0.0005152455
C      -0.5274839586      1.7331561021      0.0075157306
H      -0.3558149805     -1.4066834243     -0.0108058971
H      -3.1703840863      1.0058440633      0.1062593125
H      -2.9180209872     -2.4025606473     -0.0935679023
H       0.1724503731      2.4609827942     -0.0917832069
H      -1.0370862569      1.7992593581      0.8030706427
H      -1.3699316641      1.8994982851     -0.8784828517
12
Frame=20  time=10.500fs  energy=-221.58191479Ha  molecule=COOCCCHHHHHH
C       0.0852587674      0.3836996306      0.0002291778
O       1.3329657722      0.2286078269     -0.0670708529
O       2.0035347729     -0.9310096484      0.0053939198
C      -0.7181564746     -0.7675014577      0.0839137604
C      -2.2486485384     -0.7738371963      0.0029699328
C      -0.5519249712      1.7170834768     -0.0129725266
H       0.2433056802     -2.3954420489      0.0014699287
H      -1.4402325007     -1.7141341152      0.1008652980
H      -1.7858029304     -0.3746927912     -0.1006350194
H       0.3842496037      2.6405361807     -0.1128019955
H      -1.1084801469      1.8192083266      0.8684088944
H      -1.2256421832      1.8570275019     -0.6617958892
12
Frame=21  time=11.000fs  energy=145.72436458Ha  molecule=COOCCCHHHHHH
C       0.0844757822      0.3842854596      0.0012578805
O       1.3393299040      0.2298467010     -0.0713476028
O       2.0066582816     -0.9343509507      0.0061033460
C      -0.6838212753     -0.9416097319      0.0838981464
C      -1.6447621851     -0.8789218353      0.0054091059
C      -0.4964697658      1.7415963046     -0.0196589025
H      -0.9983847511     -0.4035518660      0.0137457958
H      -5.2841057560      4.3425413306      0.0957326810
H      -4.4127333660     -5.0489228826     -0.1078177551
H      -0.0389834170      2.2595476536     -0.1313539496
H      -1.2904543053      1.8693748188      1.1188396911
H      -1.3153261087      1.8747704869     -0.7984722835
12
Frame=22  time=11.500fs  energy=2251.77011827Ha  molecule=COOCCCHHHHHH
C       0.0898988253      0.4038277702      0.0024963657
O       1.3318519654      0.2354126677     -0.0754823807
O       2.0035186303     -0.9449880686      0.0068645792
C      -0.7740296908     -0.5443253840      0.0838874741
C      -3.0617022989     -0.6398450014      0.0077925152
C      -0.6214453331      1.6713673466      0.0320161038
H       1.8344250440     -5.0220715365      0.0260715039
H       3.6705074683     -9.7812407309      0.0916851314
H       1.8046617637      6.0417035018     -0.1155186726
H       0.9766045999      3.1588302659     -0.1395450959
H      -0.8095202990      1.7490852488      0.4054016027
H      -1.2637393455      1.8488244166     -0.6826840456
