12
Frame=0  time=0.500fs  energy=-306.20651578Ha  molecule=COOCCCHHHHHH
C       0.1336621866      0.3491518127     -0.0001835492
O       1.4128092958      0.3897240934      0.0023357052
O       2.1466314875     -0.7303929611     -0.0012164333
C      -0.6607604648     -0.8541560223     -0.0001920184
C      -0.2109264003     -2.1345003183     -0.0029874125
C      -0.5240884376      1.6921363143      0.0046742001
H      -1.7301138029     -0.6692332208      0.0100443231
H       0.8297565350     -2.3783061225      0.0045905745
H      -1.0061960971     -2.9612900048      0.0247348814
H       0.2382678670      2.4926555367     -0.0224210029
H      -1.1276966237      1.7933783567      0.8551616662
H      -1.1252610371      1.7917702345     -0.9055019593
12
Frame=1  time=1.000fs  energy=-306.19339144Ha  molecule=COOCCCHHHHHH
C       0.1318301205      0.3553664852     -0.0003495963
O       1.4146476118      0.3855678607      0.0046680108
O       2.1467986286     -0.7287363362     -0.0024362237
C      -0.6628591525     -0.8491858779     -0.0003863795
C      -0.2060074818     -2.1383749145     -0.0058964298
C      -0.5269018855      1.6920795886      0.0085947919
H      -1.7312807900     -0.6690306210      0.0199935748
H       0.8236621907     -2.4019852419      0.0088802796
H      -1.0616553813     -2.9712883700      0.0490485061
H       0.2350904395      2.5041706115     -0.0439857478
H      -1.1034482663      1.7824915509      0.8291613966
H      -1.0936931313      1.7778576156     -0.9219079917
12
Frame=2  time=1.500fs  energy=-306.20425128Ha  molecule=COOCCCHHHHHH
C       0.1302274399      0.3615288773     -0.0005220956
O       1.4163734596      0.3815017496      0.0069886137
O       2.1469048402     -0.7271678798     -0.0036632890
C      -0.6646060428     -0.8440590422     -0.0005763298
C      -0.2098670818     -2.1488421557     -0.0087494157
C      -0.5245771824      1.6934147594      0.0075656981
H      -1.7372108559     -0.6685602115      0.0298244692
H       0.8467181118     -2.4334196690      0.0129378498
H      -1.0402255851     -2.8970683308      0.0730743799
H       0.2094076755      2.4915560493     -0.0657397013
H      -1.1208092057      1.7796474824      0.8605206446
H      -1.0600801068      1.7639999042     -0.9362058735
12
Frame=3  time=2.000fs  energy=-306.19865087Ha  molecule=COOCCCHHHHHH
C       0.1288860412      0.3673099118     -0.0006535017
O       1.4179294911      0.3776664209      0.0093064495
O       2.1470183517     -0.7257385420     -0.0048976957
C      -0.6659074686     -0.8394868897     -0.0007731434
C      -0.2142375593     -2.1588156392     -0.0114387526
C      -0.5216601924      1.6945952436      0.0059515936
H      -1.7432405821     -0.6681717384      0.0394717642
H       0.8673832706     -2.4640146522      0.0163636922
H      -1.0147780592     -2.8217588989      0.0962298658
H       0.1855501888      2.4799521291     -0.0855209600
H      -1.1438455955      1.7789114088      0.8971491209
H      -1.0309565671      1.7508353963     -0.9512862981
12
Frame=4  time=2.500fs  energy=-306.18010479Ha  molecule=COOCCCHHHHHH
C       0.1277112925      0.3727775023     -0.0007555730
O       1.4193479041      0.3739901654      0.0116221648
O       2.1472686828     -0.7243607369     -0.0061364585
C      -0.6666602706     -0.8351550494     -0.0009757792
C      -0.2104013366     -2.1677123260     -0.0140156298
C      -0.5187170581      1.6956069106      0.0042497998
H      -1.7528648205     -0.6668465418      0.0489902204
H       0.8104036557     -2.4762818904      0.0193589463
H      -1.0135473701     -2.7750162023      0.1187886732
H       0.1643034685      2.4704892432     -0.1038931783
H      -1.1677518125      1.7790333012      0.9331839472
H      -1.0047343755      1.7380461103     -0.9664985631
12
Frame=5  time=3.000fs  energy=-306.19411063Ha  molecule=COOCCCHHHHHH
C       0.1271836489      0.3796865737     -0.0009144217
O       1.4204118165      0.3701426193      0.0139394674
O       2.1474440913     -0.7230525006     -0.0073738378
C      -0.6662588762     -0.8365350860     -0.0011697080
C      -0.2049319692     -2.1610222009     -0.0165703352
C      -0.5238786576      1.6909177124      0.0040651849
H      -1.7632759649     -0.6602543590      0.0584656028
H       0.8182501410     -2.5060441075      0.0222869417
H      -1.1105408465     -2.8444043079      0.1412025486
H       0.2139736655      2.5319673382     -0.1189343085
H      -1.1699353455      1.7766985749      0.9305977569
H      -0.9744976524      1.7220373520     -0.9639834606
12
Frame=6  time=3.500fs  energy=-306.08617999Ha  molecule=COOCCCHHHHHH
C       0.1281472607      0.3858383193     -0.0013089322
O       1.4207977737      0.3665818752      0.0162716547
O       2.1476161618     -0.7219605874     -0.0086067057
C      -0.6644576620     -0.8397060832     -0.0013226902
C      -0.2016382490     -2.1504718774     -0.0190567146
C      -0.5276503340      1.6864481756      0.0107769295
H      -1.7723622267     -0.6613495537      0.0678337885
H       0.8213517813     -2.5426608496      0.0250084832
H      -1.1954667784     -2.9212669561      0.1631296905
H       0.2671049112      2.5903304379     -0.1204259152
H      -1.1461498142      1.7782417948      0.8708918820
H      -0.9966126511      1.7079125618     -0.9980792538
12
Frame=7  time=4.000fs  energy=-305.94422452Ha  molecule=COOCCCHHHHHH
C       0.1296609874      0.3881781496     -0.0018848564
O       1.4211129531      0.3638972010      0.0186021664
O       2.1477583771     -0.7211410804     -0.0098380817
C      -0.6752290717     -0.8377348091     -0.0014421239
C      -0.2102134279     -2.1601747127     -0.0215744910
C      -0.5045624601      1.6999559320      0.0170565787
H      -1.6222974850     -0.7015088320      0.0771592810
H       0.7571537843     -2.5671756987      0.0278710970
H      -1.0775865414     -2.7775700889      0.1851630980
H       0.1070525999      2.4298011218     -0.1154786878
H      -1.1781801719      1.7974109507      0.8822407925
H      -1.0781579143      1.7031420467     -1.1025852180
12
Frame=8  time=4.500fs  energy=-306.11666741Ha  molecule=COOCCCHHHHHH
C       0.1305766228      0.3869321924     -0.0017785647
O       1.4207537293      0.3624150977      0.0208476931
O       2.1479120127     -0.7209759677     -0.0111144002
C      -0.6548701085     -0.8442932331     -0.0016640795
C      -0.2172382481     -2.1485458275     -0.0242484623
C      -0.5227029863      1.6876048643      0.0044949759
H      -1.8085248571     -0.6817042880      0.0861559429
H       0.8162007394     -2.6085190467      0.0308402845
H      -1.1242345555     -2.8144174346      0.2086518619
H       0.2856979063      2.6321802342     -0.1126317411
H      -1.2117787940      1.8099889371      0.8831264145
H      -0.9997492278      1.6690814537     -0.9742253666
12
Frame=9  time=5.000fs  energy=-305.78353020Ha  molecule=COOCCCHHHHHH
C       0.1326857611      0.3844953057     -0.0002217363
O       1.4199800701      0.3619564154      0.0230264744
O       2.1481483703     -0.7215209313     -0.0124596824
C      -0.6396533650     -0.8497737704     -0.0025546889
C      -0.2258439720     -2.1416360977     -0.0260516248
C      -0.5131792295      1.6983450981     -0.0096852803
H      -1.9237629265     -0.6657067216      0.0959773422
H       0.8566676366     -2.6350391043      0.0302565128
H      -1.1406508510     -2.8283275383      0.2290956566
H       0.1958092621      2.5553969909     -0.1064850229
H      -1.2783067965      1.8283703111      0.9432269892
H      -0.9610180333      1.6518700799     -0.9008585537
12
Frame=10  time=5.500fs  energy=-304.25620410Ha  molecule=COOCCCHHHHHH
C       0.1355269010      0.3837228168      0.0028978034
O       1.4198045505      0.3626235221      0.0252445139
O       2.1488541694     -0.7228627418     -0.0138129735
C      -0.6795379442     -0.8427952075     -0.0044064203
C      -0.2309769243     -2.1576652012     -0.0259719329
C      -0.5035413103      1.7107511409      0.0285432464
H      -1.4003706722     -0.7522565090      0.1064864991
H       0.7183192743     -2.6108800815      0.0219002135
H      -1.0146060732     -2.6943949767      0.2421841988
H       0.0924031482      2.4565518844     -0.0880757564
H      -1.0972951739      1.8020917432      0.6793007200
H      -1.1703883937      1.6853813338     -1.1559122048
12
Frame=11  time=6.000fs  energy=-300.70771222Ha  molecule=COOCCCHHHHHH
C       0.1374083392      0.3791245774      0.0061300888
O       1.4204709060      0.3648163567      0.0272121193
O       2.1492292893     -0.7253791365     -0.0153314845
C      -0.6017132815     -0.8643097767     -0.0067569105
C      -0.2331589772     -2.1143090558     -0.0237200723
C      -0.5245872811      1.7037389735     -0.0420611745
H      -2.2183169242     -0.6033878631      0.1148979152
H       0.9393701545     -2.6548629441      0.0037004599
H      -1.3301099755     -3.0707274427      0.2467247038
H       0.2383260359      2.6139619821     -0.0873171578
H      -1.3543240876      1.8543513978      0.9966645710
H      -0.8364288514      1.6303755798     -0.6719077445
12
Frame=12  time=6.500fs  energy=-286.75495433Ha  molecule=COOCCCHHHHHH
C       0.1417236604      0.3803647015      0.0101110993
O       1.4217372352      0.3682440133      0.0294831534
O       2.1510426845     -0.7284663928     -0.0166639454
C      -0.7149235740     -0.8373517493     -0.0095269056
C      -0.2503158381     -2.2077185168     -0.0203503767
C      -0.5126788366      1.7108228203      0.0520698209
H      -0.8889847053     -0.8258218629      0.1234000633
H       0.3626717493     -2.5300785879     -0.0192378342
H      -0.5911907426     -2.2598350384      0.2465748047
H       0.1857718156      2.5518041713     -0.0576131891
H      -0.9644891922      1.7954610747      0.4616529256
H      -1.3539705126      1.7254469496     -1.3431985567
12
Frame=13  time=7.000fs  energy=-215.68233718Ha  molecule=COOCCCHHHHHH
C       0.1418819272      0.3707379206      0.0129990423
O       1.4235207163      0.3714630927      0.0312312883
O       2.1501085104     -0.7321126224     -0.0182992756
C      -0.4905298597     -0.9034112208     -0.0119146941
C      -0.2256276829     -1.9870467391     -0.0168914012
C      -0.4843046155      1.7263700572     -0.1157538216
H      -3.3315171218     -0.3958146651      0.1290287741
H       1.6079918407     -2.7830544299     -0.0436485442
H      -2.3376220362     -4.2491383561      0.2466690744
H       0.0250188466      2.3883202923     -0.0738035047
H      -1.8103296617      1.9605942185      1.5910117732
H      -0.7253737415      1.6298797647     -0.4867974642
12
Frame=14  time=7.500fs  energy=175.55031320Ha  molecule=COOCCCHHHHHH
C       0.1505940224      0.3841763665      0.0174387765
O       1.4238848521      0.3754348282      0.0340645802
O       2.1556669610     -0.7345853532     -0.0194549859
C      -0.9762102231     -0.7674498413     -0.0145915443
C      -0.3049014171     -2.4996415693     -0.0136564750
C      -0.5783516624      1.6912713890      0.1822926914
H       2.1220210366     -1.3313759065      0.1393015099
H      -1.3869217314     -2.1592359763     -0.0646576026
H       1.7667147582      0.3497297012      0.2452538862
H       0.5699265975      2.9405030486     -0.0081628011
H      -0.1555767001      1.6632515614     -0.6873237693
H      -1.8329108974      1.8103410585     -1.8997718107
12
Frame=15  time=8.000fs  energy=2432.35478340Ha  molecule=COOCCCHHHHHH
C       0.1391256060      0.3428351469      0.0172582612
O       1.4279196122      0.3775650082      0.0354242000
O       2.1456709150     -0.7397917071     -0.0218104433
C       0.2142791931     -1.1088424670     -0.0151254874
C      -0.1498468426     -1.2825375949     -0.0102131955
C      -0.4006180300      1.7895847273     -0.4351050586
H     -11.0644455086      0.9567080109      0.1386148496
H       5.7224329518     -3.6278065995     -0.0893859908
H      -7.9011492229    -10.5606070513      0.2423932923
H      -0.6570172675      1.6960509760     -0.1023174183
H      -3.4094867316      2.2826951993      3.7336567222
H       0.4722432397      1.4607866977      1.1421157922
12
Frame=16  time=8.500fs  energy=15759.37395126Ha  molecule=COOCCCHHHHHH
C       0.1776404249      0.4354054030      0.0239952881
O       1.4226781902      0.3841520665      0.0410298283
O       2.1724447202     -0.7384533844     -0.0221112825
C      -2.6949944513     -0.2874878347     -0.0173839137
C      -0.5763582533     -4.2225901654     -0.0076042186
C      -0.7655835674      1.5701313203      0.8629751337
H      21.3784163966     -4.6512734475      0.1576583635
H     -11.2146389928     -0.1176979056     -0.1011861501
H      15.5310054060     15.8066137260      0.2348080519
H       2.1480767987      4.5199098982      0.1396831054
H       3.2981795611      1.0198002597     -5.4201954953
H      -4.6796371008      2.2638817418     -5.5827735947
