12
Frame=0  time=0.500fs  energy=-306.20648912Ha  molecule=COOCCCHHHHHH
C       0.1308500598      0.3435525805     -0.0009842534
O       1.4178990922      0.3863895054      0.0020370560
O       2.1483116991     -0.7271022682     -0.0014433875
C      -0.6536214823     -0.8593847392      0.0004351510
C      -0.2061557131     -2.1302526767      0.0007477945
C      -0.5194166658      1.6910618793      0.0073078508
H      -1.7307787881     -0.6573855225     -0.0082601157
H       0.7979119120     -2.3713515511     -0.0076136245
H      -0.9028510976     -2.9241808029     -0.0319655982
H       0.2356985002      2.4627215132     -0.0224430495
H      -1.1646298200      1.7837045440      0.8936449325
H      -1.1828178319      1.7917809388     -0.9222369037
12
Frame=1  time=1.000fs  energy=-306.19361958Ha  molecule=COOCCCHHHHHH
C       0.1253759394      0.3456517448     -0.0019220355
O       1.4238864301      0.3793627874      0.0040580094
O       2.1494663806     -0.7222819877     -0.0028817571
C      -0.6513554302     -0.8584345871      0.0008637942
C      -0.2049884423     -2.1294432078      0.0014123678
C      -0.5228711020      1.6934284272      0.0138800976
H      -1.7317494109     -0.6454342165     -0.0164847342
H       0.7572717733     -2.3866640816     -0.0149565789
H      -0.8752261693     -2.9152130538     -0.0633964315
H       0.2345531480      2.4517136188     -0.0440789604
H      -1.1744313819      1.7636058145      0.9028414531
H      -1.2057668198      1.7781202911     -0.9522160730
12
Frame=2  time=1.500fs  energy=-306.20468938Ha  molecule=COOCCCHHHHHH
C       0.1199975068      0.3477158164     -0.0028469887
O       1.4298082263      0.3724409572      0.0060591524
O       2.1504959090     -0.7175705378     -0.0043217203
C      -0.6500931748     -0.8580368108      0.0012947472
C      -0.2091117604     -2.1227298835      0.0020221448
C      -0.5316136658      1.6951958385      0.0155161968
H      -1.7177898065     -0.6364865827     -0.0247298036
H       0.8138047732     -2.4228793285     -0.0221405033
H      -0.8832487051     -2.9460749243     -0.0944579503
H       0.2473634169      2.4564982001     -0.0659449606
H      -1.1813661643      1.7434692060      0.9055658068
H      -1.1820857976      1.7562910725     -0.9163675301
12
Frame=3  time=2.000fs  energy=-306.20200772Ha  molecule=COOCCCHHHHHH
C       0.1154674511      0.3496146542     -0.0036627384
O       1.4350765016      0.3659226421      0.0080283331
O       2.1516302147     -0.7131323395     -0.0057508108
C      -0.6489407996     -0.8574243476      0.0017098877
C      -0.2131516244     -2.1161376423      0.0024412232
C      -0.5405812633      1.6966464078      0.0165652633
H      -1.7041190391     -0.6290807279     -0.0328890108
H       0.8735630030     -2.4573241675     -0.0287048861
H      -0.8957076436     -2.9788685324     -0.1243354902
H       0.2591830622      2.4626844652     -0.0858018799
H      -1.1870735488      1.7257739537      0.9073163349
H      -1.1555444395      1.7348834364     -0.8749540083
12
Frame=4  time=2.500fs  energy=-306.18658720Ha  molecule=COOCCCHHHHHH
C       0.1116359950      0.3513517292     -0.0043894496
O       1.4397942780      0.3597331577      0.0099726310
O       2.1529074568     -0.7088980735     -0.0071705820
C      -0.6477210128     -0.8564893368      0.0021121974
C      -0.2137735033     -2.1100715448      0.0027061887
C      -0.5492999392      1.6978909257      0.0175386449
H      -1.6932729621     -0.6223577908     -0.0409694218
H       0.9011057930     -2.4823033948     -0.0347644318
H      -0.9168447393     -3.0184449585     -0.1532567451
H       0.2689585968      2.4686713435     -0.1039649450
H      -1.1919259098      1.7100926782      0.9087079689
H      -1.1304508339      1.7144879697     -0.8343380880
12
Frame=5  time=3.000fs  energy=-306.19201583Ha  molecule=COOCCCHHHHHH
C       0.1110341348      0.3524512190     -0.0051481580
O       1.4427797476      0.3536165768      0.0119158845
O       2.1543682351     -0.7046207311     -0.0085864141
C      -0.6444880698     -0.8521986404      0.0025220031
C      -0.2062221570     -2.1142905012      0.0029416502
C      -0.5535060055      1.7022582020      0.0201407573
H      -1.7239999101     -0.6140060056     -0.0490246365
H       0.7992939831     -2.4754776091     -0.0407092970
H      -0.8964074864     -3.0055541347     -0.1820119330
H       0.2412115685      2.4327776983     -0.1192823651
H      -1.1988215608      1.6979813307      0.9130841873
H      -1.1254984380      1.6976197785     -0.8186693242
12
Frame=6  time=3.500fs  energy=-306.12848721Ha  molecule=COOCCCHHHHHH
C       0.1153106480      0.3548781629     -0.0061246492
O       1.4429546813      0.3473508493      0.0138680192
O       2.1558829884     -0.7004204505     -0.0099926440
C      -0.6422166049     -0.8472502003      0.0029746103
C      -0.1982850866     -2.1203031163      0.0031278253
C      -0.5547569464      1.7014567255      0.0293066408
H      -1.7559413611     -0.6131748962     -0.0570623778
H       0.7011118706     -2.4611804560     -0.0464325787
H      -0.8827049717     -2.9872441354     -0.2105823804
H       0.2266526251      2.4233278447     -0.1218540081
H      -1.1944939846      1.7024550966      0.9103970199
H      -1.1833690769      1.6952538040     -0.8849440906
12
Frame=7  time=4.000fs  energy=-305.82502330Ha  molecule=COOCCCHHHHHH
C       0.1206911835      0.3569408061     -0.0073216626
O       1.4425222442      0.3412208985      0.0158311615
O       2.1567566025     -0.6964997778     -0.0114031807
C      -0.6429688180     -0.8446764753      0.0034736978
C      -0.2283664489     -2.1252325242      0.0033738245
C      -0.5548743129      1.6992672183      0.0380221719
H      -1.7396533167     -0.6250728571     -0.0651744361
H       0.9690320913     -2.5224133301     -0.0523230587
H      -0.7873609175     -2.8663429521     -0.2395817098
H       0.1972133882      2.4182147074     -0.1177500128
H      -1.1877127009      1.7211296926      0.9081403259
H      -1.2425594530      1.6985727800     -0.9510332979
12
Frame=8  time=4.500fs  energy=-304.90691402Ha  molecule=COOCCCHHHHHH
C       0.1258346394      0.3560052260     -0.0085549683
O       1.4408890436      0.3359546518      0.0177788781
O       2.1591647716     -0.6926427036     -0.0128435903
C      -0.6474057600     -0.8396134170      0.0039933680
C      -0.1729632854     -2.1208579285      0.0037595873
C      -0.5651857615      1.6910843570      0.0313514631
H      -1.6680254808     -0.6411830832     -0.0735422545
H       0.4898680344     -2.4023948735     -0.0587846272
H      -0.9809965234     -3.0536713139     -0.2692954070
H       0.2534891428      2.5094537035     -0.1169939930
H      -1.2313075948      1.7456676480      0.9665492997
H      -1.2121188117      1.6847798513     -0.8903098932
12
Frame=9  time=5.000fs  energy=-299.40547825Ha  molecule=COOCCCHHHHHH
C       0.1296824733      0.3552236384     -0.0090043242
O       1.4385062874      0.3324266388      0.0196953152
O       2.1600526066     -0.6912242947     -0.0143226522
C      -0.6523004291     -0.8400161042      0.0047922957
C      -0.2781450595     -2.1174264445      0.0034332421
C      -0.5796957884      1.6881295313      0.0236713533
H      -1.5608932669     -0.6645960618     -0.0835380862
H       1.5254152168     -2.6359711304     -0.0634300238
H      -0.7631210856     -2.7977224350     -0.2952117145
H       0.2718765871      2.5645848074     -0.1154989034
H      -1.2256322436      1.7550499428      0.9571655306
H      -1.1342396641      1.6632247194     -0.7575637592
12
Frame=10  time=5.500fs  energy=-259.51775740Ha  molecule=COOCCCHHHHHH
C       0.1340309562      0.3518736027     -0.0079302167
O       1.4322929107      0.3319871297      0.0215815670
O       2.1685485388     -0.6905403572     -0.0157860701
C      -0.6175965392     -0.8339199658      0.0060027206
C      -0.0230497400     -2.1247553532      0.0007882518
C      -0.5551056510      1.7088767558      0.0490872800
H      -1.9651925728     -0.5907938379     -0.0939398085
H      -0.9586297386     -2.0532179523     -0.0596926443
H      -1.3507618936     -3.4005459185     -0.3097993923
H      -0.0175035268      2.2947333692     -0.1046342803
H      -1.1355197090      1.7478466290      0.8547815621
H      -1.2934202946      1.6900463312     -0.9500746061
12
Frame=11  time=6.000fs  energy=66.64743671Ha  molecule=COOCCCHHHHHH
C       0.1337065027      0.3575635648     -0.0060692858
O       1.4305441944      0.3339630428      0.0233110346
O       2.1628949216     -0.6973015554     -0.0173191797
C      -0.6615307910     -0.8481511357      0.0077345111
C      -0.7286572758     -2.1232717693     -0.0042742359
C      -0.6045321273      1.6668663401      0.0251583856
H      -1.3252958922     -0.7285978198     -0.1043814514
H       5.7787960544     -3.6159703124     -0.0466457587
H       0.3737954307     -1.5188683339     -0.3131285576
H       0.4389306814      2.7953610579     -0.0998140112
H      -1.1857795075      1.7547986783      0.9263329616
H      -1.1592986154      1.6620156282     -0.7261789460
12
Frame=12  time=6.500fs  energy=2881.01132193Ha  molecule=COOCCCHHHHHH
C       0.1417190922      0.3417961376     -0.0040683098
O       1.4160615472      0.3376777655      0.0250986776
O       2.2013237404     -0.6899706357     -0.0188185775
C      -0.5719409290     -0.7934339424      0.0096408494
C       1.3240485555     -2.0868521758     -0.0106864250
C      -0.5112120959      1.7212319831      0.0244627011
H      -2.5991277751     -0.4487369164     -0.1128694623
H     -13.4433653448      0.8695086971     -0.0271589412
H      -5.0578250363     -7.3422043587     -0.3111237167
H      -0.3083036323      2.0350379615     -0.0907488626
H      -1.3924154921      1.8021250953      1.2529518954
H      -1.3938477456      1.7117091872     -1.0413028894
12
Frame=13  time=7.000fs  energy=27544.82688441Ha  molecule=COOCCCHHHHHH
C       0.1298603253      0.3849342384     -0.0019828624
O       1.4401662651      0.3412640120      0.0269286817
O       2.1119177213     -0.7271309104     -0.0202916147
C      -0.7786549977     -0.9536722494      0.0114807026
C      -4.7343258382     -2.2510373552     -0.0170979700
C      -0.7169404447      1.6125372480      0.0451580995
H       0.5666366130     -1.1987029678     -0.1209577035
H      42.8396503554    -12.2466477135     -0.0073864601
H      11.3729101799     10.3981172041     -0.3090902047
H       1.0916360167      3.5223750615     -0.0779475605
H      -0.7776695431      1.6932806742      0.3775522944
H      -1.0014721792      1.6390897408     -0.4150757361
