12
Frame=0  time=0.500fs  energy=-306.20624243Ha  molecule=COOCCCHHHHHH
C       0.1451733114      0.3411599642      0.0015118990
O       1.4154823533      0.3960489726      0.0011689414
O       2.1431942510     -0.7330534707     -0.0015802758
C      -0.6685434145     -0.8559100613     -0.0005116943
C      -0.2128901205     -2.1370462610     -0.0002307069
C      -0.5065328516      1.6910052307     -0.0064838913
H      -1.6932843173     -0.6633872297      0.0106602027
H       0.8110031151     -2.3639727835      0.0193444750
H      -0.9684942851     -2.9420572900     -0.0179804018
H       0.2441888208      2.5054403423      0.0142133032
H      -1.1519195723      1.8087679983      0.8650549961
H      -1.1584569142      1.8001969880     -0.8166687990
12
Frame=1  time=1.000fs  energy=-306.19228132Ha  molecule=COOCCCHHHHHH
C       0.1523089403      0.3401251457      0.0030122547
O       1.4186574263      0.3990550381      0.0023249835
O       2.1395409936     -0.7334985080     -0.0031487380
C      -0.6782412496     -0.8526412473     -0.0009956138
C      -0.2096151697     -2.1419747168     -0.0004628679
C      -0.5035596157      1.6887503953     -0.0122347120
H      -1.6675548396     -0.6560046790      0.0209340637
H       0.7902463667     -2.3739595544      0.0384030247
H      -0.9921090248     -2.9388545335     -0.0357051997
H       0.2394618302      2.5233750927      0.0276258442
H      -1.1527650692      1.8122358265      0.8519492208
H      -1.1705757692      1.7965224583     -0.7628535826
12
Frame=2  time=1.500fs  energy=-306.20463020Ha  molecule=COOCCCHHHHHH
C       0.1593538797      0.3389783151      0.0045235299
O       1.4218105143      0.4020475584      0.0034815381
O       2.1357945624     -0.7340153853     -0.0047039437
C      -0.6804424161     -0.8511028872     -0.0014673632
C      -0.2142785086     -2.1468417234     -0.0006974228
C      -0.4941667403      1.6880508448     -0.0129762668
H      -1.7257224505     -0.6348691849      0.0310028498
H       0.8385160802     -2.3999545954      0.0572942510
H      -0.9922080023     -2.9111330365     -0.0532647864
H       0.2082857742      2.5131048253      0.0413065619
H      -1.1567360915      1.8166441662      0.8474569058
H      -1.2300929284      1.8018942494     -0.7778703246
12
Frame=3  time=2.000fs  energy=-306.19814458Ha  molecule=COOCCCHHHHHH
C       0.1658443227      0.3379387983      0.0060051838
O       1.4250774387      0.4049654003      0.0046072540
O       2.1321396608     -0.7345815284     -0.0062348334
C      -0.6816856169     -0.8500229604     -0.0018726986
C      -0.2194154848     -2.1510678985     -0.0009350446
C      -0.4849226719      1.6873024767     -0.0130938854
H      -1.7869835364     -0.6139321886      0.0401651828
H       0.8860207605     -2.4252972774      0.0755305423
H      -0.9911619284     -2.8845364843     -0.0702480074
H       0.1787553551      2.5034026778      0.0529380480
H      -1.1598808339      1.8198414712      0.8459230869
H      -1.2900189259      1.8076768070     -0.8005447292
12
Frame=4  time=2.500fs  energy=-306.17261675Ha  molecule=COOCCCHHHHHH
C       0.1719381559      0.3369530695      0.0074671768
O       1.4284033952      0.4078387849      0.0057133743
O       2.1286854944     -0.7351314005     -0.0077507500
C      -0.6825809834     -0.8490348794     -0.0022356379
C      -0.2158980266     -2.1544230890     -0.0011740677
C      -0.4769708760      1.6859340362     -0.0131305702
H      -1.8479596754     -0.5929592640      0.0487612882
H       0.8507773034     -2.4311516204      0.0933512283
H      -1.0148250780     -2.8862558443     -0.0868729842
H       0.1581766180      2.5024376519      0.0632401432
H      -1.1605641029      1.8217535647      0.8431427031
H      -1.3454580600      1.8127100484     -0.8211648754
12
Frame=5  time=3.000fs  energy=-306.18543237Ha  molecule=COOCCCHHHHHH
C       0.1756746647      0.3371525052      0.0089861500
O       1.4327970568      0.4107229978      0.0068118712
O       2.1253233693     -0.7357517670     -0.0092662414
C      -0.6963515617     -0.8490188784     -0.0026020522
C      -0.2122350089     -2.1544805948     -0.0014126230
C      -0.4823013139      1.6757497837     -0.0153477188
H      -1.7458593096     -0.5945776220      0.0572824534
H       0.8117594394     -2.4394472872      0.1110881087
H      -1.0443739124     -2.8998959986     -0.1034161806
H       0.2402595546      2.6154140277      0.0701597604
H      -1.1412734218      1.8173848596      0.8184794940
H      -1.3572994488      1.8112000917     -0.7909884158
12
Frame=6  time=3.500fs  energy=-306.15545264Ha  molecule=COOCCCHHHHHH
C       0.1776944428      0.3357266421      0.0107631198
O       1.4380611079      0.4139293988      0.0078914205
O       2.1219048129     -0.7364478800     -0.0107805509
C      -0.7075158565     -0.8505229538     -0.0030028250
C      -0.2105007618     -2.1530476771     -0.0016521571
C      -0.4791571636      1.6754738192     -0.0222386959
H      -1.6554796821     -0.5984101246      0.0656668175
H       0.7629467442     -2.4491239844      0.1286406707
H      -1.0559268798     -2.9041086484     -0.1197142010
H       0.2249542415      2.6280788596      0.0642699510
H      -1.1509915532      1.8063628483      0.8593191648
H      -1.3407467327      1.8085609710     -0.7601056291
12
Frame=7  time=4.000fs  energy=-306.17886007Ha  molecule=COOCCCHHHHHH
C       0.1800377956      0.3341606163      0.0127233870
O       1.4436544276      0.4168189634      0.0089738602
O       2.1180613838     -0.7369725523     -0.0122953854
C      -0.6987719374     -0.8560526838     -0.0034445845
C      -0.2244202423     -2.1501185845     -0.0018926446
C      -0.4681206213      1.6851129590     -0.0286263901
H      -1.7819662323     -0.5820388535      0.0742190067
H       0.8378731372     -2.4844300164      0.1462465502
H      -1.0259127585     -2.8692549729     -0.1359993794
H       0.1173635585      2.5333479462      0.0514343976
H      -1.1642087029      1.7858077842      0.9197665499
H      -1.3239348131      1.8051780421     -0.7498381260
12
Frame=8  time=4.500fs  energy=-306.04421138Ha  molecule=COOCCCHHHHHH
C       0.1816558952      0.3352303478      0.0144860500
O       1.4494683319      0.4188418862      0.0100745967
O       2.1142081433     -0.7371887363     -0.0137931271
C      -0.6897782982     -0.8615961960     -0.0038416590
C      -0.2395855443     -2.1455611595     -0.0021188107
C      -0.4725554229      1.6841856247     -0.0298704722
H      -1.8908573674     -0.5778522018      0.0827204387
H       0.9226499158     -2.5126933618      0.1638072191
H      -1.0107100545     -2.8549761469     -0.1524391881
H       0.1368454035      2.5649308691      0.0388139429
H      -1.1249065675      1.7539375753      0.9054020007
H      -1.2978198921      1.7966386199     -0.7249265996
12
Frame=9  time=5.000fs  energy=-305.70157706Ha  molecule=COOCCCHHHHHH
C       0.1832147813      0.3378322187      0.0152537725
O       1.4544571413      0.4207709476      0.0111830935
O       2.1114164327     -0.7375008065     -0.0152249870
C      -0.7085455880     -0.8589355731     -0.0034485266
C      -0.2124784255     -2.1461413483     -0.0026285625
C      -0.4758861940      1.6839615373     -0.0251561023
H      -1.6598336360     -0.6253395229      0.0866815139
H       0.5788506608     -2.4341007444      0.1802699484
H      -1.0785679485     -2.9369404058     -0.1668449409
H       0.1425490054      2.5733179614      0.0247327556
H      -1.0681198759      1.7244216806      0.8640788658
H      -1.2928173901      1.7898341020     -0.7343446334
12
Frame=10  time=5.500fs  energy=-304.21320364Ha  molecule=COOCCCHHHHHH
C       0.1846183373      0.3401501448      0.0148671411
O       1.4590990184      0.4233715527      0.0122977534
O       2.1073059568     -0.7390237817     -0.0166103941
C      -0.7067525095     -0.8635585777     -0.0017486351
C      -0.2824186922     -2.1407032189     -0.0034031548
C      -0.4792025497      1.6816246723     -0.0193366387
H      -1.6350719894     -0.6327350642      0.0822900646
H       1.1904111632     -2.5713237936      0.1937236834
H      -0.9491662778     -2.8155945668     -0.1787095344
H       0.1652851541      2.5936167992      0.0092107736
H      -1.0256430999      1.7061192557      0.8361326948
H      -1.2973273350      1.7845175981     -0.7595425444
12
Frame=11  time=6.000fs  energy=-294.59646199Ha  molecule=COOCCCHHHHHH
C       0.1863147960      0.3403555852      0.0134898625
O       1.4620828982      0.4265938256      0.0132895424
O       2.1069106053     -0.7401759360     -0.0179027483
C      -0.6772197270     -0.8649072755      0.0014867779
C      -0.1577431356     -2.1438665131     -0.0042983611
C      -0.4800955105      1.6772327837     -0.0163472942
H      -1.9460878891     -0.5721478977      0.0655947198
H      -0.1289905519     -2.2569928487      0.2008831052
H      -1.2309799038     -3.1362365456     -0.1864748549
H       0.2003795790      2.6177491005     -0.0097869644
H      -1.0292529454      1.7033754636      0.8681478727
H      -1.3048488657      1.7796479810     -0.7975846773
12
Frame=12  time=6.500fs  energy=-220.66653238Ha  molecule=COOCCCHHHHHH
C       0.1863630729      0.3448054331      0.0119476778
O       1.4672715077      0.4295017742      0.0141643224
O       2.0989335159     -0.7440640150     -0.0191599960
C      -0.7013122086     -0.8737276488      0.0055610256
C      -0.5101850434     -2.1336500388     -0.0050822627
C      -0.4741944474      1.6773946758     -0.0202824712
H      -1.5523707961     -0.6480159648      0.0408469560
H       3.2063316223     -3.0249348992      0.2029672180
H      -0.4400518115     -2.3048012573     -0.1920246232
H       0.1744982829      2.5722731103     -0.0306565535
H      -1.0776162678      1.7119832365      0.9629309893
H      -1.2902764297      1.7728568677     -0.8111525701
12
Frame=13  time=7.000fs  energy=402.91180110Ha  molecule=COOCCCHHHHHH
C       0.1888917395      0.3393240457      0.0104158232
O       1.4650807133      0.4320006917      0.0150287654
O       2.1124055748     -0.7404348475     -0.0204139463
C      -0.6571613617     -0.8471574960      0.0096681432
C       0.4555517753     -2.1280292527     -0.0057590636
C      -0.4779955363      1.6717937101     -0.0242098433
H      -2.1185110485     -0.5147769668      0.0154500635
H      -6.0341549145     -0.8708027078      0.2042279090
H      -2.8919845562     -4.9506760743     -0.1977913090
H       0.2165261776      2.5967735229     -0.0515051819
H      -1.0998393344      1.7122713921      1.0166287793
H      -1.2496353401      1.7577630125     -0.7837389357
12
Frame=14  time=7.500fs  energy=5825.87708477Ha  molecule=COOCCCHHHHHH
C       0.1835461708      0.3605354276      0.0094309612
O       1.4798001179      0.4329043102      0.0157284521
O       2.0651897340     -0.7571877714     -0.0215658875
C      -0.7395096526     -0.9246662459      0.0132728320
C      -2.4028612856     -2.1954867236     -0.0063756748
C      -0.4800083725      1.6762631861     -0.0096630110
H      -0.7273293558     -0.8466200436     -0.0091700976
H      20.4960450342     -7.0557190275      0.2047275838
H       4.7967109841      3.3332789973     -0.2022415567
H       0.1557264538      2.5120319482     -0.0694097486
H      -0.9991515432      1.7012810677      0.9102408792
H      -1.2528588386      1.7593249453     -0.8209138386
12
Frame=15  time=8.000fs  energy=53488.54014820Ha  molecule=COOCCCHHHHHH
C       0.1982323841      0.3029792745      0.0093456195
O       1.4434442716      0.4349981628      0.0160382566
O       2.1956699219     -0.7124750984     -0.0225655136
C      -0.4779501103     -0.6995274843      0.0159669984
C       6.0178925252     -1.9148126632     -0.0068638641
C      -0.4798470323      1.6769254893      0.0036166422
H      -4.6537309083      0.1178367506     -0.0327255230
H     -57.4540976284     11.1277544045      0.2035501233
H     -18.4824796065    -21.7889948861     -0.2041261567
H       0.1144644703      2.4502225144     -0.0881215521
H      -0.9219975265      1.6691269940      0.8146603080
H      -1.2657570945      1.7351827798     -0.8525702145
