12
Frame=0  time=0.500fs  energy=-306.20612353Ha  molecule=COOCCCHHHHHH
C       0.1413076570      0.3243000435      0.0002831460
O       1.4221742899      0.3887792457     -0.0035355686
O       2.1697759953     -0.7175896435      0.0008114503
C      -0.6691463859     -0.8487026787      0.0067691631
C      -0.2565249658     -2.1356200081     -0.0002571520
C      -0.5291433839      1.6803909433     -0.0009210647
H      -1.6935079364     -0.6548213995     -0.0206133975
H       0.7648970481     -2.3736840347     -0.0040628966
H      -1.0202993357     -2.9323109692      0.0014828442
H       0.2275413154      2.4844003454      0.0175203087
H      -1.1305008929      1.7571900437      0.8510362198
H      -1.1799500563      1.7589390445     -0.8721228903
12
Frame=1  time=1.000fs  energy=-306.19239979Ha  molecule=COOCCCHHHHHH
C       0.1376653718      0.3140284886      0.0005509902
O       1.4255446398      0.3816396126     -0.0070635738
O       2.1715035352     -0.7142483609      0.0016215050
C      -0.6709928940     -0.8414800613      0.0134611816
C      -0.2559982973     -2.1339556536     -0.0004945549
C      -0.5327910737      1.6884435209     -0.0023274220
H      -1.6632311981     -0.6694441066     -0.0407183316
H       0.7448963236     -2.3619044237     -0.0079506819
H      -1.0354076097     -2.9314259704      0.0028083266
H       0.2395020016      2.4926394259      0.0340573486
H      -1.1015611282      1.7438030434      0.8271585768
H      -1.1943390373      1.7468777764     -0.8623218264
12
Frame=2  time=1.500fs  energy=-306.20452010Ha  molecule=COOCCCHHHHHH
C       0.1342015729      0.3039217662      0.0007895733
O       1.4287382967      0.3745640022     -0.0105948539
O       2.1731262936     -0.7110470264      0.0024248984
C      -0.6656599632     -0.8360890609      0.0201080856
C      -0.2635480873     -2.1323029855     -0.0007175861
C      -0.5304196158      1.6972966316     -0.0086228823
H      -1.7161224138     -0.6698846753     -0.0605392502
H       0.7971843310     -2.3672230403     -0.0117471644
H      -1.0267553811     -2.9055087137      0.0040364602
H       0.2308410986      2.4793809212      0.0491528948
H      -1.1208885209      1.7396974391      0.8709082662
H      -1.2114168716      1.7365835353     -0.8598513951
12
Frame=3  time=2.000fs  energy=-306.19523145Ha  molecule=COOCCCHHHHHH
C       0.1311841587      0.2948625886      0.0009969107
O       1.4314956066      0.3676690442     -0.0141111257
O       2.1748399420     -0.7081136639      0.0032272089
C      -0.6602410034     -0.8315065810      0.0265821165
C      -0.2709771665     -2.1304105441     -0.0008956010
C      -0.5275532042      1.7053660244     -0.0149835665
H      -1.7727422365     -0.6683922557     -0.0791873221
H       0.8485491752     -2.3730763284     -0.0151306539
H      -1.0175685200     -2.8803227231      0.0048995113
H       0.2215543480      2.4665086930      0.0621650932
H      -1.1441958413      1.7372203834      0.9194823626
H      -1.2279693038      1.7286269832     -0.8588906579
12
Frame=4  time=2.500fs  energy=-306.18297223Ha  molecule=COOCCCHHHHHH
C       0.1284667482      0.2864126739      0.0011854243
O       1.4339267800      0.3608957870     -0.0176156884
O       2.1768112432     -0.7052827861      0.0040285406
C      -0.6548709341     -0.8270521324      0.0329421640
C      -0.2661556496     -2.1279811214     -0.0010450625
C      -0.5247670075      1.7128605057     -0.0210721683
H      -1.8319842069     -0.6651132670     -0.0970704100
H       0.7866854601     -2.3530349676     -0.0182394108
H      -1.0416383543     -2.8918208722      0.0055277893
H       0.2131419322      2.4552751374      0.0738771887
H      -1.1668914811      1.7351465455      0.9666940459
H      -1.2438326048      1.7220439007     -0.8582425801
12
Frame=5  time=3.000fs  energy=-306.17293574Ha  molecule=COOCCCHHHHHH
C       0.1273843813      0.2801876061      0.0014538586
O       1.4354640249      0.3539471491     -0.0211097691
O       2.1788262655     -0.7025313439      0.0048321538
C      -0.6623572902     -0.8248408110      0.0392532969
C      -0.2611948838     -2.1220176172     -0.0011903610
C      -0.5297680193      1.7150140547     -0.0242398582
H      -1.7377987271     -0.6834103729     -0.1147124302
H       0.7198129122     -2.3361765633     -0.0212609032
H      -1.0691077042     -2.9118886229      0.0061325817
H       0.2666187116      2.5078739452      0.0828162793
H      -1.1627000867      1.7267000183      0.9732292002
H      -1.2551416087      1.7171234473     -0.8498782056
12
Frame=6  time=3.500fs  energy=-306.14346913Ha  molecule=COOCCCHHHHHH
C       0.1300093851      0.2775057599      0.0020245920
O       1.4348634114      0.3465251410     -0.0245918934
O       2.1806269527     -0.6999651725      0.0056418636
C      -0.6714971523     -0.8270103219      0.0454863735
C      -0.2773230707     -2.1153781489     -0.0013392403
C      -0.5366279996      1.7160200644     -0.0219694565
H      -1.6337329783     -0.6981425818     -0.1321261738
H       0.8499792590     -2.3664653563     -0.0242248417
H      -1.0387564395     -2.8660750683      0.0068399508
H       0.2944085278      2.5487519904      0.0811118496
H      -1.1172426295      1.7153185288      0.9187989778
H      -1.2604515929      1.7306150662     -0.8380117768
12
Frame=7  time=4.000fs  energy=-306.19524616Ha  molecule=COOCCCHHHHHH
C       0.1334536276      0.2788754979      0.0027787800
O       1.4336188805      0.3381864790     -0.0280726024
O       2.1828749933     -0.6971447581      0.0064515067
C      -0.6644606367     -0.8314055003      0.0516977347
C      -0.2773786452     -2.1132005636     -0.0014964846
C      -0.5279224265      1.7227790491     -0.0192048212
H      -1.7429615232     -0.6702161412     -0.1495951188
H       0.8102186241     -2.3614236893     -0.0272228891
H      -1.0188378826     -2.8330837653      0.0076669999
H       0.1941222528      2.4663696427      0.0724291625
H      -1.1011085960      1.7152893328      0.9104020257
H      -1.2911268510      1.7642188818     -0.8729692793
12
Frame=8  time=4.500fs  energy=-306.05323432Ha  molecule=COOCCCHHHHHH
C       0.1361248362      0.2843548596      0.0032934281
O       1.4318409117      0.3296950343     -0.0315317752
O       2.1857339586     -0.6947171467      0.0072673454
C      -0.6585579144     -0.8346197705      0.0578870216
C      -0.2725802701     -2.1117041742     -0.0016244451
C      -0.5247380313      1.7241842405     -0.0162160362
H      -1.8479505833     -0.6391248629     -0.1665986131
H       0.7330074748     -2.3525320166     -0.0299966807
H      -1.0125071311     -2.8268067119      0.0081161417
H       0.1441455809      2.4311530494      0.0628552126
H      -1.0730898369      1.7111563244      0.8852568728
H      -1.3077541100      1.7919914633     -0.8909418183
12
Frame=9  time=5.000fs  energy=-305.74574851Ha  molecule=COOCCCHHHHHH
C       0.1370109107      0.2921059695      0.0027245874
O       1.4290231073      0.3228309275     -0.0348941372
O       2.1897403120     -0.6939563758      0.0080714113
C      -0.6751457560     -0.8347795237      0.0637050236
C      -0.2624542826     -2.0926276078     -0.0013313442
C      -0.5467752955      1.7083214509     -0.0298543082
H      -1.6748555831     -0.6566506646     -0.1788946613
H       0.7520507202     -2.3617516868     -0.0312163184
H      -1.1727667751     -3.0075064848      0.0042285650
H       0.3053856075      2.6139841587      0.0484562212
H      -1.0742877925      1.7090752120      0.8865039061
H      -1.1894929522      1.7868066499     -0.7233036852
12
Frame=10  time=5.500fs  energy=-305.48465773Ha  molecule=COOCCCHHHHHH
C       0.1382025355      0.2998949687      0.0008838812
O       1.4242278627      0.3185757492     -0.0380080451
O       2.1949941732     -0.6957159176      0.0088797926
C      -0.6679701117     -0.8371463268      0.0685436422
C      -0.2899349276     -2.1076015303     -0.0005958231
C      -0.5090766979      1.7237527349     -0.0326481323
H      -1.7858484879     -0.6298337865     -0.1802166865
H       0.8544109018     -2.3961757813     -0.0272730105
H      -0.9598176528     -2.7715031922     -0.0064134027
H       0.0496155333      2.3561054581      0.0333291217
H      -1.1815413846      1.7347921616      1.0488233708
H      -1.2595339309      1.8159807233     -0.8370765589
12
Frame=11  time=6.000fs  energy=-304.70555908Ha  molecule=COOCCCHHHHHH
C       0.1370545320      0.3077734359     -0.0017089923
O       1.4192506688      0.3160578300     -0.0408653755
O       2.2019886277     -0.6986613950      0.0096962927
C      -0.6713102287     -0.8371813675      0.0724998640
C      -0.2680692233     -2.1081650963      0.0003020879
C      -0.5528462203      1.6864229569     -0.0077854501
H      -1.7729114711     -0.6221602209     -0.1711932641
H       0.6015556654     -2.3469111467     -0.0174753885
H      -0.9872922820     -2.7959281867     -0.0223819958
H       0.4575112373      2.7866929580      0.0221148111
H      -1.0074975424      1.7050516771      0.8032225961
H      -1.2916040676      1.8274271773     -0.8739391914
12
Frame=12  time=6.500fs  energy=-302.49605761Ha  molecule=COOCCCHHHHHH
C       0.1375468654      0.3152588149     -0.0045970576
O       1.4154077401      0.3142569300     -0.0437039450
O       2.2080086501     -0.7024348330      0.0104312714
C      -0.6865166219     -0.8397753314      0.0758275125
C      -0.2791805157     -2.0773505423      0.0011026525
C      -0.4830887826      1.7327826156     -0.0277781110
H      -1.6091255643     -0.6435584368     -0.1554942303
H       0.9110211368     -2.4207655247     -0.0032736918
H      -1.1901015702     -3.0230546636     -0.0403776135
H      -0.1582232535      2.1447087659      0.0030909324
H      -1.2146935696      1.7574479289      1.1063994305
H      -1.2971841789      1.8499499547     -0.9131448820
12
Frame=13  time=7.000fs  energy=-293.69205234Ha  molecule=COOCCCHHHHHH
C       0.1360710800      0.3224558214     -0.0074021386
O       1.4115481782      0.3139885728     -0.0464898374
O       2.2150609796     -0.7067995709      0.0111880892
C      -0.6524747045     -0.8462724101      0.0790889545
C      -0.3002084828     -2.1144453843      0.0018049599
C      -0.6066089497      1.6540078682     -0.0269329817
H      -2.0646625660     -0.5559012912     -0.1390124640
H       0.7649377055     -2.3985899646      0.0117240754
H      -0.8063731241     -2.6000011261     -0.0581807652
H       0.8043630791      3.1553942309     -0.0122591941
H      -0.9512198786      1.7070776741      0.7100585310
H      -1.0216103856      1.8026953758     -0.5068008215
12
Frame=14  time=7.500fs  energy=-251.83423197Ha  molecule=COOCCCHHHHHH
C       0.1401041890      0.3313360996     -0.0096761289
O       1.4095226294      0.3132176780     -0.0494048538
O       2.2213133389     -0.7106736452      0.0120443538
C      -0.7501356821     -0.8344218000      0.0818837118
C      -0.2416827571     -2.0645753116      0.0025573667
C      -0.3669933260      1.8002963343     -0.0013513919
H      -0.9659276059     -0.7391827239     -0.1217882425
H       0.6151207473     -2.3540379195      0.0260600616
H      -1.3780002378     -3.2396619016     -0.0747816199
H      -1.0872973047      1.1793294640     -0.0235449521
H      -1.3402526085      1.8083651596      1.3195346767
H      -1.6223613426      1.9450545926     -1.4072837345
12
Frame=15  time=8.000fs  energy=-31.48175267Ha  molecule=COOCCCHHHHHH
C       0.1329281162      0.3365605097     -0.0112930977
O       1.4061298792      0.3156758945     -0.0527883288
O       2.2280347806     -0.7168364130      0.0129862265
C      -0.5513539815     -0.8731385473      0.0838782769
C      -0.3714662909     -2.1446312969      0.0034490529
C      -0.8723059835      1.4617480225     -0.0268722016
H      -3.3663620211     -0.3139403191     -0.1041393250
H       1.0756289193     -2.4795439930      0.0384844926
H      -0.3142651374     -2.0825097038     -0.0888602103
H       3.1169654158      5.5847409487     -0.0443467091
H      -0.5158874087      1.6214265803      0.0389997856
H      -0.5428305213      1.7158524431      0.2058041390
12
Frame=16  time=8.500fs  energy=1206.11556679Ha  molecule=COOCCCHHHHHH
C       0.1529974205      0.3479597085     -0.0116464262
O       1.4067154657      0.3123299736     -0.0565514045
O       2.2337830125     -0.7182535751      0.0141587848
C      -0.9950173558     -0.7990891242      0.0847157097
C      -0.0686857279     -1.9574032908      0.0044782280
C       0.2937606475      2.2390530652     -0.0109396622
H       1.7771148343     -1.2056249719     -0.0847963202
H      -0.0983379412     -2.1582659533      0.0491178119
H      -2.7662882579     -4.7887521157     -0.0998740442
H      -6.6233083676     -4.6006355349     -0.0586047105
H      -2.6231285849      2.1241069161      3.2652865932
H      -2.7689764463      2.2388171963     -3.1919590279
12
Frame=17  time=9.000fs  energy=8385.15846310Ha  molecule=COOCCCHHHHHH
C       0.1113926011      0.3443876143     -0.0109604533
O       1.3983586899      0.3231841529     -0.0607535968
O       2.2398945580     -0.7309073394      0.0155051050
C      -0.0166949261     -0.9658029618      0.0845086939
C      -0.8700537856     -2.4172378521      0.0056522259
C      -2.4919432953      0.4037877954      0.0051381146
H      -9.8121595433      0.8104027634     -0.0642719257
H       3.3940310549     -3.0682394907      0.0578205545
H       3.3127053884      1.8895533261     -0.1079338444
H      16.3548597296     19.4474456528     -0.0735179148
H       2.7646481575      0.9026139547     -4.9350877563
H       2.5012693354      1.0349173255      4.8362061485
12
Frame=18  time=9.500fs  energy=50785.07078163Ha  molecule=COOCCCHHHHHH
C       0.2161739294      0.3685291896     -0.0097441317
O       1.4072848366      0.3015468015     -0.0653659709
O       2.2498947656     -0.7143759581      0.0169106372
C      -2.3096949342     -0.5602999539      0.0836491664
C       1.3460015309     -1.3153994923      0.0069458010
C       4.2332866708      4.7789478240     -0.0316734717
H      17.0467100502     -3.8578540648     -0.0435094932
H      -7.7347838926     -0.2152008100      0.0648685551
H     -12.0756469967    -15.0209203080     -0.1138788647
H     -38.6559448668    -38.1177767699     -0.0981580981
H     -10.4695730113      3.9297438149     15.1658751051
H     -10.3679588076      3.9939232941    -14.7920852794
