12
Frame=0  time=0.500fs  energy=-306.20640383Ha  molecule=COOCCCHHHHHH
C       0.1283672531      0.3437275116      0.0007643032
O       1.4141093805      0.3900949795     -0.0030488666
O       2.1482375319     -0.7310393439      0.0017782428
C      -0.6580737696     -0.8628751145     -0.0021389654
C      -0.2247369053     -2.1361834809      0.0014019099
C      -0.5134096219      1.6883545706     -0.0028964214
H      -1.7716346320     -0.6477030062      0.0219617426
H       0.8069920193     -2.3617685527      0.0100990661
H      -0.9285645050     -2.9949564079     -0.0080175332
H       0.2655258065      2.5149622057      0.0127325310
H      -1.1839000833      1.8264860234      0.8949970061
H      -1.1452917821      1.7864508167     -0.8774144148
12
Frame=1  time=1.000fs  energy=-306.19220418Ha  molecule=COOCCCHHHHHH
C       0.1219401133      0.3473353833      0.0015729748
O       1.4175791382      0.3874319956     -0.0060866298
O       2.1496602093     -0.7296339384      0.0035493039
C      -0.6538361532     -0.8639981852     -0.0042168977
C      -0.2303502064     -2.1381763613      0.0027863857
C      -0.5096542459      1.6891584094     -0.0051763297
H      -1.7968492058     -0.6294140322      0.0434252855
H       0.7802909994     -2.3685281264      0.0199900847
H      -0.9097388270     -3.0371181486     -0.0158132243
H       0.2868528313      2.5470013285      0.0249148905
H      -1.2093052119      1.8468750030      0.9012716551
H      -1.1375502820      1.7691757921     -0.8735286559
12
Frame=2  time=1.500fs  energy=-306.20490189Ha  molecule=COOCCCHHHHHH
C       0.1159030342      0.3510379874      0.0024306378
O       1.4210036166      0.3847797540     -0.0091074679
O       2.1509667313     -0.7282581719      0.0053203730
C      -0.6571860479     -0.8637090361     -0.0062592136
C      -0.2427419317     -2.1425721044      0.0041574149
C      -0.5027154295      1.6951413727     -0.0025463660
H      -1.7353611585     -0.6267533592      0.0645882638
H       0.8054372108     -2.3870949778      0.0297600848
H      -0.8586671017     -3.0416090378     -0.0234591013
H       0.2516282103      2.5198256555      0.0374996355
H      -1.2039768100      1.8620133602      0.8668872069
H      -1.1436173275      1.7553904325     -0.8887390980
12
Frame=3  time=2.000fs  energy=-306.19939584Ha  molecule=COOCCCHHHHHH
C       0.1108280539      0.3544214226      0.0033906641
O       1.4239656949      0.3822607647     -0.0121081764
O       2.1522529821     -0.7269488181      0.0070753843
C      -0.6610394250     -0.8632543953     -0.0081559068
C      -0.2547057704     -2.1471314318      0.0054893120
C      -0.4960459766      1.7014919627      0.0004326523
H      -1.6721427938     -0.6258367506      0.0845674234
H       0.8319338417     -2.4041198156      0.0390340891
H      -0.8116742390     -3.0438712870     -0.0305819990
H       0.2138158420      2.4889244016      0.0485812107
H      -1.1952988064      1.8752432048      0.8293460013
H      -1.1491407462      1.7435514682     -0.9048456637
12
Frame=4  time=2.500fs  energy=-306.18425639Ha  molecule=COOCCCHHHHHH
C       0.1063185724      0.3574813485      0.0044116412
O       1.4266178977      0.3798287120     -0.0150966788
O       2.1536088856     -0.7256522605      0.0088198459
C      -0.6624208424     -0.8632034774     -0.0099638581
C      -0.2597914974     -2.1493834359      0.0067979933
C      -0.4896501360      1.7077988741      0.0033117927
H      -1.6399915589     -0.6202165400      0.1038130298
H       0.8137795316     -2.4092214397      0.0479977745
H      -0.8022023233     -3.0833478968     -0.0373849556
H       0.1772961629      2.4588282436      0.0586773966
H      -1.1867632499      1.8876874527      0.7928818278
H      -1.1536596142      1.7327952401     -0.9206631941
12
Frame=5  time=3.000fs  energy=-306.19262399Ha  molecule=COOCCCHHHHHH
C       0.1046470869      0.3598457708      0.0054944965
O       1.4276639793      0.3774340680     -0.0180874475
O       2.1549280130     -0.7243521110      0.0105594317
C      -0.6552864424     -0.8624613030     -0.0117666351
C      -0.2642658143     -2.1515092249      0.0081035339
C      -0.4940442724      1.7073833660      0.0039104922
H      -1.7188262327     -0.6005905581      0.1229147331
H       0.8128974965     -2.4153974240      0.0568821479
H      -0.8115827994     -3.1393559165     -0.0441008839
H       0.2283385422      2.5172240490      0.0657247778
H      -1.1715798091      1.8969479619      0.7401766613
H      -1.1277494297      1.7183334971     -0.8905283630
12
Frame=6  time=3.500fs  energy=-306.10550133Ha  molecule=COOCCCHHHHHH
C       0.1085011955      0.3634618871      0.0068650830
O       1.4259216431      0.3746666291     -0.0210854550
O       2.1561124333     -0.7228843376      0.0122902652
C      -0.6497181044     -0.8618345246     -0.0135824029
C      -0.2674544273     -2.1559874902      0.0093989602
C      -0.4968279951      1.7042796543     -0.0000649634
H      -1.7988443229     -0.5846350269      0.1417346725
H       0.8162528804     -2.4099957351      0.0655829412
H      -0.8339873144     -3.1846889553     -0.0505465377
H       0.3045381351      2.5966767562      0.0601708861
H      -1.2093885551      1.9081825690      0.7679028334
H      -1.0993301216      1.7120413358     -0.8764206999
12
Frame=7  time=4.000fs  energy=-306.01438408Ha  molecule=COOCCCHHHHHH
C       0.1148547904      0.3662583755      0.0084049045
O       1.4231668355      0.3720630610     -0.0240862572
O       2.1572377206     -0.7213595448      0.0140238617
C      -0.6572528940     -0.8597536639     -0.0154578516
C      -0.2732583300     -2.1788626578      0.0106986483
C      -0.4753495619      1.7188560564     -0.0034951737
H      -1.7326410365     -0.5931768100      0.1607682923
H       0.7163104343     -2.3692236057      0.0743318485
H      -0.7183494131     -3.0476758631     -0.0569793622
H       0.1722888828      2.4610091685      0.0475850222
H      -1.2926960896      1.9248507803      0.8743220784
H      -1.1125149030      1.7196915524     -0.9421018841
12
Frame=8  time=4.500fs  energy=-306.09899676Ha  molecule=COOCCCHHHHHH
C       0.1204192251      0.3658345297      0.0100742060
O       1.4211503235      0.3699886953     -0.0270991004
O       2.1579220949     -0.7197968619      0.0157641817
C      -0.6660751800     -0.8611434282     -0.0174578999
C      -0.2722399797     -2.1699825097      0.0120086442
C      -0.4886402308      1.7126073994     -0.0033227135
H      -1.6340779524     -0.6074056485      0.1804813296
H       0.7866281025     -2.3615562777      0.0833371512
H      -0.8672245004     -3.1976925571     -0.0635337563
H       0.3179567439      2.6218820336      0.0364921721
H      -1.2900886195      1.9235233460      0.8514292750
H      -1.0745874534      1.7151000661     -0.9238056651
12
Frame=9  time=5.000fs  energy=-306.17054327Ha  molecule=COOCCCHHHHHH
C       0.1264724323      0.3630361984      0.0128194812
O       1.4200066485      0.3690372137     -0.0302315133
O       2.1587473611     -0.7186948289      0.0175056860
C      -0.6596266578     -0.8652462865     -0.0190412267
C      -0.2739216390     -2.1731025459      0.0128859016
C      -0.4908516682      1.7273022390      0.0045648799
H      -1.7440385271     -0.5901974686      0.1951132231
H       0.7848464103     -2.3472911414      0.0906705130
H      -0.8982891914     -3.2055471158     -0.0656783525
H       0.2399532476      2.5518471004      0.0294314491
H      -1.2038133848      1.9089569805      0.7195954857
H      -1.0375819147      1.7180003336     -0.9009455127
12
Frame=10  time=5.500fs  energy=-306.13241022Ha  molecule=COOCCCHHHHHH
C       0.1321367297      0.3604443892      0.0169764309
O       1.4197585837      0.3698000667     -0.0336015563
O       2.1602088952     -0.7187761112      0.0192501088
C      -0.6637085519     -0.8672366107     -0.0195666790
C      -0.2783373086     -2.1844809397      0.0132860534
C      -0.4837821274      1.7377358460      0.0110894808
H      -1.7604206939     -0.5963341197      0.1979888744
H       0.7550916346     -2.3358753502      0.0925238022
H      -0.8532798969     -3.1175503939     -0.0606977560
H       0.1835609623      2.4967407359      0.0253812457
H      -1.1821969598      1.9039945968      0.6879297199
H      -1.0714208386      1.7398355720     -0.9749279928
12
Frame=11  time=6.000fs  energy=-306.02271962Ha  molecule=COOCCCHHHHHH
C       0.1369651950      0.3580472084      0.0219864315
O       1.4194654495      0.3720992143     -0.0372508193
O       2.1624996124     -0.7201617951      0.0209851506
C      -0.6687382737     -0.8690227708     -0.0189767009
C      -0.2819951054     -2.1948883556      0.0134601970
C      -0.4735066902      1.7382378562     -0.0113559113
H      -1.7718834256     -0.6064274206      0.1887870741
H       0.7267335083     -2.3290015563      0.0879207471
H      -0.8145582130     -3.0305637701     -0.0498884575
H       0.2144840165      2.5243092505      0.0183966735
H      -1.3493060584      1.9310112521      0.9190881712
H      -1.0423032870      1.7548708190     -0.9670606910
12
Frame=12  time=6.500fs  energy=-306.02061236Ha  molecule=COOCCCHHHHHH
C       0.1405950361      0.3556504578      0.0271508869
O       1.4191593163      0.3743357853     -0.0409382244
O       2.1650178416     -0.7217466907      0.0227929199
C      -0.6845897044     -0.8699031241     -0.0178911281
C      -0.2804063508     -2.1852658441      0.0137708887
C      -0.4941073657      1.7338211174     -0.0016571263
H      -1.6376389791     -0.6397042416      0.1740586515
H       0.8045717284     -2.3456115808      0.0794449095
H      -0.9499419271     -3.1352499747     -0.0376404498
H       0.3438678128      2.6512988414      0.0168905742
H      -1.2365853325      1.9092996475      0.7594093684
H      -1.0240287892      1.7708391034     -0.9588386395
12
Frame=13  time=7.000fs  energy=-305.98656533Ha  molecule=COOCCCHHHHHH
C       0.1447313729      0.3525787401      0.0323134747
O       1.4177567175      0.3757513588     -0.0446487470
O       2.1676833498     -0.7229589005      0.0246137928
C      -0.6793039425     -0.8724050814     -0.0169132579
C      -0.2836802638     -2.1917426959      0.0141023302
C      -0.4754486033      1.7540732376      0.0081327806
H      -1.7449348629     -0.6326038366      0.1599844428
H       0.7922210710     -2.3467531274      0.0712114894
H      -0.9345991320     -3.0680809699     -0.0256079669
H       0.1571913926      2.4467441904      0.0153477253
H      -1.2017172050      1.9060141521      0.7180261288
H      -1.0835719895      1.8045900625     -1.0694249809
12
Frame=14  time=7.500fs  energy=-305.93334827Ha  molecule=COOCCCHHHHHH
C       0.1478053189      0.3498186495      0.0369472745
O       1.4157092855      0.3764031564     -0.0483289468
O       2.1705058595     -0.7238001007      0.0263487356
C      -0.6765501366     -0.8739119044     -0.0156841764
C      -0.2856384124     -2.1935219747      0.0144253544
C      -0.4935281851      1.7502182944     -0.0233986735
H      -1.8083743078     -0.6316672141      0.1461282085
H       0.8035633366     -2.3550664305      0.0638525404
H      -0.9599417007     -3.0435947175     -0.0149228712
H       0.2700373535      2.5544713408      0.0065833449
H      -1.2818653196      1.9183063052      0.8176541325
H      -0.8818013115      1.7884533031     -0.8168542283
12
Frame=15  time=8.000fs  energy=-305.68476651Ha  molecule=COOCCCHHHHHH
C       0.1508064542      0.3474208915      0.0410567051
O       1.4129764326      0.3764624845     -0.0515944958
O       2.1734262724     -0.7243769272      0.0280510738
C      -0.6760953748     -0.8743245782     -0.0139363653
C      -0.2869822558     -2.1933952389      0.0146385051
C      -0.4982899397      1.7403908487      0.0084413697
H      -1.8358153210     -0.6369768487      0.1333178124
H       0.8273393314     -2.3667737759      0.0589062690
H      -1.0055262943     -3.0401415567     -0.0070116458
H       0.4172251125      2.6957585527      0.0089899758
H      -1.1693944540      1.8965143209      0.6691657200
H      -1.0636126057      1.8398236988     -1.0878695101
12
Frame=16  time=8.500fs  energy=-304.59796733Ha  molecule=COOCCCHHHHHH
C       0.1550765797      0.3449770752      0.0437956558
O       1.4101249756      0.3762884340     -0.0545148474
O       2.1761642126     -0.7246974634      0.0295038035
C      -0.6891972828     -0.8710969035     -0.0110380097
C      -0.2893055867     -2.2026228923      0.0147204124
C      -0.4498317773      1.7727838897     -0.0193289363
H      -1.7099449123     -0.6698844502      0.1190236961
H       0.7977977917     -2.3670702044      0.0559335169
H      -0.9800670686     -2.9557716629     -0.0024186853
H       0.0527109922      2.3023625330      0.0014554414
H      -1.3922030846      1.9379909677      0.9874574491
H      -1.0407935535      1.8630393554     -1.0998879992
12
Frame=17  time=9.000fs  energy=-300.24350831Ha  molecule=COOCCCHHHHHH
C       0.1568775955      0.3429926430      0.0455226608
O       1.4078935817      0.3765529496     -0.0569273412
O       2.1786428447     -0.7248540634      0.0308080229
C      -0.7059366843     -0.8696844816     -0.0071150063
C      -0.2886885614     -2.1959039759      0.0146373156
C      -0.5477191927      1.7284177447     -0.0219484434
H      -1.5348406224     -0.7056190425      0.1042291502
H       0.8519694187     -2.3849143359      0.0554790056
H      -1.0806263203     -3.0149733779     -0.0012618868
H       0.6980636327      2.9673736869     -0.0013541921
H      -1.1202186693      1.8764088671      0.5858903970
H      -0.7536488279      1.8261129222     -0.6989498534
12
Frame=18  time=9.500fs  energy=-280.72948111Ha  molecule=COOCCCHHHHHH
C       0.1627156596      0.3393798559      0.0464253631
O       1.4049468427      0.3768027581     -0.0588782394
O       2.1802268333     -0.7247444404      0.0319851312
C      -0.6553525865     -0.8832172022     -0.0022933066
C      -0.2927480369     -2.2056056892      0.0144118212
C      -0.3663830664      1.8321614558      0.0038245123
H      -2.1449334613     -0.6069506327      0.0886733263
H       0.7488389489     -2.3722386100      0.0569248758
H      -0.9815614541     -2.8581814492     -0.0027956987
H      -0.6198169301      1.5754798667      0.0014473219
H      -1.4130817430      1.9411640632      1.0542694652
H      -1.2919606258      1.9630821419     -1.5148518570
12
Frame=19  time=10.000fs  energy=-180.03205528Ha  molecule=COOCCCHHHHHH
C       0.1581322124      0.3419730961      0.0465971422
O       1.4042985257      0.3783424037     -0.0607649697
O       2.1820271251     -0.7245266058      0.0330069514
C      -0.7389309006     -0.8766990806      0.0030740550
C      -0.2787118699     -2.1729373060      0.0141465549
C      -0.7328289336      1.5894667023     -0.0369827130
H      -1.1707256189     -0.7623392234      0.0718837855
H       0.8440402376     -2.3998499615      0.0588248922
H      -1.2942000656     -3.1627749582     -0.0055493137
H       2.4314274724      4.7494271282     -0.0071031691
H      -0.8805907060      1.7970986032      0.2191483392
H      -0.4007331704      1.7870777378     -0.2163793569
12
Frame=20  time=10.500fs  energy=381.72920811Ha  molecule=COOCCCHHHHHH
C       0.1770543453      0.3320459432      0.0470940466
O       1.4003881417      0.3781434009     -0.0624938420
O       2.1809736414     -0.7232085126      0.0341185491
C      -0.6073999689     -0.9023225225      0.0083214591
C      -0.3006014541     -2.2354430110      0.0138536671
C       0.1081612064      2.1573383443      0.0005502985
H      -2.7580049382     -0.5095821381      0.0559712228
H       0.4490450029     -2.3260878121      0.0611713511
H      -0.6837588122     -2.4363272542     -0.0083724355
H      -4.6429878203     -2.6585145189     -0.0019316831
H      -2.2180898560      2.1204406616      2.3111152389
H      -2.0917672736      2.2024471165     -2.7995495359
12
Frame=21  time=11.000fs  energy=3613.02111666Ha  molecule=COOCCCHHHHHH
C       0.1406476725      0.3465921245      0.0471559144
O       1.4042015676      0.3836297695     -0.0643626189
O       2.1841071571     -0.7238554802      0.0351437914
C      -0.8548898418     -0.8774842986      0.0136937236
C      -0.2684212903     -2.0665165013      0.0135883316
C      -1.8932591718      0.8218337882     -0.0344090762
H       0.2001653103     -0.9617546551      0.0392410881
H       1.4740905610     -2.5501293025      0.0631055840
H      -2.1675821275     -4.0587942903     -0.0111848227
H      12.0504141648     14.7676374545     -0.0040370163
H       1.4054867656      1.2487075216     -3.2415768128
H       1.8308356804      1.3019658375      3.1412415006
12
Frame=22  time=11.500fs  energy=22440.25492397Ha  molecule=COOCCCHHHHHH
C       0.2323023647      0.3059275294      0.0471343281
O       1.3924655278      0.3764512937     -0.0661405544
O       2.1760007812     -0.7192275104      0.0362161020
C      -0.3160606361     -0.9467607577      0.0190495507
C      -0.3812670002     -2.4769182288      0.0133106431
C       2.9507187364      3.9948019772     -0.0265639413
H      -6.3171777488      0.0354927873      0.0229105566
H      -0.8765877676     -2.0644967213      0.0652943348
H       1.5561078092      0.1604835236     -0.0141515877
H     -27.7528254044    -26.8667358462      0.0119549023
H      -7.8572857095      3.4165760226     10.8838573299
H      -7.5349385716      3.4970941742    -11.1256171084
