12
Frame=0  time=0.500fs  energy=-306.20681173Ha  molecule=COOCCCHHHHHH
C       0.0461357310      0.4126894980     -0.0031994502
O       1.3198728242      0.2408268189     -0.0025384238
O       2.1395366893      1.2993053564      0.0016832437
C      -0.6943240799     -0.8355302258      0.0019969859
C      -2.0378468289     -0.8885960865     -0.0008817043
C      -0.5346668315      1.7661597933     -0.0030483035
H      -0.0958646661     -1.7035381638      0.0152070332
H      -2.6449858249      0.0081858331      0.0258087925
H      -2.5761065851     -1.8837121482     -0.0068045534
H       0.2824329893      2.5480087575      0.0149748796
H      -1.2041296682      1.9285456435      0.8933200365
H      -1.1759073563      1.8973019450     -0.8677701392
12
Frame=1  time=1.000fs  energy=-306.19204250Ha  molecule=COOCCCHHHHHH
C       0.0413140298      0.4156056636     -0.0063348498
O       1.3237423929      0.2397052267     -0.0050740467
O       2.1382190704      1.2983818783      0.0033641220
C      -0.6913426967     -0.8387219156      0.0039901745
C      -2.0422110675     -0.8876566167     -0.0017303150
C      -0.5270229008      1.7651520985     -0.0055758842
H      -0.1099927850     -1.6901399766      0.0300860727
H      -2.6566909071      0.0028536879      0.0512353605
H      -2.5783204557     -1.9254343565     -0.0135240615
H       0.2863256064      2.6017968126      0.0294599888
H      -1.2328232896      1.9514162011      0.8966298193
H      -1.1807184356      1.8908570823     -0.8517407802
12
Frame=2  time=1.500fs  energy=-306.20584024Ha  molecule=COOCCCHHHHHH
C       0.0365113844      0.4184692178     -0.0094250654
O       1.3276028162      0.2386487116     -0.0075747160
O       2.1369891523      1.2974381562      0.0050357275
C      -0.6912254151     -0.8371853342      0.0059801531
C      -2.0501403643     -0.8950534906     -0.0025692753
C      -0.5160561431      1.7692242080     -0.0028251122
H      -0.0882456883     -1.7325069645      0.0448463127
H      -2.6753286029      0.0060518670      0.0765809961
H      -2.5322672440     -1.8766886169     -0.0202558705
H       0.2295920603      2.5985006944      0.0446896345
H      -1.2282571693      1.9670887847      0.8548969412
H      -1.1998305054      1.8878388505     -0.8551229446
12
Frame=3  time=2.000fs  energy=-306.19974390Ha  molecule=COOCCCHHHHHH
C       0.0323726964      0.4211117424     -0.0123703504
O       1.3311296359      0.2376618662     -0.0100792153
O       2.1357859634      1.2964932837      0.0067060672
C      -0.6916355287     -0.8354486944      0.0079649597
C      -2.0576682485     -0.9024904599     -0.0033308192
C      -0.5055828615      1.7737816768      0.0002036951
H      -0.0661204816     -1.7754102540      0.0588460827
H      -2.6933028924      0.0077736407      0.1010441024
H      -2.4864656642     -1.8266065424     -0.0267881809
H       0.1721554898      2.5916218443      0.0585517486
H      -1.2207740599      1.9804568097      0.8112911324
H      -1.2176056806      1.8852406455     -0.8596413788
12
Frame=4  time=2.500fs  energy=-306.15478980Ha  molecule=COOCCCHHHHHH
C       0.0286631570      0.4237255684     -0.0152574297
O       1.3345384740      0.2367400839     -0.0125849142
O       2.1345697488      1.2955253913      0.0083753364
C      -0.6935725432     -0.8334921253      0.0099470717
C      -2.0638183900     -0.9006913855     -0.0040618410
C      -0.4954915850      1.7783697106      0.0031844974
H      -0.0406346762     -1.8212523243      0.0725393107
H      -2.6792266611     -0.0383733812      0.1251473145
H      -2.4761796172     -1.8386282632     -0.0332386634
H       0.1165813702      2.5849683493      0.0718120609
H      -1.2129398790      1.9930822053      0.7680044507
H      -1.2341948422      1.8827004889     -0.8637096542
12
Frame=5  time=3.000fs  energy=-306.17040855Ha  molecule=COOCCCHHHHHH
C       0.0289757609      0.4253861360     -0.0180094365
O       1.3362862235      0.2362402582     -0.0151475172
O       2.1330830956      1.2944631275      0.0100775097
C      -0.6893987580     -0.8482814914      0.0119107053
C      -2.0589647127     -0.8968154715     -0.0047924754
C      -0.4992887892      1.7757480936      0.0017431297
H      -0.1336672080     -1.6728342983      0.0861833816
H      -2.7144026975     -0.0215884493      0.1492282059
H      -2.5155584284     -1.9353371255     -0.0396124284
H       0.1755551544      2.6829955915      0.0779295870
H      -1.2054000075      2.0018707369      0.7197015597
H      -1.2033163645      1.8736867371     -0.8039409449
12
Frame=6  time=3.500fs  energy=-305.94679336Ha  molecule=COOCCCHHHHHH
C       0.0344716894      0.4240424146     -0.0204402312
O       1.3347750722      0.2366189222     -0.0177666491
O       2.1316389658      1.2932791047      0.0118355721
C      -0.6979071020     -0.8458978421      0.0138354685
C      -2.0500429869     -0.8964611770     -0.0055294399
C      -0.4999809840      1.7744426454      0.0012847249
H      -0.1075009710     -1.7115116997      0.0997645859
H      -2.7671112054      0.0226522330      0.1734420039
H      -2.5554133577     -2.0251351955     -0.0459268200
H       0.2468513711      2.7795539249      0.0709041841
H      -1.2309300494      2.0032404885      0.7337008616
H      -1.1979454078      1.8717190060     -0.8084531805
12
Frame=7  time=4.000fs  energy=-305.06865519Ha  molecule=COOCCCHHHHHH
C       0.0420422618      0.4231214868     -0.0227474515
O       1.3321550890      0.2375126074     -0.0204070174
O       2.1304983469      1.2918028342      0.0136159869
C      -0.7044141016     -0.8389524468      0.0157427399
C      -2.0768120491     -0.9024432997     -0.0062764514
C      -0.4637300179      1.7997578092      0.0012484485
H      -0.0614200122     -1.7986125509      0.1133857496
H      -2.6212137125     -0.2239017405      0.1977831721
H      -2.4125598646     -1.7629102624     -0.0522316891
H      -0.0121922555      2.5486648164      0.0584544870
H      -1.3187831577      2.0066447588      0.8611977290
H      -1.2518526483      1.8777112862     -0.9274078947
12
Frame=8  time=4.500fs  energy=-302.98287172Ha  molecule=COOCCCHHHHHH
C       0.0494341177      0.4220167726     -0.0246559567
O       1.3297402856      0.2375651470     -0.0231219569
O       2.1284625558      1.2906758211      0.0154136387
C      -0.7142205818     -0.8416218935      0.0176638864
C      -2.0276202567     -0.9139182091     -0.0070378390
C      -0.5150088695      1.7770321470      0.0008186557
H      -0.0873452931     -1.7784062533      0.1262223495
H      -2.9483365733      0.2309666741      0.2216185355
H      -2.5940797601     -2.1255239139     -0.0579758058
H       0.4468502699      2.9871824185      0.0468341539
H      -1.2351006474      1.9632927457      0.7368864244
H      -1.1357217093      1.8396612138     -0.7938000987
12
Frame=9  time=5.000fs  energy=-295.23968293Ha  molecule=COOCCCHHHHHH
C       0.0579437336      0.4235090405     -0.0254855570
O       1.3282942107      0.2384270558     -0.0260384993
O       2.1275848933      1.2887700045      0.0172722621
C      -0.7065776451     -0.8446278211      0.0202237056
C      -2.1071030257     -0.9141497012     -0.0076432122
C      -0.4265052162      1.8428866380     -0.0007258649
H      -0.1271691637     -1.7413845660      0.1308567927
H      -2.4700257354     -0.5052010421      0.2398205674
H      -2.2430004745     -1.4578543003     -0.0609926071
H      -0.3530287426      2.2297215869      0.0374150759
H      -1.3756500640      1.9776084962      0.9569390258
H      -1.2479512616      1.8669011264     -1.0024599731
12
Frame=10  time=5.500fs  energy=-257.74556835Ha  molecule=COOCCCHHHHHH
C       0.0642311613      0.4202442927     -0.0251592771
O       1.3285611976      0.2360593808     -0.0291668605
O       2.1242973731      1.2885962232      0.0192033980
C      -0.7232652517     -0.8537019962      0.0236004832
C      -1.9584326820     -0.9148203813     -0.0073964806
C      -0.6150416834      1.7431888190     -0.0034852607
H      -0.2140531905     -1.6064116968      0.1235446833
H      -3.3430319033      0.7729002654      0.2473659120
H      -2.9267414572     -2.7687832426     -0.0629452184
H       1.2180576576      3.6966254257      0.0303127534
H      -1.0278294392      1.8742068925      0.4506600912
H      -0.8762897225      1.7846590223     -0.4825410079
12
Frame=11  time=6.000fs  energy=-50.79220115Ha  molecule=COOCCCHHHHHH
C       0.0733038919      0.4265140443     -0.0242187017
O       1.3288226403      0.2365242760     -0.0323699758
O       2.1272475122      1.2868122293      0.0211719799
C      -0.7151346968     -0.8105282443      0.0275426053
C      -2.2687222489     -0.9016894771     -0.0059761770
C      -0.2043663835      1.9932573548     -0.0025015609
H       0.0687757322     -2.0623218690      0.1066468598
H      -1.4148067671     -2.0977933959      0.2444793987
H      -1.5920216320     -0.1837571153     -0.0663737632
H      -2.2828877918      0.3648830543      0.0251915781
H      -1.7672204017      2.0415421617      1.5823205015
H      -1.6339404190      1.9860085037     -1.6531027737
12
Frame=12  time=6.500fs  energy=1164.44367260Ha  molecule=COOCCCHHHHHH
C       0.0749370656      0.4113458656     -0.0233520774
O       1.3296814629      0.2254572454     -0.0355500391
O       2.1175319949      1.2919915258      0.0231416446
C      -0.7619583311     -0.8803352510      0.0314781055
C      -1.5510492277     -0.9653079889     -0.0035771280
C      -1.1843852187      1.4098454042     -0.0014616454
H      -0.4728350404     -1.1728743584      0.0871425047
H      -5.9149030701      4.5617785558      0.2360846914
H      -4.6311871332     -6.0330085222     -0.0731352523
H       6.1877070381      8.3235627763      0.0198646899
H      -0.0504266218      1.6037262295     -0.9744436084
H       0.0648458999      1.5816928007      0.8646574134
12
Frame=13  time=7.000fs  energy=8500.45844365Ha  molecule=COOCCCHHHHHH
C       0.0929625622      0.4482971387     -0.0224891017
O       1.3280112421      0.2409781873     -0.0387251838
O       2.1402217485      1.2818468868      0.0251092553
C      -0.6601578545     -0.7083178805      0.0353827054
C      -3.2566382391     -0.8520483297     -0.0010502252
C       1.2064432718      2.8588875061     -0.0004204295
H       0.7291821755     -3.1332963786      0.0675382985
H       4.7164670735    -11.2100511699      0.2270929800
H       2.6480586860      8.0114299577     -0.0804053546
H     -14.5148538095    -11.2432863869      0.0145297408
H      -4.2100314261      2.6181018038      5.3007300209
H      -4.1127330146      2.6295036164     -5.4494794303
12
Frame=14  time=7.500fs  energy=53340.47757870Ha  molecule=COOCCCHHHHHH
C       0.0715147180      0.3627406878     -0.0215818382
O       1.3299406319      0.1923222569     -0.0418963571
O       2.0834026723      1.3091023675      0.0270744049
C      -0.9223547395     -1.1192113738      0.0391561690
C       0.8719989275     -1.1415808541      0.0015997694
C      -4.7683509071     -0.7133768479      0.0005741169
H      -2.2931889608      1.8167867165      0.0479586129
H     -20.9447425833     26.8208368588      0.2181125153
H     -14.9428440676    -25.8993800107     -0.0876663636
H      36.8515126571     37.1787979849      0.0092014646
H       6.3784016664     -0.0076021779    -10.5757085800
H       6.4577484493      0.0371930559     10.3880446907
