12
Frame=0  time=0.500fs  energy=-306.20673071Ha  molecule=COOCCCHHHHHH
C       0.0598841924      0.4062051123      0.0009846370
O       1.3190631741      0.2435591033     -0.0035076933
O       2.1606456748      1.2870100139      0.0002499093
C      -0.7011051554     -0.8186835107      0.0067739196
C      -2.0243278555     -0.8761685128     -0.0027527790
C      -0.5911346189      1.7638321277     -0.0007778846
H      -0.0559249342     -1.7316812868     -0.0121981872
H      -2.6462382415      0.0265452634      0.0081477119
H      -2.5730375030     -1.8630120100      0.0107145396
H       0.1980830203      2.5391355997      0.0151744032
H      -1.1793034895      1.8717561772      0.8577507887
H      -1.2300879094      1.8711195059     -0.8782584152
12
Frame=1  time=1.000fs  energy=-306.19267477Ha  molecule=COOCCCHHHHHH
C       0.0660986173      0.3961207818      0.0019533097
O       1.3215315522      0.2405875455     -0.0070045606
O       2.1623933072      1.2869744661      0.0004965813
C      -0.7095678009     -0.8111269049      0.0134823209
C      -2.0221325338     -0.8728513114     -0.0054489322
C      -0.6001103257      1.7669550117     -0.0019615772
H      -0.0250206674     -1.7289393355     -0.0241134873
H      -2.6488961102      0.0370850463      0.0161893863
H      -2.5969503778     -1.8876896487      0.0211782733
H       0.2038871362      2.5474426971      0.0295380358
H      -1.1411601610      1.8744555860      0.8387613943
H      -1.2377011480      1.8726194068     -0.8738817418
12
Frame=2  time=1.500fs  energy=-306.20535874Ha  molecule=COOCCCHHHHHH
C       0.0724500992      0.3863947788      0.0028967587
O       1.3239483411      0.2376251111     -0.0105285579
O       2.1641408281      1.2869277863      0.0007495876
C      -0.7137465179     -0.8084815089      0.0201626510
C      -2.0259315748     -0.8756210839     -0.0081178826
C      -0.6025274956      1.7711016281     -0.0084205473
H      -0.0316094692     -1.6699563936     -0.0359290629
H      -2.6417561998      0.0313642341      0.0241041984
H      -2.5736123497     -1.8241404392      0.0315866126
H       0.1833915289      2.5303465542      0.0426145905
H      -1.1530625721      1.8881387462      0.8901968942
H      -1.2471089694      1.8749528534     -0.8750571094
12
Frame=3  time=2.000fs  energy=-306.20265281Ha  molecule=COOCCCHHHHHH
C       0.0782975756      0.3774388857      0.0038123091
O       1.3264936271      0.2345891520     -0.0140294513
O       2.1658395774      1.2868948645      0.0009955522
C      -0.7172706242     -0.8061224497      0.0267144039
C      -2.0302361771     -0.8783785143     -0.0106727508
C      -0.6043434628      1.7748951050     -0.0148954190
H      -0.0403536136     -1.6119212748     -0.0471656673
H      -2.6340690405      0.0248233605      0.0318228506
H      -2.5493015330     -1.7598926310      0.0414735524
H       0.1630422658      2.5132628166      0.0541260365
H      -1.1683065379      1.9017298101      0.9446384334
H      -1.2568861240      1.8776802017     -0.8770951055
12
Frame=4  time=2.500fs  energy=-306.16491642Ha  molecule=COOCCCHHHHHH
C       0.0835946465      0.3687749424      0.0047152491
O       1.3291033060      0.2314640718     -0.0175166039
O       2.1675475683      1.2868913354      0.0012380184
C      -0.7197355623     -0.8030691094      0.0332007824
C      -2.0355168664     -0.8769627604     -0.0131713500
C      -0.6060461011      1.7784941749     -0.0212048607
H      -0.0466562957     -1.5617201888     -0.0581161490
H      -2.6110419379     -0.0007972618      0.0394472516
H      -2.5406103891     -1.7273868154      0.0510995640
H       0.1433914516      2.4971433183      0.0648725176
H      -1.1834265791      1.9147560941      0.9979987512
H      -1.2665978405      1.8804469879     -0.8790929879
12
Frame=5  time=3.000fs  energy=-306.19023751Ha  molecule=COOCCCHHHHHH
C       0.0847758884      0.3606647016      0.0058011812
O       1.3333710285      0.2277590422     -0.0210003333
O       2.1693152071      1.2870827708      0.0015028595
C      -0.7285885908     -0.7868244032      0.0396671364
C      -2.0314162905     -0.8713149659     -0.0156788887
C      -0.6159747397      1.7760213554     -0.0221242121
H       0.0391905099     -1.6635454497     -0.0691050475
H      -2.6370775798      0.0558660239      0.0472186997
H      -2.5977578639     -1.8275412500      0.0607247144
H       0.1985609463      2.5560537051      0.0698802642
H      -1.1623099425      1.9151560493      0.9971799965
H      -1.2804773750      1.8874565946     -0.8877561708
12
Frame=6  time=3.500fs  energy=-306.04606995Ha  molecule=COOCCCHHHHHH
C       0.0826503077      0.3606647459      0.0072096143
O       1.3400114816      0.2222591341     -0.0245379033
O       2.1708090420      1.2875419427      0.0018251237
C      -0.7292343517     -0.7818198383      0.0460730936
C      -2.0302658530     -0.8638866358     -0.0181737904
C      -0.6266133835      1.7715851309     -0.0220061328
H       0.0480604046     -1.6698970847     -0.0800811981
H      -2.6515271909      0.0899090928      0.0550911731
H      -2.6547315097     -1.9254001857      0.0703314236
H       0.2484486540      2.6061910025      0.0613456730
H      -1.1338526219      1.9068050407      0.9662272564
H      -1.2792948590      1.9005573302     -0.8685315687
12
Frame=7  time=4.000fs  energy=-305.90791766Ha  molecule=COOCCCHHHHHH
C       0.0820375120      0.3685443893      0.0087406136
O       1.3465245419      0.2154923476     -0.0280951369
O       2.1721964715      1.2881267576      0.0021693909
C      -0.7163173497     -0.7920928711      0.0524631961
C      -2.0574075894     -0.8743786554     -0.0206726982
C      -0.6119606304      1.7799007185     -0.0215300487
H      -0.0552097966     -1.5306753771     -0.0910987756
H      -2.5726401670     -0.0243553214      0.0630129301
H      -2.5269270237     -1.6685455976      0.0799735974
H       0.0895185762      2.4478857713      0.0478728423
H      -1.1555325461      1.9078929236      0.9968172267
H      -1.3253085204      1.9285447833     -0.9114818942
12
Frame=8  time=4.500fs  energy=-306.12516177Ha  molecule=COOCCCHHHHHH
C       0.0811212084      0.3763220963      0.0098617885
O       1.3524902181      0.2084013277     -0.0315710458
O       2.1733401231      1.2889500804      0.0024944621
C      -0.7226941282     -0.7825144649      0.0588346000
C      -2.0428556482     -0.8750212304     -0.0231651322
C      -0.6326922147      1.7673768068     -0.0206605634
H      -0.0101160580     -1.6339117430     -0.1012764533
H      -2.6912680139      0.1558119993      0.0714993779
H      -2.6109749673     -1.8173395616      0.0890456426
H       0.2367587144      2.5769466500      0.0336812324
H      -1.1150674584      1.8920704751      0.9342730457
H      -1.3077316647      1.9367311244     -0.8620585374
12
Frame=9  time=5.000fs  energy=-305.96564656Ha  molecule=COOCCCHHHHHH
C       0.0803922274      0.3838969150      0.0098808596
O       1.3576552851      0.2021880968     -0.0348314779
O       2.1746075714      1.2893797256      0.0027589625
C      -0.7288426068     -0.7708826424      0.0643830858
C      -2.0472194078     -0.8625009345     -0.0249371094
C      -0.6321126711      1.7679050590     -0.0186511019
H       0.0560471372     -1.7814483823     -0.1040407142
H      -2.6543183127      0.0981193487      0.0815614281
H      -2.6442075525     -1.8780697153      0.0919061005
H       0.2065147670      2.5457164643      0.0172436471
H      -1.1130377365      1.8863138943      0.9233826001
H      -1.3244522457      1.9471147900     -0.8665095216
12
Frame=10  time=5.500fs  energy=-304.97915989Ha  molecule=COOCCCHHHHHH
C       0.0813500767      0.3923661208      0.0087203000
O       1.3618266941      0.1972853787     -0.0378673280
O       2.1753851399      1.2889897560      0.0029622689
C      -0.6997855454     -0.8084099578      0.0686682721
C      -2.0698657606     -0.8493979730     -0.0251114317
C      -0.6244750983      1.7727535308     -0.0153649967
H      -0.2432551327     -1.3761966470     -0.0975193509
H      -2.5367080131     -0.0883217235      0.0907320658
H      -2.6041059244     -1.8113879683      0.0840602231
H       0.1252488878      2.4765875540     -0.0015156261
H      -1.1228430812      1.8824715691      0.9238360250
H      -1.3491644579      1.9509557005     -0.8854043721
12
Frame=11  time=6.000fs  energy=-301.51500356Ha  molecule=COOCCCHHHHHH
C       0.0799108486      0.3986725485      0.0068810536
O       1.3655367546      0.1938298576     -0.0408153517
O       2.1760563821      1.2880756391      0.0031397269
C      -0.7486711855     -0.7402665085      0.0717984896
C      -2.0560815519     -0.8776526778     -0.0234756154
C      -0.6218150108      1.7729537854     -0.0177522198
H       0.2678577891     -2.2215331197     -0.0842962195
H      -2.7368939045      0.1905845895      0.0964265097
H      -2.5423551148     -1.7084256472      0.0659144237
H       0.1014653074      2.4726370137     -0.0228869731
H      -1.1528409537      1.8792135091      0.9456418999
H      -1.3338712222      1.9381255490     -0.8490632273
12
Frame=12  time=6.500fs  energy=-284.39478331Ha  molecule=COOCCCHHHHHH
C       0.0836625100      0.4099812143      0.0050793854
O       1.3681144628      0.1910988747     -0.0437643798
O       2.1755617739      1.2862341508      0.0033200586
C      -0.6433197746     -0.8873730348      0.0744872277
C      -2.0893299761     -0.8320304249     -0.0206884132
C      -0.6325979742      1.7646635953     -0.0201545795
H      -0.8603902388     -0.5376892463     -0.0703505629
H      -2.4893162208     -0.1836269587      0.0977964145
H      -2.6109795040     -1.8450519253      0.0426526314
H       0.1985476793      2.5811456099     -0.0442514876
H      -1.1535618068      1.8661441879      0.9245833218
H      -1.2894221644      1.9156151680     -0.7699030689
12
Frame=13  time=7.000fs  energy=-185.42148290Ha  molecule=COOCCCHHHHHH
C       0.0750308815      0.4115207067      0.0032828138
O       1.3708078800      0.1898734200     -0.0466983767
O       2.1773059701      1.2850355572      0.0034982645
C      -0.8773851119     -0.5618688749      0.0771422653
C      -2.0061870713     -0.8811558951     -0.0177544128
C      -0.6101461163      1.7713808567     -0.0209577200
H       1.6023368320     -4.3808593971     -0.0565607572
H      -3.0470663541      0.6324317056      0.0984870362
H      -2.7025770689     -2.0209670459      0.0188063537
H       0.0288082835      2.4443185378     -0.0653084773
H      -1.2090821441      1.8625779686      0.9852909380
H      -1.3142174141      1.9056866869     -0.7920672174
12
Frame=14  time=7.500fs  energy=421.07294623Ha  molecule=COOCCCHHHHHH
C       0.0946962123      0.4367894207      0.0015465022
O       1.3704912966      0.1875876091     -0.0495263371
O       2.1740427937      1.2815240916      0.0036525520
C      -0.3082667448     -1.3457163480      0.0797911912
C      -2.2281569687     -0.7725012921     -0.0148354583
C      -0.6591002205      1.7380341019     -0.0058597389
H      -4.3822542959      4.7800097458     -0.0427348149
H      -1.7672083778     -1.2864449836      0.0994304251
H      -2.3519921306     -1.3894673728     -0.0051619346
H       0.4808763366      2.8692095722     -0.0833664426
H      -1.0669836501      1.8181952266      0.7667230801
H      -1.2851525043      1.8858247476     -0.7293750938
12
Frame=15  time=8.000fs  energy=4243.02072279Ha  molecule=COOCCCHHHHHH
C       0.0436851537      0.4040800078      0.0000968628
O       1.3752947125      0.1899566679     -0.0524346046
O       2.1835121474      1.2830855164      0.0037952109
C      -1.7096254759      0.5982515278      0.0820158135
C      -1.7170482446     -1.0484425555     -0.0118506117
C      -0.5155402714      1.8014738854      0.0004727805
H      10.3852012018    -18.0021318564     -0.0284056854
H      -4.8944164070      3.3480429795      0.0991800046
H      -3.0118433855     -2.6070347743     -0.0274465558
H      -0.6540149180      1.8449474499     -0.1033142803
H      -1.3337684936      1.8570580369      1.1408526788
H      -1.5847110948      1.9310162767     -1.1517168292
12
Frame=16  time=8.500fs  energy=28629.40741604Ha  molecule=COOCCCHHHHHH
C       0.1685389697      0.5160459221     -0.0008561699
O       1.3665683364      0.1822096539     -0.0555685573
O       2.1612895804      1.2714009722      0.0039327360
C       1.8143729102     -4.2889811401      0.0834474272
C      -2.9727565175     -0.3113153115     -0.0087306871
C      -0.8423500107      1.6265769273     -0.0207750559
H     -26.8188907449     39.2245137145     -0.0131524050
H       2.7964566354     -8.1008532742      0.0965084425
H      -1.6211173311     -0.1033809572     -0.0464854300
H       2.0937322376      4.3570273728     -0.1289137173
H      -0.8216280716      1.7413321939      0.3646999946
H      -0.8540857167      1.7658555577     -0.0856291474
