12
Frame=0  time=0.500fs  energy=-306.20673361Ha  molecule=COOCCCHHHHHH
C       0.0520548047      0.4156352048     -0.0006886749
O       1.3129376181      0.2378876860      0.0042610270
O       2.1425337878      1.3024336285     -0.0023287137
C      -0.6929756300     -0.8294157076     -0.0026176596
C      -2.0407101825     -0.8889298881     -0.0017579188
C      -0.5334966925      1.7696513098      0.0043504437
H      -0.1237652486     -1.7323168674      0.0243099733
H      -2.6386313249     -0.0418079389      0.0105439742
H      -2.5602669613     -1.8482308597      0.0099947256
H       0.2816522568      2.5278786143     -0.0221442056
H      -1.1288529297      1.8879390207      0.8508436521
H      -1.1336614172      1.8912062563     -0.8957123997
12
Frame=1  time=1.000fs  energy=-306.19198075Ha  molecule=COOCCCHHHHHH
C       0.0505760881      0.4214865809     -0.0013601766
O       1.3085182257      0.2339618530      0.0085026942
O       2.1439589660      1.3051141685     -0.0046502160
C      -0.6877326329     -0.8257646765     -0.0051915363
C      -2.0462669034     -0.8890569536     -0.0034876099
C      -0.5319196075      1.7659584126      0.0081088677
H      -0.1451603461     -1.7275789459      0.0482350012
H      -2.6288971303     -0.0789334259      0.0207879060
H      -2.5690847783     -1.8526344223      0.0199219109
H       0.2831698321      2.5474466854     -0.0436440721
H      -1.0939030657      1.8716072454      0.8264498749
H      -1.0995568115      1.8768133949     -0.9098956049
12
Frame=2  time=1.500fs  energy=-306.20560792Ha  molecule=COOCCCHHHHHH
C       0.0491184631      0.4272464254     -0.0020441268
O       1.3041384122      0.2301409889      0.0127022667
O       2.1454193625      1.3077513729     -0.0069604487
C      -0.6850244734     -0.8194511046     -0.0077485253
C      -2.0467601309     -0.8976291680     -0.0052031426
C      -0.5220791406      1.7643848314      0.0065525580
H      -0.1452973626     -1.7552931037      0.0719984948
H      -2.6791878019     -0.0288423691      0.0308427731
H      -2.5686762111     -1.8420822752      0.0298697564
H       0.2433030290      2.5274495282     -0.0658628248
H      -1.1122855243      1.8672723589      0.8773230112
H      -1.0712357567      1.8640343158     -0.9346968196
12
Frame=3  time=2.000fs  energy=-306.20004173Ha  molecule=COOCCCHHHHHH
C       0.0478903509      0.4326696186     -0.0026867207
O       1.2999766294      0.2265288137      0.0168691821
O       2.1467811136      1.3102293365     -0.0092588401
C      -0.6830778022     -0.8132142920     -0.0102107451
C      -2.0467647231     -0.9061313179     -0.0068581183
C      -0.5121164441      1.7628614839      0.0045591192
H      -0.1435660060     -1.7827661546      0.0949283786
H      -2.7299777238      0.0227777094      0.0402474664
H      -2.5679148622     -1.8325156333      0.0396730910
H       0.2053786185      2.5074108903     -0.0864405858
H      -1.1343172227      1.8645677933      0.9309079946
H      -1.0457648345      1.8515897264     -0.9590269171
12
Frame=4  time=2.500fs  energy=-306.17887433Ha  molecule=COOCCCHHHHHH
C       0.0470321232      0.4380270218     -0.0033131611
O       1.2959079147      0.2230135378      0.0210222376
O       2.1480282773      1.3126378667     -0.0115519626
C      -0.6835688372     -0.8066849855     -0.0126373130
C      -2.0449652062     -0.9085672743     -0.0084899053
C      -0.5070816233      1.7585094170      0.0025416965
H      -0.1351090377     -1.8161936503      0.1175368659
H      -2.7606414363      0.0425913785      0.0494078241
H      -2.5900052800     -1.8618634788      0.0494183385
H       0.2096210206      2.5259331967     -0.1063419754
H      -1.1478286747      1.8601789792      0.9706903351
H      -1.0127744921      1.8372273409     -0.9700784162
12
Frame=5  time=3.000fs  energy=-306.19785498Ha  molecule=COOCCCHHHHHH
C       0.0501378118      0.4439074618     -0.0040826370
O       1.2904799297      0.2197850987      0.0252308733
O       2.1490339265      1.3148964686     -0.0138790455
C      -0.6806247656     -0.8108381436     -0.0150386535
C      -2.0519933840     -0.9064020262     -0.0101181268
C      -0.5048946275      1.7528894077      0.0048346145
H      -0.1939207146     -1.7339998215      0.1401289477
H      -2.7105267301     -0.0590459524      0.0585332564
H      -2.5765772841     -1.8227573095      0.0590717680
H       0.2388862245      2.5608828192     -0.1185246166
H      -1.1364057088      1.8548782936      0.9715378057
H      -1.0023999719      1.8238952371     -1.0001161304
12
Frame=6  time=3.500fs  energy=-306.03784532Ha  molecule=COOCCCHHHHHH
C       0.0540793730      0.4478578580     -0.0051666784
O       1.2854783323      0.2172872870      0.0294901837
O       2.1499041466      1.3167735669     -0.0162602843
C      -0.6820395835     -0.8124616311     -0.0173858626
C      -2.0582074872     -0.9045431670     -0.0117308494
C      -0.5029913589      1.7503196508      0.0061488568
H      -0.2282869331     -1.6758462396      0.1626337765
H      -2.6560477561     -0.1485969075      0.0674131251
H      -2.5541320435     -1.7889336674      0.0686365116
H       0.2643611254      2.5767234840     -0.1171873045
H      -1.1223618697      1.8523582741      0.9396397484
H      -0.9976395672      1.7987438831     -0.9958704939
12
Frame=7  time=4.000fs  energy=-305.60371689Ha  molecule=COOCCCHHHHHH
C       0.0537544208      0.4474831113     -0.0058109865
O       1.2829995498      0.2156612829      0.0336623465
O       2.1509395945      1.3183615958     -0.0186369248
C      -0.7073508822     -0.7864219459     -0.0197929381
C      -2.0317846668     -0.9095165020     -0.0133549085
C      -0.4968134980      1.7502004259      0.0065662306
H      -0.0480321043     -1.9277743676      0.1848450889
H      -2.8044044986      0.0722365910      0.0759581814
H      -2.6369060291     -1.9724622881      0.0787205804
H       0.2719052121      2.5736557740     -0.1102280150
H      -1.1239385811      1.8509121349      0.9080176347
H      -1.0128118672      1.7733353972     -0.9898075914
12
Frame=8  time=4.500fs  energy=-304.89881619Ha  molecule=COOCCCHHHHHH
C       0.0546363672      0.4467057165     -0.0049318431
O       1.2817283074      0.2151072803      0.0375333805
O       2.1510818348      1.3189193469     -0.0209399194
C      -0.6842943723     -0.8201293826     -0.0222738537
C      -2.0610694209     -0.8997745693     -0.0149949604
C      -0.4953635771      1.7474078935      0.0054961031
H      -0.3211052616     -1.4643472525      0.2051849131
H      -2.6024443295     -0.2240153377      0.0831109440
H      -2.5465160155     -1.8222280632      0.0904125302
H       0.3158910945      2.6065356894     -0.1002979698
H      -1.1138745838      1.8465231596      0.8623815443
H      -1.0217874324      1.7554983172     -0.9667926537
12
Frame=9  time=5.000fs  energy=-302.23980609Ha  molecule=COOCCCHHHHHH
C       0.0533899171      0.4431659514     -0.0025899843
O       1.2829708680      0.2165005772      0.0411202658
O       2.1504245833      1.3179633968     -0.0231594046
C      -0.7398210014     -0.7497096310     -0.0241419316
C      -2.0340439895     -0.9204971505     -0.0164640616
C      -0.4784402636      1.7537756097      0.0029419940
H       0.1970505629     -2.2216455058      0.2168867616
H      -2.7992825491      0.0658135419      0.0842439623
H      -2.5660215236     -1.8860009941      0.1051384446
H       0.2191321047      2.5021319834     -0.0874534047
H      -1.1323746914      1.8494826870      0.8668122514
H      -1.0648113345      1.7553332962     -0.9910370414
12
Frame=10  time=5.500fs  energy=-288.40573992Ha  molecule=COOCCCHHHHHH
C       0.0578659709      0.4431458207      0.0003470186
O       1.2858034607      0.2190321626      0.0445966885
O       2.1476444969      1.3151386238     -0.0253272561
C      -0.6502104244     -0.8807608689     -0.0251377497
C      -2.0567862637     -0.9040561772     -0.0170656844
C      -0.4771324427      1.7531835432     -0.0002798658
H      -0.8209549812     -0.6214647250      0.2170695677
H      -2.6703313361     -0.1338500047      0.0750738761
H      -2.5573181334     -1.9077877535      0.1203705624
H       0.2394754447      2.4970760485     -0.0734443786
H      -1.1222038122      1.8508272905      0.8337276732
H      -1.0815592833      1.7580029976     -0.9765470553
12
Frame=11  time=6.000fs  energy=-210.61089361Ha  molecule=COOCCCHHHHHH
C       0.0515851120      0.4334066010      0.0030015942
O       1.2898260936      0.2221665464      0.0481090042
O       2.1462965341      1.3129245536     -0.0274812968
C      -0.8677745196     -0.5772203433     -0.0254920669
C      -2.0160840609     -0.9469954662     -0.0164806118
C      -0.4793632050      1.7488603125     -0.0068179301
H       1.4617032176     -4.1124189187      0.2084269512
H      -2.9255714997      0.2316807373      0.0560156328
H      -2.4674936968     -1.7693331448      0.1333760666
H       0.2921755283      2.5253478144     -0.0607046663
H      -1.1267434906      1.8574788583      0.8180881867
H      -1.0804351586      1.7575895732     -0.9369844076
12
Frame=12  time=6.500fs  energy=260.92077119Ha  molecule=COOCCCHHHHHH
C       0.0705468181      0.4440873892      0.0055816554
O       1.2931978646      0.2241092343      0.0516356216
O       2.1407333761      1.3085684470     -0.0296291109
C      -0.3743384852     -1.2781120995     -0.0258535079
C      -2.1327602748     -0.8161536702     -0.0149150691
C      -0.4944636838      1.7440671064     -0.0132914880
H      -3.8870786599      4.1484676104      0.1972173032
H      -2.1073678812     -0.9953326547      0.0314948085
H      -2.6279419887     -2.1367680571      0.1430094045
H       0.4271010670      2.6146602727     -0.0481900518
H      -1.1020552417      1.8639047404      0.7632078851
H      -1.0498651088      1.7564966142     -0.8583594257
12
Frame=13  time=7.000fs  energy=3222.40531416Ha  molecule=COOCCCHHHHHH
C       0.0288808153      0.4046616723      0.0081562167
O       1.3004568389      0.2278998518      0.0551586622
O       2.1459465229      1.3097343767     -0.0317738757
C      -1.6127046220      0.4549911271     -0.0262375192
C      -1.8069570486     -1.1425605668     -0.0132355177
C      -0.4110142470      1.7845633084     -0.0197546439
H       9.2740146878    -16.0987939234      0.1859115650
H      -4.3889691824      2.3680179744      0.0064662667
H      -2.3277555371     -1.5687598005      0.1521724518
H      -0.2334469608      1.9983377664     -0.0357041381
H      -1.2752760173      1.9066997940      0.9919090072
H      -1.2172018445      1.7917617706     -1.0633527233
12
Frame=14  time=7.500fs  energy=22090.12019728Ha  molecule=COOCCCHHHHHH
C       0.1402079666      0.4901123871      0.0107275579
O       1.2992359059      0.2237717542      0.0586772962
O       2.1232508827      1.2984334147     -0.0339159579
C       1.4713442613     -3.8738807263     -0.0266210502
C      -2.6729516212     -0.3569263256     -0.0115580670
C      -0.6649957219      1.6600014977     -0.0262097160
H     -23.6546126288     34.6302119214      0.1746199677
H       1.4863085591     -6.3470474230     -0.0185309699
H      -2.6860134500     -2.3863471886      0.1613240381
H       1.8892858631      3.9059329017     -0.0232338416
H      -0.8095950253      1.8252596814      0.2910046234
H      -0.7456441722      1.7028011790     -0.3387701683
