12
Frame=0  time=0.500fs  energy=-306.20674493Ha  molecule=COOCCCHHHHHH
C       0.0437553625      0.4115924079      0.0004022869
O       1.3217352064      0.2429375105      0.0003240543
O       2.1411540550      1.2994863149     -0.0003151742
C      -0.6927288959     -0.8352239282      0.0000156645
C      -2.0407635986     -0.8891095784     -0.0003227495
C      -0.5396803544      1.7692837262      0.0066277823
H      -0.1207370653     -1.7223548075      0.0072291281
H      -2.6754062524     -0.0212122616      0.0019244084
H      -2.5010642311     -1.8205480508     -0.0347398005
H       0.2572811539      2.4868841828     -0.0207996388
H      -1.1834932549      1.8882038236      0.8911009138
H      -1.1963711933      1.8951487460     -0.9249685248
12
Frame=1  time=1.000fs  energy=-306.19260419Ha  molecule=COOCCCHHHHHH
C       0.0360633448      0.4140691461      0.0008283136
O       1.3267426864      0.2435880605      0.0006430008
O       2.1418553772      1.2993509144     -0.0006313172
C      -0.6866165527     -0.8367595345      0.0000510339
C      -2.0459922602     -0.8885552702     -0.0006906795
C      -0.5382614907      1.7696307148      0.0126692004
H      -0.1306809583     -1.7054846492      0.0142298720
H      -2.6933435177     -0.0390559245      0.0038304493
H      -2.4516624656     -1.8091326861     -0.0690412015
H       0.2573070792      2.4704295316     -0.0409731790
H      -1.2030376804      1.8733836918      0.8901656130
H      -1.2247659183      1.8858496298     -0.9516152012
12
Frame=2  time=1.500fs  energy=-306.20574369Ha  molecule=COOCCCHHHHHH
C       0.0282627330      0.4163061654      0.0012429552
O       1.3317573657      0.2442249220      0.0009272863
O       2.1425441633      1.2992350119     -0.0009399221
C      -0.6846039290     -0.8336376489      0.0000939996
C      -2.0451786174     -0.8819348917     -0.0010695245
C      -0.5434925591      1.7689497056      0.0134093929
H      -0.1051513394     -1.7424417359      0.0211346985
H      -2.7213622973     -0.0400134981      0.0056482736
H      -2.4500591425     -1.8866615612     -0.1031312334
H       0.2832252425      2.4791185569     -0.0618793732
H      -1.2193214661      1.8577435131      0.8818957643
H      -1.2024337552      1.8653405776     -0.9064447370
12
Frame=3  time=2.000fs  energy=-306.20257851Ha  molecule=COOCCCHHHHHH
C       0.0213179596      0.4183255600      0.0017155427
O       1.3362967904      0.2449109933      0.0012059928
O       2.1432399513      1.2991492123     -0.0012526259
C      -0.6832039808     -0.8302795410      0.0001837197
C      -2.0437897878     -0.8755782702     -0.0015548953
C      -0.5490945375      1.7682135642      0.0137168250
H      -0.0788813455     -1.7798789776      0.0275185814
H      -2.7492679401     -0.0400015207      0.0074414003
H      -2.4505820695     -1.9643710466     -0.1362575951
H       0.3084681121      2.4883621034     -0.0811304975
H      -1.2340542414      1.8436119797      0.8732875409
H      -1.1776038779      1.8447790390     -0.8576766853
12
Frame=4  time=2.500fs  energy=-306.15850036Ha  molecule=COOCCCHHHHHH
C       0.0158854435      0.4201639329      0.0022159312
O       1.3401884341      0.2457437826      0.0014831892
O       2.1438977759      1.2990414927     -0.0015674895
C      -0.6829478949     -0.8276802924      0.0002968614
C      -2.0414670997     -0.8740540483     -0.0020921922
C      -0.5547625726      1.7675820898      0.0140012028
H      -0.0553552250     -1.8095884096      0.0336442548
H      -2.7937617855     -0.0180582469      0.0092252070
H      -2.4338038561     -2.0065423269     -0.1688992994
H       0.3332311208      2.4962310290     -0.0994976191
H      -1.2488037397      1.8305582908      0.8644883159
H      -1.1540926755      1.8248735082     -0.8094774048
12
Frame=5  time=3.000fs  energy=-306.19304272Ha  molecule=COOCCCHHHHHH
C       0.0154290124      0.4219106277      0.0025778995
O       1.3420883818      0.2471426786      0.0018187906
O       2.1444715424      1.2987198849     -0.0019168010
C      -0.6773775169     -0.8369792976      0.0004284758
C      -2.0512901669     -0.8747869866     -0.0026321011
C      -0.5495655919      1.7743231918      0.0184783383
H      -0.1110704432     -1.7057007267      0.0398040507
H      -2.7649020304     -0.1114220613      0.0110199816
H      -2.3446633611     -1.9064856491     -0.2015663457
H       0.2633753805      2.4077025443     -0.1105890710
H      -1.2637169252      1.8225799611      0.8557319618
H      -1.1766874996      1.8121006615     -0.8174987262
12
Frame=6  time=3.500fs  energy=-305.93715520Ha  molecule=COOCCCHHHHHH
C       0.0194141155      0.4207861398      0.0026228423
O       1.3405243487      0.2490316386      0.0022128061
O       2.1452800721      1.2986385172     -0.0023230218
C      -0.6758229458     -0.8403331253      0.0006012068
C      -2.0547758814     -0.8774152941     -0.0031739540
C      -0.5433427735      1.7769476732      0.0219883037
H      -0.1351645260     -1.6539707398      0.0459934430
H      -2.7704644114     -0.1591977712      0.0126860953
H      -2.2796050380     -1.8369291810     -0.2342019659
H       0.2131021804      2.3535487327     -0.1085043957
H      -1.2918528300      1.8348565885      0.8884775936
H      -1.2203174397      1.8051861649     -0.8653182380
12
Frame=7  time=4.000fs  energy=-305.09545741Ha  molecule=COOCCCHHHHHH
C       0.0250285197      0.4166090896      0.0025323809
O       1.3363158514      0.2508102350      0.0026303250
O       2.1461935066      1.2991467672     -0.0027509506
C      -0.6938806419     -0.8188923181      0.0007835646
C      -2.0220041385     -0.8789482393     -0.0037007442
C      -0.5748648969      1.7552455730      0.0251162916
H      -0.0005660638     -1.8684411261      0.0522638308
H      -2.9584282946      0.0687819500      0.0143019029
H      -2.3792646943     -2.0669155347     -0.2669335711
H       0.4708198257      2.6140575998     -0.1013976486
H      -1.2422264584      1.8426765426      0.8288823033
H      -1.1889458513      1.7881914869     -0.8199109914
12
Frame=8  time=4.500fs  energy=-303.59255474Ha  molecule=COOCCCHHHHHH
C       0.0330150200      0.4152862394      0.0028251828
O       1.3319143996      0.2530636941      0.0029723172
O       2.1475543326      1.2991564802     -0.0031598676
C      -0.6738202241     -0.8389933869      0.0009709986
C      -2.0577793291     -0.8692016784     -0.0042366997
C      -0.5265577982      1.7806535897      0.0278619168
H      -0.2057688734     -1.5776768130      0.0578609231
H      -2.7003922516     -0.3484182091      0.0154775798
H      -2.2329801073     -1.8155052081     -0.2991357594
H       0.0350678310      2.2201250513     -0.0935260760
H      -1.3317390573      1.8884590739      0.9827229172
H      -1.2980881925      1.8118239644     -0.9871854132
12
Frame=9  time=5.000fs  energy=-298.63243478Ha  molecule=COOCCCHHHHHH
C       0.0385806223      0.4113145334      0.0041959795
O       1.3284111496      0.2538300398      0.0031057096
O       2.1478471566      1.3000378698     -0.0035085708
C      -0.7061174364     -0.7999393327      0.0019542912
C      -1.9991191964     -0.8786228352     -0.0054503894
C      -0.6216631274      1.7259312157      0.0294875253
H       0.0352351162     -1.9559483427      0.0561771765
H      -3.0347939855      0.1247241114      0.0149903686
H      -2.4374128904     -2.2222988746     -0.3253340834
H       0.7616289736      2.9191683750     -0.0834131393
H      -1.1323514668      1.8621991010      0.7102191428
H      -1.1224083269      1.7711132464     -0.7259684854
12
Frame=10  time=5.500fs  energy=-275.28221104Ha  molecule=COOCCCHHHHHH
C       0.0474668918      0.4137200539      0.0067615432
O       1.3252370571      0.2565075617      0.0030069982
O       2.1501762287      1.2995522430     -0.0037901551
C      -0.6668651207     -0.8387721244      0.0042412307
C      -2.0746279364     -0.8757088069     -0.0082812113
C      -0.4526532740      1.8286742202      0.0298523466
H      -0.3200083648     -1.4120179528      0.0449636359
H      -2.5594520172     -0.5922177352      0.0153751571
H      -2.1280636400     -1.6243927007     -0.3407045481
H      -0.7837255397      1.4733383961     -0.0707437591
H      -1.3974580458      1.9456836387      1.1410118696
H      -1.4158150166      1.8488036701     -1.1656334361
12
Frame=11  time=6.000fs  energy=-146.87405018Ha  molecule=COOCCCHHHHHH
C       0.0509157313      0.4071755127      0.0099855121
O       1.3205655722      0.2542524498      0.0027791861
O       2.1479735444      1.3023597907     -0.0040340259
C      -0.7414371791     -0.7534661650      0.0076877593
C      -1.9326136441     -0.9118751930     -0.0129039247
C      -0.8473959173      1.5842491348      0.0294998889
H       0.2670864381     -2.2948211585      0.0269504439
H      -3.4473036418      0.7228191407      0.0190505285
H      -2.6223784313     -2.5594636688     -0.3457349938
H       2.6161608994      4.6952580145     -0.0565952115
H      -0.7002916310      1.7847393126      0.1259504729
H      -0.7495431471      1.6869812808     -0.1580674729
12
Frame=12  time=6.500fs  energy=613.24831924Ha  molecule=COOCCCHHHHHH
C       0.0658465470      0.4221551474      0.0131477174
O       1.3184184064      0.2640456093      0.0025144974
O       2.1563127182      1.2975365733     -0.0042709938
C      -0.5979217221     -0.9055095938      0.0115586065
C      -2.2124891847     -0.8630449727     -0.0186476056
C       0.0929272267      2.1401304192      0.0226983760
H      -0.9332766103     -0.4587446992      0.0082284393
H      -1.6436091220     -1.9526623525      0.0268616961
H      -1.6199238091     -0.6038940721     -0.3456618647
H      -5.4719625235     -2.9101288864     -0.0436531376
H      -2.4012228809      2.2103461369      2.7063781576
H      -2.4228139264      2.0990394037     -2.6669519514
12
Frame=13  time=7.000fs  energy=5262.83302912Ha  molecule=COOCCCHHHHHH
C       0.0559238219      0.3880983579      0.0163088844
O       1.3102148996      0.2442457326      0.0022490692
O       2.1380783675      1.3108006936     -0.0045081311
C      -0.9390391347     -0.5307038586      0.0154541588
C      -1.5706728618     -0.9741624269     -0.0245329322
C      -2.2155603490      0.7540241683      0.0159024118
H       1.8417387478     -4.6627422583     -0.0103288346
H      -5.6095862048      3.9488405690      0.0353540496
H      -3.9973847504     -5.1418317999     -0.3450007277
H      14.3651259797     15.8222626203     -0.0307105050
H       1.6823728379      1.2134888522     -3.3998888023
H       1.6883953516      1.0886766221      3.5107779175
12
Frame=14  time=7.500fs  energy=34103.43325204Ha  molecule=COOCCCHHHHHH
C       0.1071392772      0.4734261597      0.0194854347
O       1.3201302181      0.2962724384      0.0020180946
O       2.1852157002      1.2796765804     -0.0047528701
C      -0.1248347186     -1.4236410839      0.0193439082
C      -3.0809647397     -0.7249597659     -0.0304146898
C       3.5062545760      4.1863663765      0.0144148383
H      -4.9154262693      5.6126842118     -0.0288451041
H       3.8289999239    -10.0758897274      0.0439203222
H       1.5357000174      5.5255650935     -0.3443910271
H     -34.9774580494    -30.6720120559     -0.0167931916
H      -8.4456228234      3.7138260994     11.8383087605
H      -8.4599266941      3.5858166787    -11.7208346361
