12
Frame=0  time=0.500fs  energy=-306.20691573Ha  molecule=COOCCCHHHHHH
C       0.0620584746      0.4023137011      0.0000099178
O       1.3197820120      0.2451997699      0.0022955362
O       2.1386042052      1.2963351531     -0.0020164262
C      -0.6978662098     -0.8390705281     -0.0011078497
C      -2.0357268863     -0.8855857732      0.0022353437
C      -0.5458725638      1.7660379697     -0.0057381369
H      -0.0960630827     -1.7238100580      0.0060486845
H      -2.6431580021     -0.0439299547     -0.0035450797
H      -2.5784000012     -1.8317875988     -0.0219318036
H       0.2637295072      2.5258306120      0.0193863844
H      -1.1701137012      1.9099253984      0.8754405957
H      -1.1752916530      1.9116870977     -0.8250038062
12
Frame=1  time=1.000fs  energy=-306.19355524Ha  molecule=COOCCCHHHHHH
C       0.0710072994      0.3984219977      0.0000031826
O       1.3223235405      0.2479575885      0.0045911539
O       2.1365909094      1.2926810968     -0.0040281975
C      -0.7000661257     -0.8383717439     -0.0021865403
C      -2.0380017494     -0.8822772818      0.0044171972
C      -0.5483070970      1.7645316203     -0.0108545771
H      -0.0967773122     -1.7016236588      0.0119334353
H      -2.6374249553     -0.0839000802     -0.0069854082
H      -2.6046071580     -1.8206456049     -0.0435300755
H       0.2575395490      2.5530825937      0.0380836849
H      -1.1681401987      1.9134861011      0.8669493331
H      -1.1825750933      1.9183151342     -0.7726574671
12
Frame=2  time=1.500fs  energy=-306.20545634Ha  molecule=COOCCCHHHHHH
C       0.0798396683      0.3945596703      0.0000089456
O       1.3248847322      0.2507343769      0.0069178763
O       2.1346419559      1.2890423757     -0.0060446685
C      -0.7042173049     -0.8355398099     -0.0032550579
C      -2.0356619388     -0.8870641236      0.0065753212
C      -0.5432229414      1.7646377830     -0.0107302057
H      -0.0809182497     -1.7055630942      0.0177735127
H      -2.6883793686     -0.0410534062     -0.0103065115
H      -2.6213803661     -1.7946233298     -0.0650468154
H       0.2167823400      2.5472451118      0.0574593536
H      -1.1707874858      1.9181691227      0.8682632098
H      -1.2412697616      1.9362768418     -0.7938087565
12
Frame=3  time=2.000fs  energy=-306.20304508Ha  molecule=COOCCCHHHHHH
C       0.0880282556      0.3910303366     -0.0000219121
O       1.3275881333      0.2532725105      0.0092414949
O       2.1328165258      1.2855597252     -0.0080521019
C      -0.7082100462     -0.8325293305     -0.0042638719
C      -2.0334547958     -0.8919291291      0.0086259689
C      -0.5379907172      1.7647205369     -0.0101733111
H      -0.0647698684     -1.7121998618      0.0232774649
H      -2.7391857405      0.0049772707     -0.0134277102
H      -2.6368513670     -1.7706808757     -0.0858924207
H       0.1766989650      2.5409157013      0.0752295323
H      -1.1735827650      1.9215553371      0.8712943333
H      -1.3008477873      1.9540459763     -0.8198493525
12
Frame=4  time=2.500fs  energy=-306.17649928Ha  molecule=COOCCCHHHHHH
C       0.0956404658      0.3876354675     -0.0000736425
O       1.3303764599      0.2556371787      0.0115611821
O       2.1310799353      1.2821829198     -0.0100531755
C      -0.7114952894     -0.8290021309     -0.0052383591
C      -2.0321089565     -0.8929515248      0.0106155714
C      -0.5329862431      1.7647290202     -0.0095700368
H      -0.0471897712     -1.7236040033      0.0285883498
H      -2.7740282107      0.0319894871     -0.0164377247
H      -2.6650335912     -1.7742411916     -0.1063516753
H       0.1384538459      2.5359039701      0.0920191574
H      -1.1760238598      1.9239967061      0.8745909005
H      -1.3586457237      1.9711394704     -0.8455034162
12
Frame=5  time=3.000fs  energy=-306.19001632Ha  molecule=COOCCCHHHHHH
C       0.0997486836      0.3847442787      0.0000168428
O       1.3345623369      0.2574411586      0.0138247474
O       2.1293213826      1.2789858080     -0.0120184585
C      -0.7110403879     -0.8240071755     -0.0062290891
C      -2.0402769718     -0.8847032501      0.0126040782
C      -0.5423050411      1.7557787224     -0.0124051898
H      -0.0271032165     -1.7474358550      0.0338451801
H      -2.7320656396     -0.0391070960     -0.0194443922
H      -2.6945740793     -1.7928408156     -0.1267253303
H       0.2232744018      2.6511688210      0.1016613745
H      -1.1688382012      1.9187892731      0.8639134866
H      -1.3676857197      1.9800195344     -0.8102627307
12
Frame=6  time=3.500fs  energy=-306.12231296Ha  molecule=COOCCCHHHHHH
C       0.0999660695      0.3848258786      0.0004221417
O       1.3414284448      0.2588190385      0.0160237010
O       2.1275053841      1.2756652132     -0.0139229101
C      -0.7085052239     -0.8241827799     -0.0072499109
C      -2.0504536655     -0.8758340130      0.0145767556
C      -0.5463629401      1.7548327385     -0.0147381984
H      -0.0441677244     -1.7251807986      0.0389906264
H      -2.6697968945     -0.1117490741     -0.0223090435
H      -2.7092386815     -1.8171034955     -0.1469517940
H       0.2201196608      2.6798188874      0.0979544227
H      -1.1521742037      1.8967609759      0.8549410694
H      -1.3550704085      1.9855876888     -0.7726836642
12
Frame=7  time=4.000fs  energy=-305.98009765Ha  molecule=COOCCCHHHHHH
C       0.1006776506      0.3883543395      0.0009563295
O       1.3488341663      0.2600198422      0.0181974054
O       2.1255764884      1.2721387926     -0.0158031974
C      -0.7046490769     -0.8299007025     -0.0082885494
C      -2.0592631989     -0.8986905260      0.0165541774
C      -0.5323240178      1.7670565532     -0.0166892393
H      -0.0993082063     -1.6586809964      0.0441275428
H      -2.7251915877      0.0010001540     -0.0251348045
H      -2.6081063043     -1.6493117340     -0.1671865457
H       0.0552140164      2.5413606357      0.0892059353
H      -1.1662355750      1.8707044645      0.9064238960
H      -1.3703802864      1.9927698843     -0.7964549421
12
Frame=8  time=4.500fs  energy=-306.06161370Ha  molecule=COOCCCHHHHHH
C       0.1013183455      0.3932461363      0.0010979275
O       1.3552455408      0.2597605918      0.0204492318
O       2.1238353829      1.2695408213     -0.0177014087
C      -0.7069116607     -0.8290095201     -0.0092704574
C      -2.0569934579     -0.8726031720      0.0185419761
C      -0.5530857792      1.7590324163     -0.0182649699
H      -0.1066658981     -1.6721276514      0.0494138770
H      -2.6581809395     -0.0576136727     -0.0277996034
H      -2.7332884480     -1.8959293879     -0.1877728403
H       0.1896199479      2.6787917036      0.0798966696
H      -1.1178072574      1.8266676141      0.8655391281
H      -1.3221313150      1.9792459627     -0.7288059759
12
Frame=9  time=5.000fs  energy=-306.07452329Ha  molecule=COOCCCHHHHHH
C       0.1012990727      0.3979643268     -0.0002381695
O       1.3601254484      0.2574756587      0.0229951469
O       2.1238112161      1.2688354325     -0.0196594102
C      -0.7114426060     -0.8246018622     -0.0092503685
C      -2.0538453360     -0.8941003798      0.0198439157
C      -0.5539504770      1.7629842658     -0.0184674844
H      -0.0850276092     -1.7304565137      0.0498880320
H      -2.7711553545      0.1382499632     -0.0300179940
H      -2.6816782334     -1.8230849706     -0.2047216100
H       0.1552983235      2.6585386525      0.0678570713
H      -1.1082255572      1.7951688430      0.8766275474
H      -1.3077285140      1.9684139914     -0.7159128394
12
Frame=10  time=5.500fs  energy=-305.62222679Ha  molecule=COOCCCHHHHHH
C       0.1003769980      0.4024024611     -0.0033412989
O       1.3633150761      0.2524580565      0.0258907634
O       2.1256626769      1.2704260270     -0.0216887964
C      -0.7166095327     -0.8131435349     -0.0076696036
C      -2.0807688353     -0.8964047824      0.0194931508
C      -0.5413989315      1.7699010466     -0.0170439002
H      -0.0138949715     -1.8662335537      0.0435828993
H      -2.6314295047     -0.0404667112     -0.0288819084
H      -2.5527790995     -1.6034170315     -0.2134200930
H       0.0629203664      2.5797927421      0.0525185677
H      -1.1554779147      1.7824497754      0.9643360325
H      -1.3440522638      1.9647103220     -0.7828079862
12
Frame=11  time=6.000fs  energy=-304.50735015Ha  molecule=COOCCCHHHHHH
C       0.0993077768      0.4062726742     -0.0075548881
O       1.3662239530      0.2457145661      0.0290044726
O       2.1281471245      1.2732812632     -0.0237625934
C      -0.6983956601     -0.8449729750     -0.0047582212
C      -2.0553079565     -0.8603041461      0.0173085782
C      -0.5497070722      1.7652013325     -0.0146247312
H      -0.2718833692     -1.4918831114      0.0320310055
H      -2.6830356135      0.0671347449     -0.0229365683
H      -2.8045895048     -2.1148395941     -0.2132209656
H       0.1433728456      2.6587642959      0.0351727937
H      -1.1695529475      1.7671549192      0.9986362555
H      -1.3433337292      1.9512098641     -0.7981394447
12
Frame=12  time=6.500fs  energy=-301.53164424Ha  molecule=COOCCCHHHHHH
C       0.0964001893      0.4087944558     -0.0118036277
O       1.3686327299      0.2387990730      0.0321201217
O       2.1313953908      1.2765891928     -0.0258369972
C      -0.7310956954     -0.7891054389     -0.0013883093
C      -2.0968096159     -0.9184745050      0.0139489266
C      -0.5593618467      1.7658840673     -0.0121870527
H       0.1267951370     -2.1369429505      0.0196045134
H      -2.6466940662      0.0216557014     -0.0126658019
H      -2.3757899972     -1.3514113960     -0.2077327956
H       0.1601850504      2.6727134232      0.0178602296
H      -1.1452358271      1.7461710766      0.9790515756
H      -1.3041628743      1.9318730797     -0.7596432660
12
Frame=13  time=7.000fs  energy=-289.08322475Ha  molecule=COOCCCHHHHHH
C       0.0953531146      0.4130965545     -0.0160321380
O       1.3710998838      0.2327901190      0.0352512424
O       2.1340608251      1.2791208100     -0.0279141173
C      -0.6738103971     -0.8817716869      0.0020104835
C      -2.0409578279     -0.8050447790      0.0104218215
C      -0.5653024372      1.7681457945     -0.0065638457
H      -0.6034178040     -1.0307124234      0.0073649168
H      -2.6245809976      0.0280482008     -0.0015707036
H      -3.0543540311     -2.6746928909     -0.2016127897
H       0.1459668946      2.6521821762      0.0011849320
H      -1.1109730209      1.7226059379      0.9475750896
H      -1.2839302858      1.9161809467     -0.7482878300
12
Frame=14  time=7.500fs  energy=-222.08105422Ha  molecule=COOCCCHHHHHH
C       0.0894441550      0.4139269042     -0.0202553677
O       1.3717507501      0.2271276794      0.0383784529
O       2.1383466035      1.2824874846     -0.0299886436
C      -0.7905329479     -0.6882946849      0.0054050319
C      -2.1509110026     -1.0432690199      0.0068991210
C      -0.5559936040      1.7759839726     -0.0009476610
H       0.8269642931     -3.2725940278     -0.0048593950
H      -2.7856334555      0.2350457003      0.0095105391
H      -1.6086956828     -0.0151299559     -0.1955004263
H       0.0144152187      2.5200588558     -0.0154695417
H      -1.1045440472      1.7055807860      0.9596592016
H      -1.2915140089      1.9070189688     -0.7804678650
12
Frame=15  time=8.000fs  energy=188.51099981Ha  molecule=COOCCCHHHHHH
C       0.0929133592      0.4226562359     -0.0241580883
O       1.3740585446      0.2223878834      0.0414748088
O       2.1393585914      1.2835449599     -0.0320850411
C      -0.5255348761     -1.1135118417      0.0083747295
C      -1.9297931910     -0.4429266378      0.0034437695
C      -0.5739587678      1.7580889950      0.0047333081
H      -2.4351953459      1.7617707967     -0.0165208494
H      -2.0993035706     -0.6500718506      0.0195307792
H      -4.9072094597     -6.2423757379     -0.1878334078
H       0.2337938819      2.7071873683     -0.0323656917
H      -1.1066158332      1.6880109345      0.9794227310
H      -1.3071762280      1.8962701130     -0.8206364074
12
Frame=16  time=8.500fs  energy=2879.58774563Ha  molecule=COOCCCHHHHHH
C       0.0753185607      0.4126283462     -0.0274610479
O       1.3710970064      0.2167208478      0.0445164444
O       2.1478589787      1.2898276560     -0.0342249865
C      -1.1636134092     -0.0890391839      0.0105469699
C      -2.4340023799     -2.0140243541      0.0001115238
C      -0.5281264614      1.7745628000      0.0105426820
H       5.3048802403    -10.2594761779     -0.0271343738
H      -4.4521223993      2.5263306472      0.0275623740
H       3.4583047162      9.3396342230     -0.1772276996
H      -0.1197248833      2.3720108284     -0.0497360886
H      -1.2060710663      1.6981891675      1.1509931877
H      -1.4194410920      1.9113126284     -1.0132170757
12
Frame=17  time=9.000fs  energy=21140.53754678Ha  molecule=COOCCCHHHHHH
C       0.1089952595      0.4494950812     -0.0300213749
O       1.3812240460      0.2135951518      0.0474911521
O       2.1378641661      1.2828557838     -0.0364195718
C       0.3818741454     -2.5864727776      0.0117163098
C      -1.2392735203      2.2559942620     -0.0030542840
C      -0.6887609702      1.7128334353      0.0165130163
H     -13.6542938452     19.1491444450     -0.0364517988
H       3.1223113826     -7.8389037079      0.0331307189
H     -18.2219327961    -31.1307909927     -0.1629751769
H       0.9831979155      3.3631612590     -0.0676997376
H      -0.7904666683      1.5817872831      0.5413170254
H      -1.0156820943      1.7973504117     -0.4253078401
