12
Frame=0  time=0.500fs  energy=-306.18367749Ha  molecule=COOCCCHHHHHH
C       0.0655328834      0.4123622538      0.0046610692
O       1.3211919083      0.2429330057     -0.0063979691
O       2.1781586792      1.2745847673     -0.0005371024
C      -0.6951912369     -0.8209959180      0.0053740539
C      -2.0329771317     -0.8815178033      0.0024283451
C      -0.5939382387      1.7684186818     -0.0043163191
H      -0.0712507142     -1.7416559928     -0.0041505550
H      -2.6589625600      0.0464055780     -0.0034006928
H      -2.5447554472     -1.8338921780      0.0105135466
H       0.1920975719      2.5638573520      0.0075340084
H      -1.1780178648      1.8570880318      0.8715258244
H      -1.2478122663      1.8789307312     -0.8690265157
12
Frame=1  time=1.000fs  energy=-306.18122724Ha  molecule=COOCCCHHHHHH
C       0.0635098738      0.4049834496      0.0093036321
O       1.3267258618      0.2326688733     -0.0127937548
O       2.1796222470      1.2742752112     -0.0010762779
C      -0.7012136890     -0.8146421180      0.0107318838
C      -2.0320955506     -0.8739918529      0.0048593462
C      -0.5994203427      1.7725854686     -0.0087261116
H      -0.0516721478     -1.7500166181     -0.0081649524
H      -2.6714267541      0.0745331511     -0.0066916978
H      -2.5453293555     -1.8355461624      0.0209938422
H       0.1925773994      2.5913639174      0.0148958215
H      -1.1275695781      1.8438080812      0.8627261304
H      -1.2656578745      1.8873061784     -0.8562735895
12
Frame=2  time=1.500fs  energy=-306.17796499Ha  molecule=COOCCCHHHHHH
C       0.0618037550      0.3979416012      0.0138872857
O       1.3321473168      0.2225087170     -0.0191810546
O       2.1811429219      1.2739407272     -0.0016205488
C      -0.7068993089     -0.8088904887      0.0160564083
C      -2.0316674154     -0.8663505318      0.0072992660
C      -0.6043677273      1.7768769197     -0.0133779892
H      -0.0365258601     -1.7533969467     -0.0118560429
H      -2.6825174359      0.0983675518     -0.0097586288
H      -2.5452552756     -1.8368011855      0.0313733783
H       0.1925606360      2.6156653976      0.0218510212
H      -1.0813072498      1.8313623225      0.8580097803
H      -1.2842894283      1.8960117541     -0.8438204641
12
Frame=3  time=2.000fs  energy=-306.17496244Ha  molecule=COOCCCHHHHHH
C       0.0605144245      0.3913933862      0.0183566099
O       1.3374022990      0.2124681821     -0.0255497181
O       2.1827214773      1.2735789303     -0.0021738428
C      -0.7121657415     -0.8039348885      0.0213315299
C      -2.0318546986     -0.8585455353      0.0097571350
C      -0.6085692817      1.7812705712     -0.0184296812
H      -0.0268712946     -1.7504338151     -0.0150241042
H      -2.6912544076      0.1165036791     -0.0124855590
H      -2.5440949566     -1.8369547340      0.0415592485
H       0.1916913874      2.6355359417      0.0281011863
H      -1.0410898174      1.8201330961      0.8603814680
H      -1.3037639865      1.9051550500     -0.8320707474
12
Frame=4  time=2.500fs  energy=-306.17311345Ha  molecule=COOCCCHHHHHH
C       0.0597280677      0.3854533321      0.0226531381
O       1.3424488262      0.2025589889     -0.0318886885
O       2.1843612635      1.2731847960     -0.0027402888
C      -0.7169656890     -0.7998869567      0.0265421375
C      -2.0327826939     -0.8505718633      0.0122433137
C      -0.6119044002      1.7857423194     -0.0239662630
H      -0.0232691224     -1.7405224348     -0.0174815648
H      -2.6969173326      0.1280913389     -0.0147630956
H      -2.5415176505     -1.8353758074      0.0514463083
H       0.1898024799      2.6502436098      0.0333106428
H      -1.0081063102      1.8104148812      0.8718744744
H      -1.3241373346      1.9148748738     -0.8212567216
12
Frame=5  time=3.000fs  energy=-306.17265855Ha  molecule=COOCCCHHHHHH
C       0.0595206312      0.3801791845      0.0267227311
O       1.3472534526      0.1927939528     -0.0381887061
O       2.1860664997      1.2727520762     -0.0033236576
C      -0.7212686085     -0.7967840525      0.0316759623
C      -2.0345384464     -0.8424632395      0.0147676105
C      -0.6143569414      1.7902957899     -0.0299326004
H      -0.0259202323     -1.7236536592     -0.0190719794
H      -2.6991581512      0.1328339010     -0.0164872239
H      -2.5373379788     -1.8315930281      0.0609250660
H       0.1867944762      2.6593588800      0.0371965815
H      -0.9825547737      1.8024090966      0.8925565357
H      -1.3454046808      1.9252269230     -0.8113839424
12
Frame=6  time=3.500fs  energy=-306.17318870Ha  molecule=COOCCCHHHHHH
C       0.0599635122      0.3755814364      0.0305158240
O       1.3517870069      0.1831912627     -0.0444430531
O       2.1878416316      1.2722728528     -0.0039270763
C      -0.7250623460     -0.7945912544      0.0367276918
C      -2.0371683148     -0.8342893178      0.0173377243
C      -0.6159868323      1.7949610294     -0.0361286520
H      -0.0346539180     -1.7004537619     -0.0196902517
H      -2.6980050725      0.1309998628     -0.0175580359
H      -2.5315467020     -1.8253404941      0.0698905674
H       0.1825914162      2.6626143251      0.0395687134
H      -0.9638821318      1.7962922535      0.9205466746
H      -1.3675314906      1.9361617622     -0.8023597632
12
Frame=7  time=4.000fs  energy=-306.17407532Ha  molecule=COOCCCHHHHHH
C       0.0611234453      0.3716485378      0.0339882851
O       1.3560212939      0.1737764451     -0.0506456482
O       2.1896898131      1.2717350615     -0.0045527818
C      -0.7283708053     -0.7931881669      0.0417025869
C      -2.0406712643     -0.8261516564      0.0199577118
C      -0.6168794164      1.7997729766     -0.0422948967
H      -0.0487368015     -1.6724398515     -0.0193105344
H      -2.6938257149      0.1234099671     -0.0178907125
H      -2.5243773013     -1.8166080528      0.0782621107
H       0.1771757046      2.6598786688      0.0403009646
H      -0.9512967412      1.7922223771      0.9531636529
H      -1.3905323459      1.9476219779     -0.7941455519
12
Frame=8  time=4.500fs  energy=-306.17477083Ha  molecule=COOCCCHHHHHH
C       0.0630537381      0.3683619751      0.0371118781
O       1.3599265875      0.1645836346     -0.0567874364
O       2.1916108498      1.2711204730     -0.0052019280
C      -0.7312735414     -0.7923477606      0.0466144325
C      -2.0449897639     -0.8181758657      0.0226256884
C      -0.6171094654      1.8047557693     -0.0482543325
H      -0.0666508953     -1.6422386930     -0.0180151490
H      -2.6872748158      0.1114202862     -0.0174381385
H      -2.5163793307     -1.8057139587      0.0860128246
H       0.1706217386      2.6511823965      0.0392799686
H      -0.9441467887      1.7902313007      0.9884684380
H      -1.4144540069      1.9596061760     -0.7866668063
12
Frame=9  time=5.000fs  energy=-306.17479902Ha  molecule=COOCCCHHHHHH
C       0.0657777831      0.3656977957      0.0398901028
O       1.3634722772      0.1556567508     -0.0628552245
O       2.1935999406      1.2704051655     -0.0058749963
C      -0.7339149272     -0.7917422521      0.0514761705
C      -2.0500016563     -0.8104923109      0.0253336182
C      -0.6167564592      1.8099187932     -0.0539636179
H      -0.0861219021     -1.6134257662     -0.0159968048
H      -2.6792066365      0.0968145647     -0.0161933806
H      -2.5083927474     -1.7933177310      0.0931802908
H       0.1630932259      2.6367180888      0.0363875220
H      -0.9418295566      1.7901240082      1.0254797483
H      -1.4391478026      1.9720716925     -0.7794942579
12
Frame=10  time=5.500fs  energy=-306.17388356Ha  molecule=COOCCCHHHHHH
C       0.0692776950      0.3636345178      0.0423507688
O       1.3666354291      0.1470505446     -0.0688331457
O       2.1956477252      1.2695619350     -0.0065731479
C      -0.7365023215     -0.7909985839      0.0562932943
C      -2.0555163068     -0.8032029595      0.0280743352
C      -0.6159572209      1.8152367789     -0.0594092936
H      -0.1045470087     -1.5900503158     -0.0135160634
H      -2.6705614843      0.0814956575     -0.0141764455
H      -2.5013701706     -1.7803122022      0.0998268596
H       0.1549703788      2.6169662021      0.0314928134
H      -0.9434937880      1.7915494205      1.0629668162
H      -1.4639996271      1.9848178145     -0.7717533791
12
Frame=11  time=6.000fs  energy=-306.17221277Ha  molecule=COOCCCHHHHHH
C       0.0735047984      0.3621636812      0.0445147309
O       1.3694093341      0.1388273964     -0.0747035867
O       2.1977420299      1.2685635214     -0.0072994641
C      -0.7392715254     -0.7897867220      0.0610659214
C      -2.0612803366     -0.7963681269      0.0308514363
C      -0.6149308880      1.8206158358     -0.0645198025
H      -0.1197597109     -1.5759364020     -0.0108203158
H      -2.6623876469      0.0672775724     -0.0114450790
H      -2.4961588111     -1.7677094111      0.1059832756
H       0.1471362748      2.5930210580      0.0244806402
H      -0.9480768563      1.7941960253      1.0989042235
H      -1.4879445641      1.9975319378     -0.7624053010
12
Frame=12  time=6.500fs  energy=-306.17036506Ha  molecule=COOCCCHHHHHH
C       0.0784021272      0.3612724021      0.0463786282
O       1.3717969919      0.1310455997     -0.0804483968
O       2.1998694441      1.2673842874     -0.0080589854
C      -0.7424179970     -0.7878957684      0.0657919274
C      -2.0670098406     -0.7900369249      0.0336805723
C      -0.6139513032      1.8258911168     -0.0691878904
H      -0.1306208691     -1.5736899182     -0.0080615886
H      -2.6559530135      0.0560379034     -0.0081086716
H      -2.4933299636     -1.7565458777      0.1116403318
H       0.1411210264      2.5668095872      0.0153438325
H      -0.9545970120      1.7979107290      1.1310022392
H      -1.5097411037      2.0098767045     -0.7504898111
12
Frame=13  time=7.000fs  energy=-306.16891692Ha  molecule=COOCCCHHHHHH
C       0.0839138610      0.3609120213      0.0479222569
O       1.3737985274      0.1237505514     -0.0860510516
O       2.2020158982      1.2659987376     -0.0088579488
C      -0.7460317653     -0.7852749118      0.0704649429
C      -2.0724494289     -0.7842779535      0.0365840548
C      -0.6132993849      1.8308553557     -0.0733309921
H      -0.1371908482     -1.5837687853     -0.0052485788
H      -2.6525877106      0.0497448712     -0.0043156286
H      -2.4931300586     -1.7476813295      0.1167694366
H       0.1390019203      2.5410278904      0.0042604837
H      -0.9623429466      1.8026639975      1.1574219116
H      -1.5282773733      2.0214807588     -0.7352567492
12
Frame=14  time=7.500fs  energy=-306.16822845Ha  molecule=COOCCCHHHHHH
C       0.0899816298      0.3609968910      0.0491236682
O       1.3754113884      0.1169726119     -0.0914985371
O       2.2041678573      1.2643822489     -0.0097026333
C      -0.7500730926     -0.7820340718      0.0750708647
C      -2.0774214991     -0.7791680941      0.0395838218
C      -0.6132234464      1.8352993604     -0.0769046396
H      -0.1406073012     -1.6043422692     -0.0022419343
H      -2.6533590977      0.0500723068     -0.0002072723
H      -2.4955696557     -1.7416114730      0.1213367730
H       0.1430501921      2.5186738226     -0.0084697253
H      -0.9708376216      1.8084651339      1.1770128604
H      -1.5427660749      2.0319764298     -0.7162882393
12
Frame=15  time=8.000fs  energy=-306.16844994Ha  molecule=COOCCCHHHHHH
C       0.0965373930      0.3614340957      0.0499680552
O       1.3766400660      0.1107237989     -0.0967818872
O       2.2063129943      1.2625163070     -0.0105980961
C      -0.7544026424     -0.7783944644      0.0795882180
C      -2.0818446898     -0.7747545887      0.0426946517
C      -0.6138817786      1.8390732890     -0.0798779513
H      -0.1426344419     -1.6321041360      0.0012075769
H      -2.6588623981      0.0579345448      0.0041320326
H      -2.5005270042     -1.7384574724      0.1253127565
H       0.1549668884      2.5020903834     -0.0226010349
H      -0.9797125781      1.8153117335      1.1892428052
H      -1.5528475143      2.0411186824     -0.6936068458
12
Frame=16  time=8.500fs  energy=-306.16937649Ha  molecule=COOCCCHHHHHH
C       0.1034965448      0.3621486545      0.0504498456
O       1.3775031340      0.1049963775     -0.1018959019
O       2.2084402028      1.2603924888     -0.0115475186
C      -0.7588281989     -0.7746278316      0.0839905117
C      -2.0857328578     -0.7710187084      0.0459220107
C      -0.6152879456      1.8421330230     -0.0822111785
H      -0.1452005815     -1.6632449225      0.0054108316
H      -2.6691444819      0.0731760815      0.0086904705
H      -2.5077761026     -1.7380480554      0.1286717001
H       0.1751203913      2.4922441434     -0.0380529125
H      -0.9885974568      1.8231598184      1.1940446941
H      -1.5585853460      2.0488504016     -0.6676881849
12
Frame=17  time=9.000fs  energy=-306.17045288Ha  molecule=COOCCCHHHHHH
C       0.1107563281      0.3630850115      0.0505738106
O       1.3780338194      0.0997674756     -0.1068396753
O       2.2105412539      1.2580121552     -0.0125523757
C      -0.7631463030     -0.7710126204      0.0882519849
C      -2.0891834371     -0.7678606312      0.0492634757
C      -0.6172990941      1.8445413406     -0.0838481482
H      -0.1500852042     -1.6940865032      0.0106773788
H      -2.6837199667      0.0944869452      0.0135154256
H      -2.5169727928     -1.7399613168      0.1313849634
H       0.2022899549      2.4887132857     -0.0548867673
H      -0.9970489748      1.8319059936      1.1916387004
H      -1.5603901994      2.0552906884     -0.6394006619
12
Frame=18  time=9.500fs  energy=-306.17110614Ha  molecule=COOCCCHHHHHH
C       0.1182063226      0.3641974252      0.0503547232
O       1.3782735985      0.0950085212     -0.1116169771
O       2.2126141787      1.2553827582     -0.0136132015
C      -0.7671863283     -0.7677902092      0.0923570583
C      -2.0923570430     -0.7651154854      0.0527110118
C      -0.6196465682      1.8464379572     -0.0847179481
H      -0.1586196085     -1.7216086315      0.0172249834
H      -2.7016282099      0.1195662030      0.0186921304
H      -2.5276636557     -1.7435284456      0.1334149839
H       0.2339928631      2.4901082208     -0.0732309398
H      -1.0045763583      1.8414048772      1.1824064818
H      -1.5589848826      2.0607134774     -0.6099343777
12
Frame=19  time=10.000fs  energy=-306.17110828Ha  molecule=COOCCCHHHHHH
C       0.1257422296      0.3654428993      0.0498125902
O       1.3782655773      0.0906970909     -0.1162345793
O       2.2146648706      1.2525127435     -0.0147308519
C      -0.7708357497     -0.7651415355      0.0963034592
C      -2.0954470142     -0.7625965169      0.0562559176
C      -0.6220043702      1.8479884207     -0.0847373138
H      -0.1716104532     -1.7437201240      0.0251411081
H      -2.7215626228      0.1455557354      0.0243123382
H      -2.5393134500     -1.7478624633      0.1347082104
H       0.2673527798      2.4947126149     -0.0932172092
H      -1.0107480107      1.8515213315      1.1667750373
H      -1.5554164391      2.0655423858     -0.5806889918
12
Frame=20  time=10.500fs  energy=-306.17062054Ha  molecule=COOCCCHHHHHH
C       0.1332674857      0.3667732803      0.0489649720
O       1.3780537883      0.0868229529     -0.1206996248
O       2.2167050482      1.2494084398     -0.0159076894
C      -0.7740398402     -0.7631890763      0.1000985926
C      -2.0986459115     -0.7601396260      0.0598938394
C      -0.6240526589      1.8493429672     -0.0838126918
H      -0.1894498308     -1.7591556711      0.0344086882
H      -2.7421014468      0.1695440519      0.0304436687
H      -2.5513248380     -1.7519132652      0.1351942712
H       0.2998730317      2.5009626600     -0.1149344803
H      -1.0152566744      1.8621963004      1.1451340639
H      -1.5510255819      2.0703458548     -0.5531550337
12
Frame=21  time=11.000fs  energy=-306.17002848Ha  molecule=COOCCCHHHHHH
C       0.1406828825      0.3681298486      0.0478222657
O       1.3776858870      0.0833838059     -0.1250185127
O       2.2187487293      1.2460736458     -0.0171477963
C      -0.7767873597     -0.7619996097      0.1037566244
C      -2.1021247531     -0.7576272374      0.0636236544
C      -0.6254983281      1.8506272989     -0.0818529863
H      -0.2121821438     -1.7672621026      0.0449387081
H      -2.7619057988      0.1889314346      0.0371223246
H      -2.5630812591     -1.7545736682      0.1348096948
H       0.3295545085      2.5075191657     -0.1383729744
H      -1.0178839214      1.8734867961      1.1179314237
H      -1.5473281808      2.0758181510     -0.5288723435
12
Frame=22  time=11.500fs  energy=-306.16976393Ha  molecule=COOCCCHHHHHH
C       0.1478763328      0.3694443444      0.0463873025
O       1.3772144004      0.0803785350     -0.1291967705
O       2.2208104405      1.2425099419     -0.0184562418
C      -0.7790929956     -0.7615809685      0.1072971845
C      -2.1060197181     -0.7549918102      0.0674436529
C      -0.6260954571      1.8519377898     -0.0788005005
H      -0.2395051713     -1.7678836303      0.0565882774
H      -2.7798745639      0.2017395145      0.0443541261
H      -2.5740402636     -1.7548918739      0.1335343238
H       0.3548419337      2.5133114730     -0.1633829027
H      -1.0184707730      1.8855469857      1.0859043940
H      -1.5457350975      2.0826926399     -0.5093373792
12
Frame=23  time=12.000fs  energy=-306.17001403Ha  molecule=COOCCCHHHHHH
C       0.1547179203      0.3706407340      0.0446578455
O       1.3766950944      0.0778030180     -0.1332391846
O       2.2229066032      1.2387179483     -0.0198376132
C      -0.7809907794     -0.7618678234      0.1107438676
C      -2.1104220448     -0.7522052280      0.0713503372
C      -0.6256747195      1.8533366244     -0.0746761267
H      -0.2707019971     -1.7614550055      0.0691642960
H      -2.7952417991      0.2068260136      0.0521120994
H      -2.5838253695     -1.7522709287      0.1314082888
H       0.3746291317      2.5176484236     -0.1896695285
H      -1.0169777143      1.8985819393      1.0503485949
H      -1.5471617049      2.0915425634     -0.4957756322
12
Frame=24  time=12.500fs  energy=-306.17055022Ha  molecule=COOCCCHHHHHH
C       0.1610631122      0.3716394814      0.0426306964
O       1.3761832943      0.0756474251     -0.1371506614
O       2.2250570777      1.2346995151     -0.0212942818
C      -0.7825406663     -0.7626993299      0.1141232792
C      -2.1153762097     -0.7492682832      0.0753385880
C      -0.6241434854      1.8548618640     -0.0696115130
H      -0.3045166619     -1.7493010215      0.0824215095
H      -2.8076088462      0.2039484539      0.0603426717
H      -2.5922717539     -1.7465313142      0.1285261839
H       0.3881772532      2.5202088017     -0.2167965640
H      -1.0135604505      1.9128125550      1.0133031661
H      -1.5518633579      2.1025696443     -0.4889919318
12
Frame=25  time=13.000fs  energy=-306.17094482Ha  molecule=COOCCCHHHHHH
C       0.1667726825      0.3723704846      0.0403061448
O       1.3757282236      0.0738952024     -0.1409372210
O       2.2272823161      1.2304587160     -0.0228256179
C      -0.7838353997     -0.7638117400      0.1174640592
C      -2.1208879162     -0.7462088460      0.0794014351
C      -0.6214607482      1.8565528216     -0.0638319494
H      -0.3390975939     -1.7339164056      0.0960789080
H      -2.8169786036      0.1937336850      0.0689831969
H      -2.5994234992     -1.7378802971      0.1250210441
H       0.3949719130      2.5208799266     -0.2442099943
H      -1.0085427310      1.9284343944      0.9773175045
H      -1.5595689238      2.1155203258     -0.4893705436
12
Frame=26  time=13.500fs  energy=-306.17094455Ha  molecule=COOCCCHHHHHH
C       0.1717445128      0.3727869993      0.0376943258
O       1.3753681122      0.0725283175     -0.1446064498
O       2.2295953251      1.2259996231     -0.0244287716
C      -0.7849882313     -0.7648700187      0.1207926118
C      -2.1269435293     -0.7430882186      0.0835297031
C      -0.6176149466      1.8584687871     -0.0576096015
H      -0.3721684454     -1.7187979872      0.1098719880
H      -2.8237944921      0.1776235115      0.0779754418
H      -2.6054969467     -1.7268432940      0.1210469430
H       0.3946347005      2.5195956013     -0.2712861797
H      -1.0023417076      1.9455680033      0.9448176889
H      -1.5696465246      2.1297308889     -0.4968001903
12
Frame=27  time=14.000fs  energy=-306.17063329Ha  molecule=COOCCCHHHHHH
C       0.1759339130      0.3728682892      0.0348206401
O       1.3751291721      0.0715381521     -0.1481664896
O       2.2319951102      1.2213223948     -0.0261007455
C      -0.7860942639     -0.7655411069      0.1241261254
C      -2.1335331119     -0.7400018112      0.0877117650
C      -0.6126214124      1.8606781000     -0.0512366433
H      -0.4014944392     -1.7076251572      0.1236185758
H      -2.8288746240      0.1577083954      0.0872689721
H      -2.6108399270     -1.7141607364      0.1167643371
H       0.3870409367      2.5163487838     -0.2974010751
H      -0.9955006536      1.9642563267      0.9176661276
H      -1.5811671992      2.1442298998     -0.5105008130
12
Frame=28  time=14.500fs  energy=-306.17031877Ha  molecule=COOCCCHHHHHH
C       0.1793433002      0.3726116091      0.0317200752
O       1.3750268319      0.0709292036     -0.1516228151
O       2.2344697394      1.2164236422     -0.0278406397
C      -0.7872012433     -0.7655762422      0.1274695609
C      -2.1406501981     -0.7370406644      0.0919347819
C      -0.6065454262      1.8632282109     -0.0450125013
H      -0.4254728903     -1.7032230025      0.1372373840
H      -2.8331233391      0.1361658122      0.0968218056
H      -2.6158633430     -1.7006685218      0.1123237839
H       0.3725002836      2.5112891265     -0.3219903799
H      -0.9886905279      1.9845506974      0.8971967986
H      -1.5928715872      2.1578700886     -0.5290803315
12
Frame=29  time=15.000fs  energy=-306.17023321Ha  molecule=COOCCCHHHHHH
C       0.1819892288      0.3720217756      0.0284238193
O       1.3750707700      0.0707105340     -0.1549760585
O       2.2370053319      1.2113030881     -0.0296504195
C      -0.7883305779     -0.7648574583      0.1308191823
C      -2.1482479824     -0.7342403423      0.0961884331
C      -0.5995331044      1.8661225302     -0.0392206925
H      -0.4434326399     -1.7069466537      0.1507070606
H      -2.8372649580      0.1147092673      0.1065977138
H      -2.6209900701     -1.6872617976      0.1078532394
H       0.3518093335      2.5047548428     -0.3445473675
H      -0.9825382857      2.0066089817      0.8843227426
H      -1.6031453114      2.1694727356     -0.5508133048
12
Frame=30  time=15.500fs  energy=-306.17042079Ha  molecule=COOCCCHHHHHH
C       0.1838764962      0.3711066500      0.0249519520
O       1.3752725063      0.0708869071     -0.1582232678
O       2.2395911179      1.2059692757     -0.0315341787
C      -0.7895222131     -0.7633848484      0.1341684047
C      -2.1561880807     -0.7315833367      0.1004682618
C      -0.5918052884      1.8693168805     -0.0341010618
H      -0.4554620682     -1.7187866005      0.1640162207
H      -2.8419441410      0.0946820406      0.1165647312
H      -2.6266766020     -1.6749759607      0.1034543764
H       0.3262066650      2.4972423492     -0.3646249084
H      -0.9774750088      2.0306793430      0.8795544565
H      -1.6102168144      2.1779898741     -0.5739471741
12
Frame=31  time=16.000fs  energy=-306.17080085Ha  molecule=COOCCCHHHHHH
C       0.1849940253      0.3698748244      0.0213154723
O       1.3756452676      0.0714595586     -0.1613597542
O       2.2422191733      1.2004380271     -0.0334970501
C      -0.7908441916     -0.7612546434      0.1375117385
C      -2.1642335489     -0.7290419317      0.1047764982
C      -0.5836073979      1.8727271339     -0.0298090251
H      -0.4621923333     -1.7375415511      0.1771300524
H      -2.8479611917      0.0774475707      0.1267001109
H      -2.6333830212     -1.6649791385      0.0991997203
H       0.2971414013      2.4893380337     -0.3818923451
H      -0.9736355374      2.0569429535      0.8828423040
H      -1.6125491827      2.1827031534     -0.5970111105
12
Frame=32  time=16.500fs  energy=-306.17114258Ha  molecule=COOCCCHHHHHH
C       0.1853297501      0.3683342532      0.0175220003
O       1.3761955786      0.0724297016     -0.1643800289
O       2.2448820954      1.1947270006     -0.0355440270
C      -0.7923618503     -0.7586556610      0.1408480536
C      -2.1721008414     -0.7266126286      0.1091188706
C      -0.5751726401      1.8762440299     -0.0263709339
H      -0.4646887606     -1.7607944351      0.1899617424
H      -2.8562769991      0.0645105649      0.1369991291
H      -2.6414482856     -1.6583589634      0.0951376903
H       0.2661383612      2.4816998237     -0.3962648435
H      -0.9708042958      2.0852918697      0.8933102544
H      -1.6091811863      2.1833444319     -0.6190102507
12
Frame=33  time=17.000fs  energy=-306.17116351Ha  molecule=COOCCCHHHHHH
C       0.1848912519      0.3664970129      0.0135800526
O       1.3769188792      0.0737960187     -0.1672798878
O       2.2475701492      1.1888537599     -0.0376786144
C      -0.7941100678     -0.7558543513      0.1441837385
C      -2.1795438444     -0.7243140322      0.1134984131
C      -0.5667313549      1.8797561184     -0.0236745364
H      -0.4642807123     -1.7851673509      0.2023577921
H      -2.8677119546      0.0571644580      0.1474787331
H      -2.6510040834     -1.6558558384      0.0913144241
H       0.2350425896      2.4751283057     -0.4080534850
H      -0.9684607821      2.1152267649      0.9092532971
H      -1.5998327151      2.1800046363     -0.6394005862
12
Frame=34  time=17.500fs  energy=-306.17077780Ha  molecule=COOCCCHHHHHH
C       0.1837109701      0.3643857242      0.0095014418
O       1.3778046707      0.0755513991     -0.1700594697
O       2.2502702361      1.1828364772     -0.0399017610
C      -0.7960998617     -0.7531291890      0.1475327103
C      -2.1864220857     -0.7221656326      0.1179123324
C      -0.5585300733      1.8831644680     -0.0215085516
H      -0.4622487186     -1.8072104585      0.2141224041
H      -2.8825614366      0.0560117672      0.1581664684
H      -2.6619633688     -1.6577111439      0.0877907635
H       0.2062711316      2.4706772587     -0.4180464927
H      -0.9659184203      2.1459371940      0.9285473222
H      -1.5847353992      2.1729138908     -0.6579361436
12
Frame=35  time=18.000fs  energy=-306.17017448Ha  molecule=COOCCCHHHHHH
C       0.1818328897      0.3620343795      0.0053020473
O       1.3788437858      0.0776853020     -0.1727230324
O       2.2529676900      1.1766914835     -0.0422122308
C      -0.7983350199     -0.7506903488      0.1509124501
C      -2.1927262094     -0.7201804656      0.1223536463
C      -0.5508273464      1.8863813265     -0.0196096622
H      -0.4595733182     -1.8243231132      0.2250586351
H      -2.9004113365      0.0607961698      0.1690732309
H      -2.6739870411     -1.6636093902      0.0846469665
H       0.1827028898      2.4696633947     -0.4274640744
H      -0.9624376777      2.1764354977      0.9490169921
H      -1.5644115327      2.1622919055     -0.6745197438
12
Frame=36  time=18.500fs  energy=-306.16974231Ha  molecule=COOCCCHHHHHH
C       0.1792999028      0.3594806106      0.0009999378
O       1.3800301183      0.0801861250     -0.1752756928
O       2.2556505905      1.1704313838     -0.0446081834
C      -0.8008185037     -0.7486653105      0.1543391892
C      -2.1985537273     -0.7183675924      0.1268144630
C      -0.5438425383      1.8893466240     -0.0177302804
H      -0.4569216044     -1.8348741374      0.2349846235
H      -2.9202222333      0.0705268183      0.1801670754
H      -2.6864941313     -1.6726966072      0.0819889700
H       0.1669244423      2.4732416105     -0.4375577594
H      -0.9573654401      2.2057630281      0.9687128812
H      -1.5394677893      2.1483266712     -0.6890555945
12
Frame=37  time=19.000fs  energy=-306.16981069Ha  molecule=COOCCCHHHHHH
C       0.1761509742      0.3567555618     -0.0033879691
O       1.3813549341      0.0830389094     -0.1777210957
O       2.2583140830      1.1640671917     -0.0470881599
C      -0.8035555844     -0.7471225090      0.1578240421
C      -2.2040547194     -0.7167319205      0.1312890058
C      -0.5376944750      1.8920566603     -0.0157181666
H      -0.4546998838     -1.8379444041      0.2437428043
H      -2.9406078732      0.0837651212      0.1913652436
H      -2.6987713217     -1.6837233375      0.0799458637
H       0.1603538987      2.4818365555     -0.4490352592
H      -0.9502991396      2.2332131246      0.9862066307
H      -1.5103995290      2.1311797726     -0.7013410457
12
Frame=38  time=19.500fs  energy=-306.17044658Ha  molecule=COOCCCHHHHHH
C       0.1724236408      0.3538806778     -0.0078471093
O       1.3828001725      0.0862223171     -0.1800609558
O       2.2609611682      1.1576111474     -0.0496508105
C      -0.8065503924     -0.7460898561      0.1613710038
C      -2.2093822550     -0.7152705655      0.1357748493
C      -0.5323887094      1.8945693277     -0.0135379466
H      -0.4531031699     -1.8331257821      0.2512110805
H      -2.9601631676      0.0989566910      0.2025433875
H      -2.7101225442     -1.6953107864      0.0786530117
H       0.1630498364      2.4949750072     -0.4618211954
H      -0.9410957934      2.2583816895      1.0006338126
H      -1.4775832987      2.1109932306     -0.7110839636
12
Frame=39  time=20.000fs  energy=-306.17149052Ha  molecule=COOCCCHHHHHH
C       0.1681566116      0.3508716766     -0.0123643245
O       1.3843347871      0.0897074678     -0.1822953877
O       2.2636009884      1.1510781316     -0.0522943434
C      -0.8098011887     -0.7455613463      0.1649758735
C      -2.2146650595     -0.7139656716      0.1402727147
C      -0.5278414320      1.8969891401     -0.0112502245
H      -0.4521641118     -1.8204485339      0.2573118866
H      -2.9776696749      0.1146442921      0.2135535169
H      -2.7199677271     -1.7062080672      0.0782373853
H       0.1740341758      2.5114414927     -0.4751614453
H      -0.9298007066      2.2811007118      1.0116153198
H      -1.4413606464      2.0878922770     -0.7179805547
12
Frame=40  time=20.500fs  energy=-306.17267055Ha  molecule=COOCCCHHHHHH
C       0.1633908711      0.3477461243     -0.0169259973
O       1.3859122805      0.0934592937     -0.1844230834
O       2.2662468368      1.1444851820     -0.0550165285
C      -0.8133035487     -0.7454913466      0.1686241580
C      -2.2199984643     -0.7127793195      0.1447860642
C      -0.5239133460      1.8994441112     -0.0089753223
H      -0.4517667105     -1.8004486392      0.2620247590
H      -2.9921410798      0.1295355208      0.2242407739
H      -2.7278606422     -1.7154295004      0.0788134209
H       0.1917931870      2.5295714184     -0.4878783064
H      -0.9165788177      2.3013427283      1.0191245064
H      -1.4021394218      2.0619674457     -0.7217741670
12
Frame=41  time=21.000fs  energy=-306.17363398Ha  molecule=COOCCCHHHHHH
C       0.1581718188      0.3445277072     -0.0215142824
O       1.3874702391      0.0974412452     -0.1864412102
O       2.2689144509      1.1378491109     -0.0578153438
C      -0.8170620284     -0.7457756032      0.1722881526
C      -2.2254439258     -0.7116587127      0.1493206383
C      -0.5204246665      1.9020595409     -0.0068332434
H      -0.4515950526     -1.7743787320      0.2654082171
H      -3.0028018669      0.1425289784      0.2344589196
H      -2.7334658704     -1.7222764650      0.0804841851
H       0.2147343588      2.5475734105     -0.4986656149
H      -0.9016464243      2.3190911638      1.0232120829
H      -1.3606935281      2.0333485325     -0.7224349928
12
Frame=42  time=21.500fs  energy=-306.17396606Ha  molecule=COOCCCHHHHHH
C       0.1525543599      0.3412446232     -0.0261026562
O       1.3889356786      0.1016205224     -0.1883454731
O       2.2716201116      1.1311837826     -0.0606896689
C      -0.8211068204     -0.7462294409      0.1759265754
C      -2.2310316136     -0.7105531299      0.1538840161
C      -0.5171357440      1.9049333406     -0.0048667032
H      -0.4510310180     -1.7444757037      0.2676263550
H      -3.0090887965      0.1527707313      0.2440839737
H      -2.7365450598     -1.7262985659      0.0833401695
H       0.2413823190      2.5638028904     -0.5063713087
H      -0.8852254287      2.3342200295      1.0237517115
H      -1.3186360811      2.0024392637     -0.7206107562
12
Frame=43  time=22.000fs  energy=-306.17346956Ha  molecule=COOCCCHHHHHH
C       0.1466065633      0.3379347056     -0.0306578582
O       1.3902362389      0.1059683986     -0.1901310881
O       2.2743787386      1.1245001530     -0.0636391885
C      -0.8255068902     -0.7465952002      0.1794914161
C      -2.2367632204     -0.7094349329      0.1584851461
C      -0.5137313376      1.9081274815     -0.0030121364
H      -0.4491195417     -1.7139464697      0.2689489933
H      -3.0107038077      0.1597265928      0.2530215242
H      -2.7369829330     -1.7272454641      0.0874533179
H       0.2702664374      2.5768823716     -0.5101299309
H      -0.8675452643      2.3465039065      1.0204885436
H      -1.2784493444      1.9700263515     -0.7179286973
12
Frame=44  time=22.500fs  energy=-306.17246656Ha  molecule=COOCCCHHHHHH
C       0.1404089242      0.3346621479     -0.0351474634
O       1.3913065628      0.1104564394     -0.1917940227
O       2.2772026979      1.1178091893     -0.0666637468
C      -0.8303622064     -0.7466017873      0.1829397652
C      -2.2426097993     -0.7083085669      0.1631332782
C      -0.5098532327      1.9116668309     -0.0011433510
H      -0.4447581997     -1.6863089452      0.2696862011
H      -3.0076780141      0.1632260699      0.2612105485
H      -2.7348469856     -1.7250641536      0.0928711051
H       0.2999048216      2.5857543979     -0.5093680087
H      -0.8488804474      2.3557472295      1.0133437363
H      -1.2429211167      1.9370367084     -0.7167354856
12
Frame=45  time=23.000fs  energy=-306.17168040Ha  molecule=COOCCCHHHHHH
C       0.1340527051      0.3315195099     -0.0395417795
O       1.3920855621      0.1150548738     -0.1933314606
O       2.2801008081      1.1111232716     -0.0697628107
C      -0.8357789189     -0.7460246724      0.1862393237
C      -2.2485053135     -0.7071994325      0.1678366347
C      -0.5051663271      1.9155384672      0.0008702790
H      -0.4369919148     -1.6645828552      0.2701055430
H      -3.0003668535      0.1634394511      0.2686250002
H      -2.7304219693     -1.7199546217      0.0996150907
H       0.3289780344      2.5897422421     -0.5038115038
H      -0.8295564497      2.3618680101      1.0025687402
H      -1.2144944132      1.9042326199     -0.7194963639
12
Frame=46  time=23.500fs  energy=-306.17171726Ha  molecule=COOCCCHHHHHH
C       0.1276368809      0.3286078847     -0.0438115290
O       1.3925139597      0.1197320332     -0.1947420259
O       2.2830777946      1.1044552156     -0.0729350282
C      -0.8418417901     -0.7447133312      0.1893653900
C      -2.2543434348     -0.7061343662      0.1726015211
C      -0.4994461734      1.9197021279      0.0030893325
H      -0.4252547170     -1.6508092086      0.2703880650
H      -2.9893826101      0.1608057132      0.2752714829
H      -2.7241804098     -1.7124182939      0.1076801359
H       0.3564447873      2.5885187823     -0.4934505185
H      -0.8099341967      2.3649455135      0.9887227869
H      -1.1944933035      1.8720658591     -0.7278578177
12
Frame=47  time=24.000fs  energy=-306.17255747Ha  molecule=COOCCCHHHHHH
C       0.1212650859      0.3260157547     -0.0479241061
O       1.3925344592      0.1244523939     -0.1960259671
O       2.2861345596      1.0978180215     -0.0761779983
C      -0.8485836633     -0.7426135445      0.1922984679
C      -2.2599824073     -0.7051286882      0.1774321089
C      -0.4926191774      1.9240943536      0.0054467601
H      -0.4095627618     -1.6457378037      0.2706078454
H      -2.9755376546      0.1559742709      0.2811818346
H      -2.7167435606     -1.7032551396      0.1170321368
H       0.3815291720      2.5819845975     -0.4784872224
H      -0.7904500538      2.3652569009      0.9727007490
H      -1.1827703544      1.8408548355     -0.7420254745
12
Frame=48  time=24.500fs  energy=-306.17358126Ha  molecule=COOCCCHHHHHH
C       0.1150425189      0.3238121531     -0.0518436992
O       1.3920923221      0.1291750539     -0.1971846506
O       2.2892701581      1.0912249040     -0.0794885371
C      -0.8559684336     -0.7397803826      0.1950251735
C      -2.2652570891     -0.7041822983      0.1823308382
C      -0.4847445078      1.9286201922      0.0077453375
H      -0.3905861993     -1.6487361420      0.2707330851
H      -2.9597888539      0.1497566727      0.2863990505
H      -2.7088561236     -1.6935075268      0.1276111992
H       0.4036822969      2.5702018070     -0.4593541500
H      -0.7716929588      2.3632625482      0.9557455270
H      -1.1778788010      1.8110787576     -0.7607359808
12
Frame=49  time=25.000fs  energy=-306.17407343Ha  molecule=COOCCCHHHHHH
C       0.1090729374      0.3220527508     -0.0555388029
O       1.3911353013      0.1338534196     -0.1982194236
O       2.2924849639      1.0846889504     -0.0828631614
C      -0.8638976342     -0.7363735146      0.1975406041
C      -2.2699935907     -0.7032842459      0.1872978969
C      -0.4759605270      1.9331495081      0.0097186961
H      -0.3695708130     -1.6579778886      0.2706512292
H      -2.9431902916      0.1431008423      0.2909770090
H      -2.7013235323     -1.6843527776      0.1393458609
H       0.4226162718      2.5534452965     -0.4367248041
H      -0.7544196230      2.3595478039      0.9393088393
H      -1.1776784937      1.7834718364     -0.7818164194
12
Frame=50  time=25.500fs  energy=-306.17367643Ha  molecule=COOCCCHHHHHH
C       0.1034560608      0.3207870207     -0.0589897195
O       1.3896135809      0.1384358594     -0.1991313574
O       2.2957823019      1.0782233234     -0.0862982414
C      -0.8722292183     -0.7326362452      0.1998500432
C      -2.2740228530     -0.7024286758      0.1923286516
C      -0.4664248043      1.9375305056      0.0111146161
H      -0.3481622552     -1.6708127080      0.2702078014
H      -2.9269026252      0.1371421619      0.2950107452
H      -2.6948993046     -1.6769565520      0.1521719600
H       0.4383593366      2.5322755887     -0.4114433661
H      -0.7394782422      2.3547493228      0.9248615073
H      -1.1800695957      1.7588763090     -0.8030473557
12
Frame=51  time=26.000fs  energy=-306.17254080Ha  molecule=COOCCCHHHHHH
C       0.0982844528      0.3200584100     -0.0621898044
O       1.3874817185      0.1428665084     -0.1999220493
O       2.2991676551      1.0718424232     -0.0897902449
C      -0.8808045105     -0.7288461720      0.2019673917
C      -2.2771974325     -0.7016297907      0.1974119379
C      -0.4562854797      1.9416113842      0.0117272316
H      -0.3281078000     -1.6843554333      0.2692492153
H      -2.9121417088      0.1332022305      0.2986494967
H      -2.6901806657     -1.6723159836      0.1660443910
H       0.4512425831      2.5075039983     -0.3844103097
H      -0.7277358826      2.3495159059      0.9138318854
H      -1.1833070683      1.7380489802     -0.8225965485
12
Frame=52  time=26.500fs  energy=-306.17116878Ha  molecule=COOCCCHHHHHH
C       0.0936350417      0.3199000810     -0.0651413511
O       1.3847019277      0.1470872957     -0.2005943667
O       2.3026471258      1.0655630101     -0.0933361375
C      -0.8894792025     -0.7252472517      0.2039103554
C      -2.2794132987     -0.7009207601      0.2025320127
C      -0.4456827960      1.9452577426      0.0114122975
H      -0.3109025484     -1.6961849165      0.2676602190
H      -2.8999608367      0.1325719706      0.3020548183
H      -2.6875440924     -1.6711082396      0.1809426514
H       0.4619068517      2.4801604888     -0.3565175096
H      -0.7199638959      2.3444098451      0.9074351682
H      -1.1860374287      1.7215271596     -0.8390929419
12
Frame=53  time=27.000fs  energy=-306.17003644Ha  molecule=COOCCCHHHHHH
C       0.0895597665      0.3203297516     -0.0678473897
O       1.3812456481      0.1510413223     -0.2011527798
O       2.3062257774      1.0594041217     -0.0969335727
C      -0.8981345809     -0.7220095122      0.2056940102
C      -2.2806284881     -0.7003419524      0.2076736623
C      -0.4347726820      1.9483557197      0.0101106302
H      -0.2976259957     -1.7046833878      0.2653801127
H      -2.8910234219      0.1361834552      0.3053447832
H      -2.6871202160     -1.6735619713      0.1968689686
H       0.4713972824      2.4515500533     -0.3286601873
H      -0.7166745293      2.3397386085      0.9063129616
H      -1.1872225633      1.7096310046     -0.8515658070
12
Frame=54  time=27.500fs  energy=-306.16936719Ha  molecule=COOCCCHHHHHH
C       0.0860864057      0.3213454267     -0.0703045778
O       1.3770928958      0.1546761909     -0.2016030239
O       2.3099052015      1.0533857956     -0.1005809498
C      -0.9066708806     -0.7192273981      0.2073258248
C      -2.2808711407     -0.6999277736      0.2128278671
C      -0.4237499548      1.9508064719      0.0078595253
H      -0.2889662415     -1.7089684635      0.2624004649
H      -2.8855026265      0.1443470334      0.3085622598
H      -2.6888110385     -1.6793888565      0.2138324394
H       0.4812575471      2.4232713762     -0.3017621005
H      -0.7180271820      2.3354621631      0.9102873438
H      -1.1860545616      1.7025715262     -0.8593571464
12
Frame=55  time=28.000fs  energy=-306.16919398Ha  molecule=COOCCCHHHHHH
C       0.0832290499      0.3229254654     -0.0725002463
O       1.3722305444      0.1579445550     -0.2019511482
O       2.3136813733      1.0475270535     -0.1042772216
C      -0.9149963198     -0.7169377710      0.2088034386
C      -2.2802339602     -0.6996983689      0.2179948672
C      -0.4128483287      1.9525251930      0.0047827188
H      -0.2853170487     -1.7086559740      0.2587531153
H      -2.8831182138      0.1566651097      0.3116747829
H      -2.6923382714     -1.6878048682      0.2318265270
H       0.4934942921      2.3971143976     -0.2767452755
H      -0.7238469041      2.3312344613      0.9184009789
H      -1.1819794330      1.7005316038     -0.8621012308
12
Frame=56  time=28.500fs  energy=-306.16954110Ha  molecule=COOCCCHHHHHH
C       0.0809971294      0.3250368267     -0.0744122326
O       1.3666504841      0.1608011671     -0.2022027213
O       2.3175446318      1.0418448362     -0.1080215722
C      -0.9230182917     -0.7151416040      0.2101145689
C      -2.2788580112     -0.6996576674      0.2231838679
C      -0.4023036758      1.9534508873      0.0010574541
H      -0.2868706349     -1.7036379537      0.2544951542
H      -2.8832691556      0.1721471166      0.3145996897
H      -2.6973097589     -1.6976576085      0.2508116642
H       0.5102002510      2.3747864536     -0.2543833301
H      -0.7337053956      2.3265344151      0.9291737573
H      -1.1747612956      1.7036834992     -0.8597432756
12
Frame=57  time=29.000fs  energy=-306.17044824Ha  molecule=COOCCCHHHHHH
C       0.0793931385      0.3276501226     -0.0760104405
O       1.3603496073      0.1632019817     -0.2023628262
O       2.3214813261      1.0363542901     -0.1118133445
C      -0.9306397026     -0.7138210663      0.2112387976
C      -2.2769111999     -0.6997967561      0.2284108381
C      -0.3922897575      1.9535602963     -0.0031253950
H      -0.2936777537     -1.6939751482      0.2496987544
H      -2.8852080426      0.1894742558      0.3172415004
H      -2.7032866064     -1.7076369499      0.2707072630
H       0.5328605648      2.3575265018     -0.2350927373
H      -0.7469848149      2.3208147011      0.9409174956
H      -1.1644879561      1.7121723769     -0.8525846239
12
Frame=58  time=29.500fs  energy=-306.17181326Ha  molecule=COOCCCHHHHHH
C       0.0783990107      0.3307515199     -0.0772599117
O       1.3533343078      0.1651105998     -0.2024365237
O       2.3254760129      1.0310676876     -0.1156521472
C      -0.9377617938     -0.7129460132      0.2121499737
C      -2.2745697527     -0.7000989725      0.2336963469
C      -0.3828651885      1.9528723932     -0.0075831262
H      -0.3056639393     -1.6799270956      0.2444526799
H      -2.8881837720      0.2072765505      0.3195219529
H      -2.7098274880     -1.7164813335      0.2913923707
H       0.5617612709      2.3458419431     -0.2188359162
H      -0.7628905819      2.3136106899      0.9519807730
H      -1.1515263955      1.7260873563     -0.8413540754
12
Frame=59  time=30.000fs  energy=-306.17330651Ha  molecule=COOCCCHHHHHH
C       0.0779610147      0.3343423645     -0.0781257791
O       1.3456299822      0.1665091237     -0.2024290800
O       2.3295137653      1.0259900359     -0.1195377889
C      -0.9442950281     -0.7124664552      0.2128177762
C      -2.2720092940     -0.7005417598      0.2390645254
C      -0.3739587079      1.9514432728     -0.0121374753
H      -0.3225681752     -1.6620913894      0.2388723057
H      -2.8914979889      0.2242917482      0.3213872241
H      -2.7165088774     -1.7231013019      0.3127112751
H       0.5958288898      2.3395024823     -0.2052244910
H      -0.7804640671      2.3045891361      0.9608946549
H      -1.1364938791      1.7454180050     -0.8272623545
12
Frame=60  time=30.500fs  energy=-306.17452340Ha  molecule=COOCCCHHHHHH
C       0.0779835504      0.3384279128     -0.0785801200
O       1.3372920098      0.1674067354     -0.2023458776
O       2.3335813719      1.0211134290     -0.1234699266
C      -0.9501773431     -0.7122957779      0.2132096992
C      -2.2694024828     -0.7010951399      0.2445424086
C      -0.3654000879      1.9493551902     -0.0166032507
H      -0.3438085821     -1.6415715342      0.2331026566
H      -2.8944930871      0.2394120771      0.3227941804
H      -2.7229443507     -1.7266246542      0.3344795627
H       0.6330062317      2.3377540177     -0.1937644250
H      -0.7986695089      2.2935514717      0.9664709345
H      -1.1202356008      1.7700036344     -0.8119271367
12
Frame=61  time=31.000fs  energy=-306.17521294Ha  molecule=COOCCCHHHHHH
C       0.0783355977      0.3430045462     -0.0786083164
O       1.3284107147      0.1678423837     -0.2021925000
O       2.3376670639      1.0164143908     -0.1274477519
C      -0.9553921048     -0.7122971372      0.2132963429
C      -2.2669156240     -0.7017215198      0.2501582202
C      -0.3569775609      1.9467012016     -0.0207962822
H      -0.3683633827     -1.6200618254      0.2273006792
H      -2.8965399466      0.2517082643      0.3236974811
H      -2.7288173340     -1.7264208284      0.3564907309
H       0.6709191990      2.3395884011     -0.1840671914
H      -0.8165579751      2.2804138737      0.9678856736
H      -1.1037194604      1.7995391897     -0.7970971362
12
Frame=62  time=31.500fs  energy=-306.17536730Ha  molecule=COOCCCHHHHHH
C       0.0788654830      0.3480523471     -0.0782110282
O       1.3191056847      0.1678768297     -0.2019750115
O       2.3417608314      1.0118568451     -0.1314699747
C      -0.9599738378     -0.7122838533      0.2130587819
C      -2.2647008198     -0.7023798798      0.2559385486
C      -0.3484753298      1.9435735470     -0.0245611906
H      -0.3947659645     -1.5997850218      0.2216011065
H      -2.8970848332      0.2604841256      0.3240601257
H      -2.7339123028     -1.7221366219      0.3785279122
H       0.7072634644      2.3439379906     -0.1758847548
H      -0.8334122551      2.2651894005      0.9647416081
H      -1.0878737383      1.8336779946     -0.7843632196
12
Frame=63  time=32.000fs  energy=-306.17522831Ha  molecule=COOCCCHHHHHH
C       0.0794145700      0.3535363450     -0.0774008710
O       1.3095130494      0.1675742959     -0.2017000939
O       2.3458549571      1.0074000448     -0.1355350610
C      -0.9639935015     -0.7120413876      0.2124923283
C      -2.2628852829     -0.7030302643      0.2619053198
C      -0.3396878896      1.9400565271     -0.0277957484
H      -0.4212754306     -1.5832289427      0.2160860078
H      -2.8957396127      0.2653478334      0.3238766159
H      -2.7381297778     -1.7137350433      0.4003824856
H       0.7399023483      2.3498247714     -0.1690235438
H      -0.8487818131      2.2479882484      0.9570914116
H      -1.0734760940      1.8721374129     -0.7750311413
12
Frame=64  time=32.500fs  energy=-306.17518646Ha  molecule=COOCCCHHHHHH
C       0.0798254149      0.3594155715     -0.0761978145
O       1.2997719341      0.1669849554     -0.2013749402
O       2.3499430801      1.0030068277     -0.1396414919
C      -0.9675267942     -0.7113678343      0.2116039978
C      -2.2615631675     -0.7036309352      0.2680728171
C      -0.3304435414      1.9362196991     -0.0304577850
H      -0.4461785609     -1.5726850790      0.2107741818
H      -2.8923432507      0.2662487259      0.3231813308
H      -2.7414988107     -1.7015397957      0.4218796493
H       0.7670840571      2.3564752691     -0.1632796682
H      -0.8624381132      2.2290275248      0.9453988332
H      -1.0611016790      1.9146891172     -0.7700752067
12
Frame=65  time=33.000fs  energy=-306.17554889Ha  molecule=COOCCCHHHHHH
C       0.0799451370      0.3656489475     -0.0746268911
O       1.2900167175      0.1661382902     -0.2010074216
O       2.3540187073      0.9986471631     -0.1437877130
C      -0.9706267122     -0.7101107944      0.2104074457
C      -2.2607929207     -0.7041290937      0.2744449241
C      -0.3206341443      1.9321201615     -0.0325620635
H      -0.4680413441     -1.5697905179      0.2056271191
H      -2.8869525983      0.2634508807      0.3220333513
H      -2.7441923404     -1.6862599337      0.4429063941
H       0.7876402655      2.3633313622     -0.1584100353
H      -0.8742902382      2.2086227883      0.9304138182
H      -1.0510460994      1.9610303330     -0.7700305371
12
Frame=66  time=33.500fs  energy=-306.17635236Ha  molecule=COOCCCHHHHHH
C       0.0796253742      0.3721904161     -0.0727167108
O       1.2803773458      0.1650486829     -0.2006070335
O       2.3580742887      0.9942968180     -0.1479717552
C      -0.9733122451     -0.7081871934      0.2089187603
C      -2.2605964935     -0.7044596994      0.2810141469
C      -0.3102337429      1.9278168516     -0.0341804776
H      -0.4858643675     -1.5752391462      0.2005667339
H      -2.8797930770      0.2574925391      0.3204908086
H      -2.7465326839     -1.6689361367      0.4634305835
H       0.8009925956      2.3699832013     -0.1541198307
H      -0.8843154944      2.1871533188      0.9130276182
H      -1.0432016210      2.0106258274     -0.7748164137
12
Frame=67  time=34.000fs  energy=-306.17735150Ha  molecule=COOCCCHHHHHH
C       0.0787254918      0.3789826939     -0.0704975967
O       1.2709803855      0.1637266045     -0.2001858682
O       2.3621020037      0.9899340894     -0.1521908593
C      -0.9755702822     -0.7055900473      0.2071536301
C      -2.2609592209     -0.7045581114      0.2877632925
C      -0.2992981111      1.9233863330     -0.0354357618
H      -0.4991741573     -1.5886882638      0.1955019285
H      -2.8712207074      0.2491482883      0.3185964603
H      -2.7489756400     -1.6508037624      0.4835063866
H       0.8071441102      2.3761092471     -0.1500912216
H      -0.8925694089      2.1650145429      0.8941897211
H      -1.0370527888      2.0626148104     -0.7837160194
12
Frame=68  time=34.500fs  energy=-306.17819599Ha  molecule=COOCCCHHHHHH
C       0.0771251889      0.3859629086     -0.0679991683
O       1.2619436481      0.1621845596     -0.1997585176
O       2.3660961596      0.9855377453     -0.1564415243
C      -0.9773711478     -0.7023815246      0.2051265859
C      -2.2618320856     -0.7043731428      0.2946682732
C      -0.2879472442      1.9189245461     -0.0364740582
H      -0.5080016765     -1.6089210158      0.1903527095
H      -2.8616879564      0.2393230376      0.3163820728
H      -2.7520508111     -1.6331168002      0.5032661195
H       0.8066881692      2.3814621665     -0.1460357603
H      -0.8992080030      2.1425704419      0.8748279152
H      -1.0318778442      2.1158881979     -0.7956453089
12
Frame=69  time=35.000fs  energy=-306.17858296Ha  molecule=COOCCCHHHHHH
C       0.0747370250      0.3930821453     -0.0652467127
O       1.2533679289      0.1604303391     -0.1993406766
O       2.3700537710      0.9810883615     -0.1607201767
C      -0.9786837532     -0.6986815711      0.2028513686
C      -2.2631370003     -0.7038686825      0.3017015470
C      -0.2763505653      1.9145258014     -0.0374347434
H      -0.5128201152     -1.6341077075      0.1850661746
H      -2.8516849666      0.2288748632      0.3138788973
H      -2.7562406293     -1.6169793409      0.5228860443
H       0.8007279299      2.3859080705     -0.1417228148
H      -0.9044314284      2.1201367672      0.8557556610
H      -1.0269266558      2.1693231546     -0.8094839272
12
Frame=70  time=35.500fs  energy=-306.17827539Ha  molecule=COOCCCHHHHHH
C       0.0715032867      0.4003261013     -0.0622596562
O       1.2453361252      0.1584525284     -0.1989473428
O       2.3739697664      0.9765728249     -0.1650239563
C      -0.9794733237     -0.6946671184      0.2003405188
C      -2.2647773673     -0.7030209610      0.3088375997
C      -0.2647285642      1.9102571767     -0.0384503975
H      -0.5144935296     -1.6618793350      0.1796269058
H      -2.8416995211      0.2185250462      0.3111190143
H      -2.7618611174     -1.6032498280      0.5425248757
H       0.7907561539      2.3894724125     -0.1369593506
H      -0.9084061745      2.0980217147      0.8376789398
H      -1.0213432726      2.2219397712     -0.8241476479
12
Frame=71  time=36.000fs  energy=-306.17722516Ha  molecule=COOCCCHHHHHH
C       0.0673862533      0.4077187800     -0.0590554528
O       1.2379201198      0.1562135634     -0.1985918620
O       2.3778287020      0.9719883873     -0.1693508448
C      -0.9797023431     -0.6905589339      0.1976054298
C      -2.2666515566     -0.7018234910      0.3160581608
C      -0.2533386490      1.9061564791     -0.0396578343
H      -0.5140788747     -1.6894746091      0.1740579654
H      -2.8322264449      0.2089330415      0.3081317122
H      -2.7690401386     -1.5925451821      0.5622754647
H       0.7784723344      2.3922994607     -0.1315586505
H      -0.9112568172      2.0765864382      0.8212504380
H      -1.0140600728      2.2728855615     -0.8385210095
12
Frame=72  time=36.500fs  energy=-306.17569985Ha  molecule=COOCCCHHHHHH
C       0.0623712596      0.4153038300     -0.0556556539
O       1.2311832299      0.1536589759     -0.1982851326
O       2.3815998265      0.9673411891     -0.1736993662
C      -0.9793472317     -0.6865801705      0.1946580866
C      -2.2686628733     -0.7002965717      0.3233540664
C      -0.2424178988      1.9022489219     -0.0411800464
H      -0.5125503491     -1.7142074331      0.1684119612
H      -2.8237797173      0.2007992049      0.3049455169
H      -2.7777579140     -1.5852608458      0.5821458377
H       0.7653836701      2.3945521205     -0.1253506548
H      -0.9130884321      2.0562561322      0.8069983401
H      -1.0039610541      2.3214290049     -0.8515530270
12
Frame=73  time=37.000fs  energy=-306.17412057Ha  molecule=COOCCCHHHHHH
C       0.0564805686      0.4231157141     -0.0520905166
O       1.2251702551      0.1507355269     -0.1980334395
O       2.3852396869      0.9626396744     -0.1780684301
C      -0.9784085399     -0.6829120706      0.1915124409
C      -2.2707267654     -0.6984949392      0.3307256136
C      -0.2321287017      1.8985580852     -0.0430932010
H      -0.5106433573     -1.7339443842      0.1627577150
H      -2.8168854333      0.1949046426      0.3015900220
H      -2.7878730219     -1.5815365480      0.6020470801
H       0.7524874808      2.3964006918     -0.1182211941
H      -0.9139871558      2.0374704217      0.7951979263
H      -0.9901899073      2.3670167541     -0.8624618014
12
Frame=74  time=37.500fs  energy=-306.17280555Ha  molecule=COOCCCHHHHHH
C       0.0497857017      0.4311592629     -0.0484010419
O       1.2198914501      0.1474057836     -0.1978361291
O       2.3886989635      0.9578893532     -0.1824571152
C      -0.9769048623     -0.6796756927      0.1881843606
C      -2.2727780334     -0.6965072407      0.3381828102
C      -0.2225609103      1.8951058561     -0.0454167628
H      -0.5088385340     -1.7472549189      0.1571646680
H      -2.8120509422      0.1920557067      0.2980926691
H      -2.7991252156     -1.5811875607      0.6217849017
H       0.7404089130      2.3980985419     -0.1101286314
H      -0.9140120273      2.0206190652      0.7858417062
H      -0.9723018461      2.4092713288     -0.8707968839
12
Frame=75  time=38.000fs  energy=-306.17189401Ha  molecule=COOCCCHHHHHH
C       0.0424092552      0.4394033151     -0.0446377942
O       1.2153142539      0.1436537615     -0.1976851923
O       2.3919285559      0.9530913513     -0.1868643472
C      -0.9748621314     -0.6769387022      0.1846910235
C      -2.2747774158     -0.6944418472      0.3457440652
C      -0.2137715014      1.8919100569     -0.0481281526
H      -0.5074151960     -1.7532871153      0.1516902764
H      -2.8096988576      0.1929235985      0.2944808467
H      -2.8111313586     -1.5836755897      0.6410652291
H       0.7297779958      2.4000478247     -0.1010852311
H      -0.9132011523      2.0060084450      0.7786971797
H      -0.9502145687      2.4479152884     -0.8763390472
12
Frame=76  time=38.500fs  energy=-306.17141523Ha  molecule=COOCCCHHHHHH
C       0.0345136835      0.4477838779     -0.0408570593
O       1.2113690566      0.1394831829     -0.1975668812
O       2.3948833044      0.9482425707     -0.1912888095
C      -0.9723077811     -0.6747304317      0.1810504982
C      -2.2767136638     -0.6924027354      0.3534318379
C      -0.2058166182      1.8889857633     -0.0511839603
H      -0.5065194714     -1.7515810567      0.1463747007
H      -2.8100878436      0.1978524427      0.2907960989
H      -2.8234022117     -1.5881769525      0.6595222236
H       0.7214582975      2.4028056002     -0.0911189570
H      -0.9115949227      1.9938697700      0.7733947967
H      -0.9240879464      2.4826942167     -0.8789752681
12
Frame=77  time=39.000fs  energy=-306.17136276Ha  molecule=COOCCCHHHHHH
C       0.0262816488      0.4562115749     -0.0371159073
O       1.2079637102      0.1349126074     -0.1974640340
O       2.3975234270      0.9433359887     -0.1957291563
C      -0.9692708643     -0.6730514046      0.1772817218
C      -2.2785993309     -0.6904662247      0.3612661645
C      -0.1987540849      1.8863534306     -0.0545369597
H      -0.5062110867     -1.7419678733      0.1412403275
H      -2.8132563490      0.2067287405      0.2871138760
H      -2.8353870356     -1.5937231128      0.6767630123
H       0.7164691435      2.4069917744     -0.0802313420
H      -0.9092592733      1.9843829467      0.7695183578
H      -0.8942256317      2.5133382468     -0.8786336738
12
Frame=78  time=39.500fs  energy=-306.17168807Ha  molecule=COOCCCHHHHHH
C       0.0178961735      0.4645792165     -0.0334677332
O       1.2049979752      0.1299716700     -0.1973578912
O       2.3998141084      0.9383609808     -0.2001843036
C      -0.9657868058     -0.6718705480      0.1734050884
C      -2.2804624695     -0.6886679385      0.3692585378
C      -0.1926201815      1.8840538145     -0.0581460816
H      -0.5064670180     -1.7246171218      0.1362908485
H      -2.8190089635      0.2189578839      0.2835587343
H      -2.8465231183     -1.5993418462      0.6924109475
H       0.7156768555      2.4130965615     -0.0683692483
H      -0.9062951449      1.9776841099      0.7666809758
H      -0.8610226452      2.5395570935     -0.8752801869
12
Frame=79  time=40.000fs  energy=-306.17223124Ha  molecule=COOCCCHHHHHH
C       0.0095274439      0.4727677447     -0.0299593208
O       1.2023737277      0.1247002672     -0.1972293259
O       2.4017241251      0.9333037578     -0.2046535754
C      -0.9619070131     -0.6711101629      0.1694438942
C      -2.2823374170     -0.6870028569      0.3774080723
C      -0.1873998854      1.8821633812     -0.0619789673
H      -0.5071293412     -1.7002276375      0.1315047489
H      -2.8269450014      0.2335446118      0.2803082454
H      -2.8562775532     -1.6041553925      0.7061369150
H       0.7194691859      2.4212640487     -0.0554267296
H      -0.9028391515      1.9738535063      0.7645721341
H      -0.8249537735      2.5610501882     -0.8689466672
12
Frame=80  time=40.500fs  energy=-306.17269301Ha  molecule=COOCCCHHHHHH
C       0.0013292200      0.4806527353     -0.0266296579
O       1.2000017875      0.1191488761     -0.1970601518
O       2.4032247718      0.9281480443     -0.2091366541
C      -0.9577132413     -0.6706278838      0.1654261076
C      -2.2842577944     -0.6854354613      0.3857010226
C      -0.1830099838      1.8808004758     -0.0660073386
H      -0.5078018614     -1.6702620087      0.1268217706
H      -2.8365100929      0.2492413156      0.2775824542
H      -2.8641890439     -1.6074332009      0.7176805159
H       0.7276008004      2.4311588531     -0.0412770141
H      -0.8990632987      1.9729053548      0.7629661940
H      -0.7865913334      2.5775281645     -0.8597692167
12
Frame=81  time=41.000fs  energy=-306.17273484Ha  molecule=COOCCCHHHHHH
C      -0.0065571965      0.4881154855     -0.0235102464
O       1.1978072983      0.1133767651     -0.1968348654
O       2.4042901236      0.9228761932     -0.2136334109
C      -0.9533334100     -0.6702122065      0.1613853382
C      -2.2862522359     -0.6839149681      0.3941137376
C      -0.1793028858      1.8801152470     -0.0701967424
H      -0.5077507279     -1.6370443110      0.1221320776
H      -2.8470493409      0.2647208315      0.2756207760
H      -2.8699068681     -1.6086097525      0.7268612462
H       0.7392617376      2.4419838106     -0.0258169586
H      -0.8951723540      1.9747951289      0.7616912824
H      -0.7466373717      2.5887575377     -0.8480301458
12
Frame=82  time=41.500fs  energy=-306.17216624Ha  molecule=COOCCCHHHHHH
C      -0.0139989624      0.4950583960     -0.0206266466
O       1.1957345469      0.1074480282     -0.1965424088
O       2.4048986734      0.9174706109     -0.2181437708
C      -0.9489513786     -0.6696013835      0.1573613528
C      -2.2883377668     -0.6823896620      0.4026167333
C      -0.1760863052      1.8802638714     -0.0744942555
H      -0.5059191446     -1.6036221563      0.1172859391
H      -2.8578663503      0.2787470689      0.2746546607
H      -2.8731986918     -1.6072875747      0.7335746449
H       0.7533000677      2.4526419931     -0.0090045609
H      -0.8913978859      1.9794345046      0.7605725998
H      -0.7059487461      2.5946383144     -0.8341992324
12
Frame=83  time=42.000fs  energy=-306.17109187Ha  molecule=COOCCCHHHHHH
C      -0.0208746133      0.5014151116     -0.0180005492
O       1.1937486872      0.1014284422     -0.1961768174
O       2.4050356895      0.9119152070     -0.2226677520
C      -0.9447981453     -0.6685216004      0.1534007031
C      -2.2905087994     -0.6808104918      0.4111764853
C      -0.1731501217      1.8813756543     -0.0788191208
H      -0.5011171789     -1.5734020362      0.1121251683
H      -2.8683013440      0.2903087945      0.2748849830
H      -2.8739199238     -1.6032707248      0.7377800355
H       0.7684780027      2.4619619182      0.0091186948
H      -0.8879791126      1.9867007358      0.7593828952
H      -0.6655210148      2.5953003102     -0.8189632316
12
Frame=84  time=42.500fs  energy=-306.16989307Ha  molecule=COOCCCHHHHHH
C      -0.0270804278      0.5071492194     -0.0156512053
O       1.1918280783      0.0953818075     -0.1957355131
O       2.4046956980      0.9061971549     -0.2272055718
C      -0.9411183212     -0.6667352527      0.1495537551
C      -2.2927298256     -0.6791203152      0.4197544553
C      -0.1702968983      1.8835234044     -0.0830599110
H      -0.4922687793     -1.5495335292      0.1065144386
H      -2.8778029701      0.2986528830      0.2764710638
H      -2.8720173788     -1.5966418811      0.7395076376
H       0.7836760688      2.4688936499      0.0284263236
H      -0.8850934463      1.9964421546      0.7578321345
H      -0.6264044603      2.5911753821     -0.8032366649
12
Frame=85  time=43.000fs  energy=-306.16900264Ha  molecule=COOCCCHHHHHH
C      -0.0325335596      0.5122515839     -0.0135952091
O       1.1899528335      0.0893643961     -0.1952165095
O       2.4038825558      0.9003084102     -0.2317574833
C      -0.9381276625     -0.6640841056      0.1458677650
C      -2.2949380345     -0.6772473095      0.4283057809
C      -0.1673668649      1.8867091416     -0.0870798428
H      -0.4785908214     -1.5342828319      0.1003589942
H      -2.8859589163      0.3032713122      0.2795322887
H      -2.8675997402     -1.5878041008      0.7388911225
H       0.7980230926      2.4726406195      0.0487244211
H      -0.8827804186      2.0084583392      0.7555946346
H      -0.5895892437      2.5830156205     -0.7881465051
12
Frame=86  time=43.500fs  energy=-306.16862623Ha  molecule=COOCCCHHHHHH
C      -0.0371711354      0.5167383225     -0.0118457854
O       1.1881031500      0.0834218085     -0.1946170396
O       2.4026059459      0.8942455658     -0.2363232732
C      -0.9359820168     -0.6605177726      0.1423831642
C      -2.2970485382     -0.6751112039      0.4367784475
C      -0.1642447644      1.8908648396     -0.0907237287
H      -0.4597637614     -1.5286819063      0.0936110711
H      -2.8925042286      0.3039445043      0.2841519955
H      -2.8610029135     -1.5774717171      0.7361985624
H       0.8109528589      2.4727411591      0.0697716217
H      -0.8809550964      2.0224603429      0.7523489825
H      -0.5559591295      2.5719293820     -0.7750345720
12
Frame=87  time=44.000fs  energy=-306.16862286Ha  molecule=COOCCCHHHHHH
C      -0.0409434818      0.5206447057     -0.0104134927
O       1.1862637029      0.0775888536     -0.1939337399
O       2.4008775108      0.8880081078     -0.2409017933
C      -0.9347605100     -0.6561121489      0.1391332543
C      -2.2989540531     -0.6726270335      0.4451117015
C      -0.1608522363      1.8958530904     -0.0938138570
H      -0.4361614994     -1.5323524472      0.0862862202
H      -2.8973204238      0.3007632041      0.2903841070
H      -2.8528066938     -1.5666661769      0.7318411743
H       0.8221709626      2.4690977145      0.0912919201
H      -0.8794631383      2.0380785241      0.7477961168
H      -0.5263416317      2.5595009259     -0.7655428392
12
Frame=88  time=44.500fs  energy=-306.16869086Ha  molecule=COOCCCHHHHHH
C      -0.0438043733      0.5240183387     -0.0093078352
O       1.1844231123      0.0718900533     -0.1931632497
O       2.3987095476      0.8815964509     -0.2454909133
C      -0.9344627713     -0.6510674880      0.1361428503
C      -2.3005239474     -0.6697035585      0.4532369235
C      -0.1571385229      1.9014832709     -0.0961517659
H      -0.4089981853     -1.5435351637      0.0784909965
H      -2.9004227588      0.2940787089      0.2982578283
H      -2.8437887175     -1.5567050735      0.7263436542
H       0.8315360606      2.4619219446      0.1129849133
H      -0.8781188301      2.0549246197      0.7416553348
H      -0.5015054025      2.5477213497     -0.7615675177
12
Frame=89  time=45.000fs  energy=-306.16865301Ha  molecule=COOCCCHHHHHH
C      -0.0457103917      0.5269155390     -0.0085375771
O       1.1825681357      0.0663417020     -0.1923026388
O       2.3961168437      0.8750113535     -0.2500879029
C      -0.9350144793     -0.6456854754      0.1334258864
C      -2.3016136227     -0.6662522464      0.4610855516
C      -0.1530731166      1.9075624067     -0.0975531134
H      -0.3803094134     -1.5593416576      0.0704405933
H      -2.9019497886      0.2844471752      0.3077683909
H      -2.8347843043     -1.5490767097      0.7202604015
H       0.8389666212      2.4516131015      0.1345539334
H      -0.8767649418      2.0726350139      0.7337025688
H      -0.4820308550      2.5384965605     -0.7648838342
12
Frame=90  time=45.500fs  energy=-306.16863031Ha  molecule=COOCCCHHHHHH
C      -0.0466303950      0.5294018138     -0.0081082003
O       1.1806852368      0.0609582877     -0.1913510653
O       2.3931191764      0.8682556252     -0.2546899280
C      -0.9362935977     -0.6403239367      0.1309870004
C      -2.3020848859     -0.6622146539      0.4686000922
C      -0.1486347990      1.9139437131     -0.0978904811
H      -0.3526854725     -1.5763722851      0.0624338531
H      -2.9021600041      0.2726224570      0.3188655278
H      -2.8264959006     -1.5451405004      0.7140726775
H       0.8444368296      2.4386606181      0.1557428397
H      -0.8753605242      2.0908708091      0.7238516757
H      -0.4682059007      2.5331434537     -0.7767608823
12
Frame=91  time=46.000fs  energy=-306.16896296Ha  molecule=COOCCCHHHHHH
C      -0.0465462941      0.5315508040     -0.0080212641
O       1.1787651175      0.0557568674     -0.1903109648
O       2.3897404422      0.8613363156     -0.2592942602
C      -0.9381915822     -0.6353175052      0.1288274843
C      -2.3018268422     -0.6575912222      0.4757419554
C      -0.1438093756      1.9205534922     -0.0971206220
H      -0.3285467824     -1.5917164944      0.0547646853
H      -2.9014386270      0.2595317283      0.3314603932
H      -2.8193681619     -1.5457747998      0.7081183237
H       0.8480071647      2.4235856458      0.1763653086
H      -0.8740150545      2.1093250873      0.7122081298
H      -0.4599625885      2.5320993471     -0.7977176749
12
Frame=92  time=46.500fs  energy=-306.16981706Ha  molecule=COOCCCHHHHHH
C      -0.0454454057      0.5334272706     -0.0082765151
O       1.1767980521      0.0507543814     -0.1891866938
O       2.3860049945      0.8542643353     -0.2638980828
C      -0.9406557714     -0.6309091138      0.1269493000
C      -2.3007708139     -0.6524616936      0.4824970636
C      -0.1385984832      1.9274021868     -0.0952953080
H      -0.3094500824     -1.6035454118      0.0476323569
H      -2.9003193202      0.2462428455      0.3454310552
H      -2.8135114224     -1.5511147587      0.7025489715
H       0.8498566513      2.4069074684      0.1963134520
H      -0.8729705325      2.1277387213      0.6990596002
H      -0.4568469493      2.5348493893     -0.8273802263
12
Frame=93  time=47.000fs  energy=-306.17095878Ha  molecule=COOCCCHHHHHH
C      -0.0433220928      0.5350660188     -0.0088724038
O       1.1747677473      0.0459651523     -0.1879823928
O       2.3819366505      0.8470519723     -0.2684984938
C      -0.9436791280     -0.6272342336      0.1253549532
C      -2.2988904504     -0.6469866756      0.4888757746
C      -0.1330307346      1.9345751352     -0.0925620420
H      -0.2960027695     -1.6109781969      0.0411234044
H      -2.8995022668      0.2339450152      0.3606233270
H      -2.8086849428     -1.5605167438      0.6973339437
H       0.8502890578      2.3891519713      0.2155284984
H      -0.8725689912      2.1458817200      0.6848331791
H      -0.4579973781      2.5400581217     -0.8644129235
12
Frame=94  time=47.500fs  energy=-306.17194623Ha  molecule=COOCCCHHHHHH
C      -0.0401919579      0.5364698276     -0.0098044409
O       1.1726512599      0.0414012473     -0.1867010397
O       2.3775609315      0.8397105793     -0.2730928199
C      -0.9472660501     -0.6243356678      0.1240450201
C      -2.2961895443     -0.6413823779      0.4949050477
C      -0.1271698859      1.9421967519     -0.0891544981
H      -0.2881820546     -1.6137336175      0.0352437772
H      -2.8998047585      0.2238734891      0.3768662639
H      -2.8043912334     -1.5727760112      0.6923216916
H       0.8496806489      2.3709142647      0.2339236200
H      -0.8732020482      2.1635342150      0.6700581901
H      -0.4620991635      2.5458281480     -0.9065339547
12
Frame=95  time=48.000fs  energy=-306.17253246Ha  molecule=COOCCCHHHHHH
C      -0.0361038189      0.5376233151     -0.0110617744
O       1.1704249844      0.0370725609     -0.1853451560
O       2.3729075410      0.8322510607     -0.2776788728
C      -0.9514036629     -0.6221895436      0.1230152184
C      -2.2926925466     -0.6358807206      0.5006173014
C      -0.1211138076      1.9503597912     -0.0853394186
H      -0.2857379370     -1.6118628532      0.0299636530
H      -2.9020020446      0.2171466779      0.3940019669
H      -2.8000185524     -1.5864268711      0.6873140429
H       0.8484935612      2.3529410347      0.2513393542
H      -0.8751939860      2.1805262816      0.6552427157
H      -0.4675874980      2.5502768157     -0.9509867494
12
Frame=96  time=48.500fs  energy=-306.17274571Ha  molecule=COOCCCHHHHHH
C      -0.0311398241      0.5385050536     -0.0126230308
O       1.1680704899      0.0329858191     -0.1839168833
O       2.3680128917      0.8246861851     -0.2822553882
C      -0.9560480020     -0.6207296840      0.1222547415
C      -2.2884450705     -0.6306917770      0.5060404940
C      -0.1149882357      1.9590827768     -0.0813616481
H      -0.2884847570     -1.6055915533      0.0252598671
H      -2.9066252253      0.2145463289      0.4119233505
H      -2.7949467102     -1.5999638158      0.6821212488
H       0.8473610124      2.3360529736      0.2676378624
H      -0.8786732076      2.1967607207      0.6407501859
H      -0.4730305001      2.5520589188     -0.9952043933
12
Frame=97  time=49.000fs  energy=-306.17274225Ha  molecule=COOCCCHHHHHH
C      -0.0254109656      0.5390961989     -0.0144552348
O       1.1655786446      0.0291428683     -0.1824182801
O       2.3629207602      0.8170305972     -0.2868226383
C      -0.9611236771     -0.6198617082      0.1217469691
C      -2.2835199114     -0.6259763870      0.5111924003
C      -0.1089360577      1.9683331943     -0.0774461367
H      -0.2963993035     -1.5952563187      0.0211349147
H      -2.9137979985      0.2163205068      0.4305993485
H      -2.7886132207     -1.6119759263      0.6765969118
H       0.8469924234      2.3209768192      0.2827882430
H      -0.8835633135      2.2122042245      0.6268028940
H      -0.4772314961      2.5503008408     -1.0368924297
12
Frame=98  time=49.500fs  energy=-306.17272928Ha  molecule=COOCCCHHHHHH
C      -0.0190522234      0.5393828446     -0.0165185125
O       1.1629532849      0.0255383123     -0.1808527999
O       2.3576801880      0.8092988210     -0.2913824112
C      -0.9665324712     -0.6194697405      0.1214720402
C      -2.2780198348     -0.6218318296      0.5160797722
C      -0.1030939161      1.9780506568     -0.0737902698
H      -0.3095831210     -1.5813053764      0.0176130470
H      -2.9231768749      0.2221166974      0.4500691979
H      -2.7805615377     -1.6212478908      0.6706568032
H       0.8480144372      2.3082963568      0.2968656228
H      -0.8896583405      2.2268783640      0.6135166564
H      -0.4792699539      2.5445014727     -1.0741046759
12
Frame=99  time=50.000fs  energy=-306.17287591Ha  molecule=COOCCCHHHHHH
C      -0.0122156941      0.5393515913     -0.0187726742
O       1.1602127768      0.0221580915     -0.1792263014
O       2.3523412041      0.8015044919     -0.2959374637
C      -0.9721642057     -0.6194211561      0.1214100247
C      -2.2720724509     -0.6182913986      0.5207015421
C      -0.0975712665      1.9881573184     -0.0705395348
H      -0.3281645780     -1.5642910272      0.0147237380
H      -2.9340278856      0.2310900781      0.4704088375
H      -2.7704837474     -1.6268533682      0.6642846887
H       0.8508785909      2.2984754909      0.3099869186
H      -0.8967007759      2.2408267534      0.6009348540
H      -0.4785295910      2.5345344572     -1.1054488731
12
Frame=100  time=50.500fs  energy=-306.17323362Ha  molecule=COOCCCHHHHHH
C      -0.0050603682      0.5389843975     -0.0211804172
O       1.1573885529      0.0189801142     -0.1775471224
O       2.3469501296      0.7936597187     -0.3004909929
C      -0.9779066475     -0.6195699633      0.1215422855
C      -2.2658217567     -0.6153328390      0.5250550836
C      -0.0924430471      1.9985690612     -0.0677812631
H      -0.3521390889     -1.5448498415      0.0124731186
H      -2.9453847657      0.2421204363      0.4916864920
H      -2.7582728017     -1.6282441584      0.6575317608
H       0.8558037005      2.2918749230      0.3222290932
H      -0.9044298848      2.2540874912      0.5890572497
H      -0.4746359481      2.5205805159     -1.1300946573
12
Frame=101  time=51.000fs  energy=-306.17367390Ha  molecule=COOCCCHHHHHH
C       0.0022593673      0.5382587168     -0.0237082684
O       1.1545217246      0.0159754399     -0.1758254561
O       2.3415457617      0.7857731379     -0.3050462679
C      -0.9836618822     -0.6197486694      0.1218509550
C      -2.2594249618     -0.6128868802      0.5291438661
C      -0.0877511451      2.0092071997     -0.0655594041
H      -0.3810478862     -1.5238383649      0.0107894868
H      -2.9561931186      0.2540113471      0.5139280900
H      -2.7440933834     -1.6253283511      0.6505207013
H       0.8627589332      2.2887702393      0.3335914235
H      -0.9126106270      2.2666981132      0.5778682794
H      -0.4673646297      2.5029948263     -1.1475925463
12
Frame=102  time=51.500fs  energy=-306.17389102Ha  molecule=COOCCCHHHHHH
C       0.0096025914      0.5371587808     -0.0263265109
O       1.1516616679      0.0131081785     -0.1740727198
O       2.3361582012      0.7778493245     -0.3096065840
C      -0.9893801139     -0.6197346563      0.1223200081
C      -2.2530544831     -0.6108458080      0.5329838042
C      -0.0835077003      2.0200036967     -0.0638925923
H      -0.4134980746     -1.5028654318      0.0094394469
H      -2.9654132173      0.2656181065      0.5371046061
H      -2.7284280055     -1.6184982915      0.6434512407
H       0.8715074694      2.2893676461      0.3440087499
H      -0.9210577012      2.2787235088      0.5673601779
H      -0.4565906332      2.4822115350     -1.1577041405
12
Frame=103  time=52.000fs  energy=-306.17370272Ha  molecule=COOCCCHHHHHH
C       0.0168402611      0.5356917540     -0.0290063517
O       1.1488725728      0.0103349441     -0.1723022958
O       2.3308134883      0.7698923266     -0.3141758004
C      -0.9950841787     -0.6192213396      0.1229378018
C      -2.2468910170     -0.6090792421      0.5366051741
C      -0.0796969677      2.0308987885     -0.0627817712
H      -0.4470757904     -1.4848338423      0.0079959957
H      -2.9721571411      0.2759688389      0.5611404733
H      -2.7119916669     -1.6085736105      0.6365774123
H       0.8816715471      2.2938027893      0.3533807956
H      -0.9296553703      2.2902693589      0.5575343630
H      -0.4422954686      2.4587277807     -1.1603622755
12
Frame=104  time=52.500fs  energy=-306.17336272Ha  molecule=COOCCCHHHHHH
C       0.0238454401      0.5338898387     -0.0317162147
O       1.1462400135      0.0076075827     -0.1705312581
O       2.3255426779      0.7619103627     -0.3187589076
C      -1.0008185202     -0.6178889306      0.1236923051
C      -2.2410971633     -0.6074468940      0.5400486653
C      -0.0762762842      2.0418323182     -0.0622025730
H      -0.4793798729     -1.4731780040      0.0059994290
H      -2.9758503386      0.2843751217      0.5859291658
H      -2.6955592686     -1.5967303694      0.6301494972
H       0.8927733868      2.3021357899      0.3615871219
H      -0.9383696978      2.3014515571      0.5483690583
H      -0.4246159089      2.4331509991     -1.1557667110
12
Frame=105  time=53.000fs  energy=-306.17321505Ha  molecule=COOCCCHHHHHH
C       0.0304965159      0.5317981199     -0.0344231708
O       1.1438591218      0.0048787571     -0.1687797219
O       2.3203844518      0.7539148711     -0.3233612769
C      -1.0065688074     -0.6155293748      0.1245606214
C      -2.2357984334     -0.6057934019      0.5433596078
C      -0.0731793995      2.0527344364     -0.0620881370
H      -0.5090835868     -1.4702646566      0.0031655822
H      -2.9762296877      0.2903682600      0.6113518484
H      -2.6799374566     -1.5844327575      0.6243830698
H       0.9042491587      2.3143526927      0.3684768837
H      -0.9472262950      2.3123417454      0.5397780899
H      -0.4038851630      2.4062574396     -1.1445449152
12
Frame=106  time=53.500fs  energy=-306.17335730Ha  molecule=COOCCCHHHHHH
C       0.0366887056      0.5294591971     -0.0370961425
O       1.1418156593      0.0021043949     -0.1670676773
O       2.3153788735      0.7459170925     -0.3279874085
C      -1.0122556909     -0.6120693289      0.1255079086
C      -2.2310922086     -0.6039523765      0.5465854607
C      -0.0703248500      2.0635303648     -0.0623219387
H      -0.5357292818     -1.4769223430     -0.0006237338
H      -2.9732199789      0.2935686752      0.6372938707
H      -2.6660008694     -1.5732232143      0.6194689165
H       0.9154616725      2.3303399617      0.3738618851
H      -0.9562357890      2.3229325638      0.5315888365
H      -0.3806180914      2.3789664067     -1.1278145202
12
Frame=107  time=54.000fs  energy=-306.17372552Ha  molecule=COOCCCHHHHHH
C       0.0423353999      0.5269020482     -0.0397070123
O       1.1401795322     -0.0007556577     -0.1654124436
O       2.3105599945      0.7379263457     -0.3326402116
C      -1.0177601726     -0.6075281303      0.1264909359
C      -2.2270605937     -0.6017739201      0.5497747226
C      -0.0676302007      2.0741563524     -0.0627527559
H      -0.5592276293     -1.4927934075     -0.0054047326
H      -2.9668771411      0.2936883553      0.6636517773
H      -2.6546142324     -1.5644320100      0.6155788811
H       0.9257482226      2.3498515364      0.3775330368
H      -0.9653273721      2.3331488919      0.5235547728
H      -0.3554314825      2.3522077139     -1.1070308448
12
Frame=108  time=54.500fs  energy=-306.17415809Ha  molecule=COOCCCHHHHHH
C       0.0473626294      0.5241466045     -0.0422305264
O       1.1390103375     -0.0037349783     -0.1638281706
O       2.3059483393      0.7299470983     -0.3373199938
C      -1.0229364617     -0.6019862038      0.1274584974
C      -2.2237770082     -0.5991512120      0.5529760886
C      -0.0650275868      2.0845665225     -0.0632178273
H      -0.5796984727     -1.5166806629     -0.0111515425
H      -2.9573579613      0.2905769785      0.6903291208
H      -2.6465029406     -1.5589600426      0.6128570422
H       0.9344977980      2.3725001050      0.3792772315
H      -0.9743322893      2.3428812414      0.5154081873
H      -0.3289424800      2.3267888865     -1.0837676345
12
Frame=109  time=55.000fs  energy=-306.17430456Ha  molecule=COOCCCHHHHHH
C       0.0517031944      0.5212193871     -0.0446412185
O       1.1383661250     -0.0068579406     -0.1623266786
O       2.3015445643      0.7219762092     -0.3420230040
C      -1.0276108288     -0.5955859170      0.1283489228
C      -2.2213084313     -0.5960358415      0.5562373658
C      -0.0624710664      2.0947195757     -0.0635394059
H      -0.5975015433     -1.5465159945     -0.0177478941
H      -2.9448807200      0.2842560724      0.7172273739
H      -2.6422053839     -1.5571752913      0.6114221060
H       0.9412200981      2.3977196526      0.3788826991
H      -0.9829799219      2.3519996235      0.5069136920
H      -0.3017656018      2.3034167420     -1.0598424709
12
Frame=110  time=55.500fs  energy=-306.17377626Ha  molecule=COOCCCHHHHHH
C       0.0552971885      0.5181648720     -0.0469105772
O       1.1383050512     -0.0101407299     -0.1609181197
O       2.2973304689      0.7140063295     -0.3467411075
C      -1.0315874683     -0.5885411025      0.1290895514
C      -2.2197119145     -0.5924499032      0.5596032300
C      -0.0599288039      2.1045612221     -0.0634903643
H      -0.6132071300     -1.5792091937     -0.0249696801
H      -2.9297639050      0.2750073616      0.7442591624
H      -2.6420916329     -1.5588915111      0.6113826401
H       0.9456022298      2.4246987678      0.3761702135
H      -0.9909180765      2.3603565527      0.4978781778
H      -0.2746344670      2.2827938945     -1.0378091038
12
Frame=111  time=56.000fs  energy=-306.17260674Ha  molecule=COOCCCHHHHHH
C       0.0581073060      0.5150482309     -0.0490119843
O       1.1388744934     -0.0135956337     -0.1596109000
O       2.2932786972      0.7060329592     -0.3514639325
C      -1.0346955619     -0.5810996180      0.1296070472
C      -2.2190254413     -0.5884911771      0.5631119571
C      -0.0573714419      2.1140309446     -0.0627975890
H      -0.6273311388     -1.6112022371     -0.0325428234
H      -2.9125212032      0.2634584592      0.7713884550
H      -2.6463105819     -1.5634162427      0.6128225239
H       0.9475313635      2.4524388192      0.3710605014
H      -0.9978088164      2.3678130875      0.4881379149
H      -0.2484016829      2.2655095790     -1.0209315869
12
Frame=112  time=56.500fs  energy=-306.17128405Ha  molecule=COOCCCHHHHHH
C       0.0601350354      0.5119471255     -0.0509264955
O       1.1400998833     -0.0172328617     -0.1584113787
O       2.2893632603      0.6980569855     -0.3561819561
C      -1.0368400202     -0.5734916932      0.1298424187
C      -2.2192601051     -0.5843193515      0.5667912327
C      -0.0547761441      2.1230864051     -0.0612201896
H      -0.6401441267     -1.6393263887     -0.0402107027
H      -2.8938746137      0.2505511482      0.7986634283
H      -2.6546881851     -1.5696745509      0.6157603108
H       0.9470351440      2.4799311720      0.3636033370
H      -1.0034199814      2.3742803244      0.4775798462
H      -0.2237905010      2.2518493346     -1.0122434424
12
Frame=113  time=57.000fs  energy=-306.17035000Ha  molecule=COOCCCHHHHHH
C       0.0614180839      0.5089344916     -0.0526417043
O       1.1419859566     -0.0210558826     -0.1573238803
O       2.2855649729      0.6900827717     -0.3608881871
C      -1.0380130173     -0.5659034044      0.1297608341
C      -2.2203973875     -0.5801324327      0.5706533111
C      -0.0521389425      2.1317149339     -0.0586196354
H      -0.6517417053     -1.6613137982     -0.0477623349
H      -2.8746707347      0.2374334269      0.8262237713
H      -2.6666937276     -1.5763406216      0.6201271562
H       0.9442353214      2.5062866421      0.3539673610
H      -1.0076350467      2.3797434531      0.4661583637
H      -0.2012088851      2.2418200198     -1.0137214424
12
Frame=114  time=57.500fs  energy=-306.17005525Ha  molecule=COOCCCHHHHHH
C       0.0620153117      0.5060641078     -0.0541479896
O       1.1445221116     -0.0250582516     -0.1563509073
O       2.2818734367      0.6821157821     -0.3655785215
C      -1.0382771614     -0.5584683005      0.1293542816
C      -2.2223878618     -0.5761430900      0.5746909483
C      -0.0494848143      2.1399299678     -0.0549951415
H      -0.6621639322     -1.6758981029     -0.0550432900
H      -2.8557959699      0.2253596771      0.8542988441
H      -2.6815112659     -1.5819846074      0.6257741590
H       0.9393446563      2.5307922500      0.3424206821
H      -1.0104149068      2.3842622311      0.4538888788
H      -0.1807115380      2.2352599351     -1.0258516232
12
Frame=115  time=58.000fs  energy=-306.17028615Ha  molecule=COOCCCHHHHHH
C       0.0619943335      0.5033682395     -0.0554368787
O       1.1476840455     -0.0292270564     -0.1554931032
O       2.2782875340      0.6741614471     -0.3702516342
C      -1.0377408850     -0.5512763299      0.1286374882
C      -2.2251495845     -0.5725536327      0.5788764263
C      -0.0468668646      2.1477587105     -0.0504898559
H      -0.6714394962     -1.6825737560     -0.0619535099
H      -2.8381341246      0.2156168980      0.8832050517
H      -2.6981949751     -1.5852780028      0.6324973533
H       0.9326595974      2.5529322846      0.3293127007
H      -1.0117806274      2.3879757768      0.4408686906
H      -0.1620609250      2.2319074639     -1.0475443552
12
Frame=116  time=58.500fs  energy=-306.17074173Ha  molecule=COOCCCHHHHHH
C       0.0614278833      0.5008642798     -0.0565019471
O       1.1514318098     -0.0335478548     -0.1547488799
O       2.2748142944      0.6662257641     -0.3749084747
C      -1.0365354596     -0.5443915189      0.1276399762
C      -2.2285733382     -0.5695294024      0.5831667099
C      -0.0443559832      2.1552249360     -0.0453711896
H      -0.6795922949     -1.6812552242     -0.0684341319
H      -2.8225031338      0.2094187851      0.9133150191
H      -2.7158279061     -1.5851890933      0.6400622670
H       0.9245603660      2.5723866270      0.3150663375
H      -1.0118397176      2.3911206258      0.4273326479
H      -0.1448415229      2.2314334845     -1.0763935179
12
Frame=117  time=59.000fs  energy=-306.17120127Ha  molecule=COOCCCHHHHHH
C       0.0603952943      0.4985600407     -0.0573423362
O       1.1557067489     -0.0380062162     -0.1541143099
O       2.2714665371      0.6583171820     -0.3795513341
C      -1.0347939433     -0.5378669914      0.1263978566
C      -2.2325409745     -0.5671731444      0.5875159423
C      -0.0420287822      2.1623339703     -0.0399787737
H      -0.6866441724     -1.6720066881     -0.0744515973
H      -2.8095224922      0.2077253880      0.9449719220
H      -2.7336293808     -1.5810942352      0.6482212864
H       0.9155184564      2.5890134062      0.3001710568
H      -1.0107914804      2.3940350362      0.4136661316
H      -0.1285920609      2.2334597711     -1.1092759729
12
Frame=118  time=59.500fs  energy=-306.17164066Ha  molecule=COOCCCHHHHHH
C       0.0589831886      0.4964563205     -0.0579663939
O       1.1604301665     -0.0425860823     -0.1535836077
O       2.2682610145      0.6504471276     -0.3841831505
C      -1.0326350975     -0.5317517579      0.1249486913
C      -2.2369487373     -0.5655046634      0.5918911700
C      -0.0399569863      2.1690647287     -0.0346405716
H      -0.6926195765     -1.6549170272     -0.0799878536
H      -2.7994638148      0.2110262771      0.9783638953
H      -2.7510035281     -1.5728054152      0.6567253944
H       0.9060972800      2.6028335272      0.2851527352
H      -1.0088985355      2.3971212626      0.4003212929
H      -0.1129286169      2.2375999562     -1.1432194163
12
Frame=119  time=60.000fs  energy=-306.17208316Ha  molecule=COOCCCHHHHHH
C       0.0572814054      0.4945446297     -0.0583893172
O       1.1655058282     -0.0472673586     -0.1531497234
O       2.2652177070      0.6426279353     -0.3888071602
C      -1.0301571876     -0.5260838130      0.1233301273
C      -2.2417205488     -0.5644506391      0.5962844656
C      -0.0381954418      2.1753721626     -0.0296135026
H      -0.6975493092     -1.6301713053     -0.0850493176
H      -2.7921747412      0.2191755701      1.0134036507
H      -2.7675358469     -1.5605496833      0.6653327867
H       0.8969405275      2.6140143549      0.2705063320
H      -1.0065324576      2.4007932414      0.3877346455
H      -0.0976015850      2.2435330216     -1.1759918565
12
Frame=120  time=60.500fs  energy=-306.17240639Ha  molecule=COOCCCHHHHHH
C       0.0553759787      0.4928061397     -0.0586289046
O       1.1708264551     -0.0520241652     -0.1528053834
O       2.2623591393      0.6348709189     -0.3934264802
C      -1.0274426983     -0.5208661157      0.1215817468
C      -2.2468064085     -0.5638482571      0.6007173715
C      -0.0367718115      2.1811965658     -0.0250786249
H      -0.7014440473     -1.5983157194     -0.0897075886
H      -2.7871096615      0.2313592309      1.0496596071
H      -2.7829768798     -1.5449247984      0.6738231279
H       0.8887328659      2.6228319605      0.2566316576
H      -1.0042629126      2.4054444207      0.3763150710
H      -0.0824735354      2.2509880168     -1.2061031734
12
Frame=121  time=61.000fs  energy=-306.17234839Ha  molecule=COOCCCHHHHHH
C       0.0533438174      0.4912194260     -0.0587020136
O       1.1762856492     -0.0568257747     -0.1525451609
O       2.2597095210      0.6271862052     -0.3980438568
C      -1.0245757590     -0.5160376983      0.1197510883
C      -2.2521698996     -0.5634645076      0.6052364499
C      -0.0356897652      2.1864717513     -0.0211722504
H      -0.7042017185     -1.5605942665     -0.0941698047
H      -2.7834530621      0.2462286438      1.0863769285
H      -2.7972622359     -1.5268334880      0.6820216535
H       0.8821369926      2.6296232744      0.2438255359
H      -1.0028078440      2.4114130371      0.3664346978
H      -0.0674708059      2.2596774979     -1.2324242485
12
Frame=122  time=61.500fs  energy=-306.17168761Ha  molecule=COOCCCHHHHHH
C       0.0512528932      0.4897713992     -0.0586231036
O       1.1817928088     -0.0616410852     -0.1523670586
O       2.2572943737      0.6195835787     -0.4026616564
C      -1.0216680664     -0.5114632281      0.1179012088
C      -2.2577727174     -0.5630289683      0.6099021827
C      -0.0349439445      2.1911329040     -0.0179992587
H      -0.7054899784     -1.5191099934     -0.0988351829
H      -2.7802839608      0.2621509504      1.1225852144
H      -2.8105569399     -1.5073874690      0.6898234362
H       0.8777280592      2.6347445355      0.2323008244
H      -1.0028225751      2.4189348205      0.3583730611
H      -0.0525677774      2.2693013411     -1.2540171110
12
Frame=123  time=62.000fs  energy=-306.17035382Ha  molecule=COOCCCHHHHHH
C       0.0491708409      0.4884659922     -0.0584060579
O       1.1872791522     -0.0664436723     -0.1522716439
O       2.2551406700      0.6120735720     -0.4072822543
C      -1.0188783784     -0.5069431126      0.1161145005
C      -2.2635605252     -0.5622720474      0.6147747337
C      -0.0345330566      2.1951247304     -0.0156231194
H      -0.7047392717     -1.4767634278     -0.1042813972
H      -2.7767347630      0.2774809547      1.1572536513
H      -2.8232313859     -1.4877948495      0.6971884800
H       0.8759588714      2.6385450906      0.2222161275
H      -1.0047060623      2.4281175755      0.3522709911
H      -0.0377984654      2.2795906601     -1.2702629927
12
Frame=124  time=62.500fs  energy=-306.16848090Ha  molecule=COOCCCHHHHHH
C       0.0471758010      0.4873262094     -0.0580665543
O       1.1926874948     -0.0712120875     -0.1522589576
O       2.2532780941      0.6046680745     -0.4119089491
C      -1.0164102011     -0.5022276718      0.1144925651
C      -2.2694534022     -0.5609533932      0.6199002608
C      -0.0344648903      2.1984107123     -0.0140712887
H      -0.7013033494     -1.4371875606     -0.1112049650
H      -2.7721133387      0.2907926807      1.1894500619
H      -2.8357119139     -1.4692754584      0.7040887441
H       0.8771415524      2.6413436264      0.2137150757
H      -1.0085034007      2.4389406595      0.3481159534
H      -0.0232710665      2.2903186621     -1.2808300101
12
Frame=125  time=63.000fs  energy=-306.16650175Ha  molecule=COOCCCHHHHHH
C       0.0453631940      0.4863887372     -0.0576220395
O       1.1979540936     -0.0759247364     -0.1523254258
O       2.2517422597      0.5973804518     -0.4165472027
C      -1.0144938870     -0.4970477307      0.1131526702
C      -2.2753466834     -0.5588707611      0.6253039358
C      -0.0347541058      2.2009797639     -0.0133486178
H      -0.6946364025     -1.4045187581     -0.1203664295
H      -2.7659376737      0.3010171677      1.2184363305
H      -2.8483155922     -1.4530100994      0.7104528078
H       0.8814063135      2.6433752192      0.2069431566
H      -1.0139045145      2.4512680594      0.3457665314
H      -0.0091547644      2.3012948208     -1.2855538305
12
Frame=126  time=63.500fs  energy=-306.16514055Ha  molecule=COOCCCHHHHHH
C       0.0438422711      0.4856951701     -0.0570878475
O       1.2030008837     -0.0805590053     -0.1524632318
O       2.2505768039      0.5902261622     -0.4212051411
C      -1.0133655531     -0.4911673404      0.1122152285
C      -2.2811175930     -0.5558662053      0.6309899021
C      -0.0354141903      2.2028464821     -0.0134450030
H      -0.6843754898     -1.3827377194     -0.1325028888
H      -2.7579330187      0.3074750710      1.2436994443
H      -2.8611995495     -1.4400381107      0.7161643838
H       0.8886444200      2.6447304923      0.2020372187
H      -1.0203369985      2.4648814964      0.3450218513
H       0.0043621422      2.3123784535     -1.2844210608
12
Frame=127  time=64.000fs  energy=-306.16496582Ha  molecule=COOCCCHHHHHH
C       0.0427157315      0.4852785553     -0.0564705792
O       1.2077390042     -0.0850977494     -0.1526624436
O       2.2498301771      0.5832237361     -0.4258917728
C      -1.0132055734     -0.4844832636      0.1117650845
C      -2.2866434667     -0.5518406618      0.6369471404
C      -0.0364501814      2.2040490879     -0.0143396058
H      -0.6705941400     -1.3742372343     -0.1480328459
H      -2.7480635675      0.3098626803      1.2649737182
H      -2.8743388033     -1.4310486869      0.7210850397
H       0.8984934897      2.6453368832      0.1991047769
H      -1.0270893091      2.4794965819      0.3456872140
H       0.0171085807      2.3234859712     -1.2775859394
12
Frame=128  time=64.500fs  energy=-306.16577278Ha  molecule=COOCCCHHHHHH
C       0.0420633132      0.4851523378     -0.0557649059
O       1.2120696954     -0.0895347904     -0.1529132100
O       2.2495504973      0.5763946849     -0.4306143417
C      -1.0140690171     -0.4771181313      0.1118075089
C      -2.2918209937     -0.5467631040      0.6431572708
C      -0.0378557932      2.2046474233     -0.0160041477
H      -0.6541686661     -1.3784732172     -0.1666583605
H      -2.7365394721      0.3082057375      1.2822312597
H      -2.8874820039     -1.4262257065      0.7250566156
H       0.9103838532      2.6449894253      0.1982113388
H      -1.0334122163      2.4947466938      0.3476065852
H       0.0289439810      2.3345817828     -1.2653554749
12
Frame=129  time=65.000fs  energy=-306.16679283Ha  molecule=COOCCCHHHHHH
C       0.0419442768      0.4853090948     -0.0549572784
O       1.2158913693     -0.0938723182     -0.1532064264
O       2.2497830754      0.5697603331     -0.4353780388
C      -1.0159001476     -0.4693882159      0.1122683447
C      -2.2965682539     -0.5406690097      0.6495973260
C      -0.0396117450      2.2047205465     -0.0184026695
H      -0.6367309300     -1.3923430928     -0.1873356936
H      -2.7237832465      0.3028173971      1.2956578795
H      -2.9001414707     -1.4252539402      0.7278915709
H       0.9236170839      2.6434168020      0.1993917887
H      -1.0385996929      2.5101967425      0.3506672700
H       0.0397444270      2.3456755581     -1.2481885819
12
Frame=130  time=65.500fs  energy=-306.16738679Ha  molecule=COOCCCHHHHHH
C       0.0424016453      0.4857235584     -0.0540338290
O       1.2191199850     -0.0981169795     -0.1535337802
O       2.2505690417      0.5633369122     -0.4401876774
C      -1.0186014743     -0.4616788650      0.1130333093
C      -2.3008211646     -0.5336615798      0.6562326103
C      -0.0416854218      2.2043677773     -0.0214835402
H      -0.6202480567     -1.4117281144     -0.2086214204
H      -2.7104119795      0.2943251904      1.3057005160
H      -2.9116044381     -1.4274130193      0.7293690123
H       0.9374385356      2.6403472950      0.2026679203
H      -1.0420320983      2.5253984126      0.3547742687
H       0.0493707853      2.3568078534     -1.2267422915
12
Frame=131  time=66.000fs  energy=-306.16736204Ha  molecule=COOCCCHHHHHH
C       0.0434591041      0.4863564887     -0.0529873592
O       1.2217042344     -0.1022816377     -0.1538876281
O       2.2519430694      0.5571334044     -0.4450486346
C      -1.0220795076     -0.4543243225      0.1139899402
C      -2.3045360232     -0.5259183509      0.6630039815
C      -0.0440327213      2.2037097996     -0.0251678077
H      -0.6065655744     -1.4328119666     -0.2290695373
H      -2.6971916453      0.2837088840      1.3131358565
H      -2.9210219382     -1.4316822015      0.7292749924
H       0.9510983975      2.6355320729      0.2080489294
H      -1.0431953998      2.5399267738      0.3598090042
H       0.0576427982      2.3680252620     -1.2019336326
12
Frame=132  time=66.500fs  energy=-306.16685962Ha  molecule=COOCCCHHHHHH
C       0.0451239419      0.4871673770     -0.0518206442
O       1.2236175390     -0.1063863310     -0.1542608227
O       2.2539323819      0.5511530037     -0.4499665244
C      -1.0262580707     -0.4475587772      0.1150513121
C      -2.3076942792     -0.5176719956      0.6698281651
C      -0.0466008657      2.2028734225     -0.0293486715
H      -0.5970238222     -1.4526225657     -0.2475003202
H      -2.6848878124      0.2722244820      1.3189898438
H      -2.9276168281     -1.4369090366      0.7274770887
H       0.9639322345      2.6287354458      0.2155309899
H      -1.0417236833      2.5533901414      0.3656054709
H       0.0643329342      2.3793769036     -1.1749017954
12
Frame=133  time=67.000fs  energy=-306.16617539Ha  molecule=COOCCCHHHHHH
C       0.0473910065      0.4881265807     -0.0505441168
O       1.2248459371     -0.1104497791     -0.1546476820
O       2.2565559401      0.5453943988     -0.4549461037
C      -1.0310747915     -0.4415361060      0.1161570475
C      -2.3102999688     -0.5091692136      0.6766110761
C      -0.0493292840      2.2019640631     -0.0339064070
H      -0.5923801915     -1.4689491521     -0.2630610146
H      -2.6741355893      0.2612504894      1.3243648841
H      -2.9308257062     -1.4419829219      0.7239546653
H       0.9754216573      2.6197321545      0.2251001009
H      -1.0374291900      2.5654421906      0.3719393802
H       0.0691660191      2.3909229064     -1.1468194308
12
Frame=134  time=67.500fs  energy=-306.16561552Ha  molecule=COOCCCHHHHHH
C       0.0502401419      0.4892144667     -0.0491700754
O       1.2253865048     -0.1144783794     -0.1550453742
O       2.2598216010      0.5398516943     -0.4599899433
C      -1.0364784617     -0.4363401796      0.1172698871
C      -2.3123648284     -0.5006415283      0.6832567935
C      -0.0521495678      2.2010473947     -0.0387177134
H      -0.5929567672     -1.4803234645     -0.2752136166
H      -2.6654377215      0.2521557256      1.3303337514
H      -2.9302970390     -1.4459322771      0.7187744051
H       0.9851744809      2.6083161606      0.2367119660
H      -1.0302758028      2.5757963879      0.3785327376
H       0.0718477631      2.4027520344     -1.1187815678
12
Frame=135  time=68.000fs  energy=-306.16540573Ha  molecule=COOCCCHHHHHH
C       0.0536332950      0.4904147294     -0.0477083723
O       1.2252497759     -0.1184620467     -0.1554544758
O       2.2637225313      0.5345141510     -0.4650973243
C      -1.0424234506     -0.4319960133      0.1183691701
C      -2.3138930477     -0.4922902881      0.6896714975
C      -0.0549881399      2.2001458729     -0.0436431728
H      -0.5988563390     -1.4859093382     -0.2836579420
H      -2.6592080298      0.2461846766      1.3378814535
H      -2.9258557629     -1.4479720087      0.7120617718
H       0.9928614113      2.5943120166      0.2502485670
H      -1.0203519912      2.5842345068      0.3851043746
H       0.0721615918      2.4150267487     -1.0919816998
12
Frame=136  time=68.500fs  energy=-306.16570432Ha  molecule=COOCCCHHHHHH
C       0.0575150165      0.4917098539     -0.0461654279
O       1.2244616003     -0.1223764476     -0.1558787456
O       2.2682349523      0.5293661498     -0.4702636458
C      -1.0488623233     -0.4284902445      0.1194428803
C      -2.3148776779     -0.4842723753      0.6957725401
C      -0.0577717615      2.1992426268     -0.0485114930
H      -0.6101132249     -1.4852731852     -0.2882354178
H      -2.6557624929      0.2442993862      1.3477961909
H      -2.9174947006     -1.4475324907      0.7039863968
H       0.9981832532      2.5775923323      0.2654898365
H      -1.0078808363      2.5906126437      0.3914473881
H       0.0700799814      2.4280347536     -1.0679592433
12
Frame=137  time=69.000fs  energy=-306.16663446Ha  molecule=COOCCCHHHHHH
C       0.0618142664      0.4930800692     -0.0445449034
O       1.2230639728     -0.1261875585     -0.1563245520
O       2.2733181525      0.5243875861     -0.4754805427
C      -1.0557396740     -0.4257881627      0.1204816526
C      -2.3153069841     -0.4766836541      0.7015039958
C      -0.0604326814      2.1982881526     -0.0531269428
H      -0.6267439909     -1.4782036820     -0.2888726801
H      -2.6552622943      0.2469938502      1.3605055577
H      -2.9053932936     -1.4442811671      0.6947570048
H       1.0008852493      2.5581006645      0.2821242231
H      -0.9932269840      2.5948669993      0.3974780033
H       0.0657982741      2.4421917145     -1.0485710004
12
Frame=138  time=69.500fs  energy=-306.16824003Ha  molecule=COOCCCHHHHHH
C       0.0664449029      0.4945033148     -0.0428481181
O       1.2211135874     -0.1298563519     -0.1568003479
O       2.2789174154      0.5195548789     -0.4807367559
C      -1.0629873863     -0.4238383708      0.1214761051
C      -2.3151737208     -0.4695459612      0.7068508305
C      -0.0629078003      2.1972104385     -0.0573050398
H      -0.6487000573     -1.4646655418     -0.2855882402
H      -2.6576630674      0.2541698508      1.3759476592
H      -2.8899608419     -1.4381484506      0.6846256878
H       1.0007793533      2.5358651769      0.2997838738
H      -0.9768934937      2.5970240372      0.4032473445
H       0.0596690803      2.4579599143     -1.0356081669
12
Frame=139  time=70.000fs  energy=-306.17037014Ha  molecule=COOCCCHHHHHH
C       0.0713046539      0.4959529819     -0.0410740810
O       1.2186775641     -0.1333429876     -0.1573164599
O       2.2849695864      0.5148422193     -0.4860194795
C      -1.0705235912     -0.4225619754      0.1224191222
C      -2.3144841862     -0.4628022512      0.7118450413
C      -0.0651303864      2.1959279881     -0.0609157334
H      -0.6757245456     -1.4449154371     -0.2785670446
H      -2.6627030656      0.2651393610      1.3935547395
H      -2.8718737416     -1.4293605596      0.6738913995
H       0.9977419527      2.5109952868      0.3180746382
H      -0.9595428537      2.5972128823      0.4089462513
H       0.0520963112      2.4757173368     -1.0303110705
12
Frame=140  time=70.500fs  energy=-306.17260682Ha  molecule=COOCCCHHHHHH
C       0.0762751148      0.4973938069     -0.0392206289
O       1.2158288086     -0.1366097926     -0.1578849925
O       2.2914094834      0.5102228428     -0.4913157814
C      -1.0782630063     -0.4218292452      0.1233151312
C      -2.3132647280     -0.4563242700      0.7165609780
C      -0.0670203484      2.1943629865     -0.0639133838
H      -0.7071683895     -1.4197835537     -0.2682859922
H      -2.6699382475      0.2787763696      1.4123726648
H      -2.8520349586     -1.4184493500      0.6628762071
H       0.9916903592      2.4836803282      0.3365907177
H      -0.9420173057      2.5956654038      0.4149051228
H       0.0434464250      2.4956309159     -1.0330168688
12
Frame=141  time=71.000fs  energy=-306.17434683Ha  molecule=COOCCCHHHHHH
C       0.0812274216      0.4987827085     -0.0372882352
O       1.2126443160     -0.1396228015     -0.1585193163
O       2.2981755089      0.5056706132     -0.4966138295
C      -1.0861413863     -0.4214410036      0.1241934655
C      -2.3115609475     -0.4499351417      0.7211015277
C      -0.0684809747      2.1924520431     -0.0663472492
H      -0.7419011593     -1.3909766325     -0.2556192240
H      -2.6788066374      0.2937643583      1.4312546711
H      -2.8314552866     -1.4062019293      0.6518780587
H       0.9825685913      2.4542152086      0.3549276690
H      -0.9253079568      2.5927041668      0.4215750470
H       0.0340014653      2.5175568440     -1.0430077892
12
Frame=142  time=71.500fs  energy=-306.17505401Ha  molecule=COOCCCHHHHHH
C       0.0860341495      0.5000770489     -0.0352860105
O       1.2092062258     -0.1423528528     -0.1592331475
O       2.3052140237      0.5011614195     -0.5019038166
C      -1.0941370158     -0.4211367484      0.1251148714
C      -2.3094307127     -0.4434431780      0.7255804175
C      -0.0694093579      2.1901536955     -0.0683498374
H      -0.7784081973     -1.3610867338     -0.2418160755
H      -2.6886925581      0.3088234557      1.4490355575
H      -2.8111779250     -1.3935573627      0.6411539935
H       0.9703958409      2.4230536491      0.3727044240
H      -0.9104561692      2.5887190857      0.4294752414
H       0.0239670486      2.5409960109     -1.0585939528
12
Frame=143  time=72.000fs  energy=-306.17455973Ha  molecule=COOCCCHHHHHH
C       0.0905775406      0.5012401520     -0.0332356039
O       1.2056023489     -0.1447780727     -0.1600399966
O       2.3124830159      0.4966733206     -0.5071785898
C      -1.1022687800     -0.4206124460      0.1261673564
C      -2.3069398322     -0.4366788741      0.7301044124
C      -0.0697220236      2.1874534026     -0.0701012868
H      -0.8150274118     -1.3333306338     -0.2283499429
H      -2.6990018759      0.3228545345      1.4646836272
H      -2.7922352247     -1.3814851688      0.6309264839
H       0.9553903638      2.3908586838      0.3896017202
H      -0.8983851892      2.5840964035      0.4390883613
H       0.0135151050      2.5651530928     -1.0774716287
12
Frame=144  time=72.500fs  energy=-306.17318810Ha  molecule=COOCCCHHHHHH
C       0.0947484693      0.5022400956     -0.0311692663
O       1.2019190669     -0.1468865930     -0.1609527467
O       2.3199542659      0.4921858003     -0.5124335634
C      -1.1105621170     -0.4195487982      0.1274481345
C      -2.3041643300     -0.4295179851      0.7347629503
C      -0.0693820951      2.1843630556     -0.0717815652
H      -0.8503011009     -1.3110737070     -0.2166539936
H      -2.7092290403      0.3349859442      1.4774024422
H      -2.7755211414     -1.3708594807      0.6213583787
H       0.9380696730      2.3585119975      0.4054119976
H      -0.8897112569      2.5790852962      0.4507401430
H       0.0028218679      2.5890989193     -1.0972558603
12
Frame=145  time=73.000fs  energy=-306.17151055Ha  molecule=COOCCCHHHHHH
C       0.0984446551      0.5030456990     -0.0291247990
O       1.1982231637     -0.1486772859     -0.1619825812
O       2.3276097826      0.4876795403     -0.5176652698
C      -1.1190064894     -0.4176578785      0.1290381579
C      -2.3011948967     -0.4218839458      0.7396307315
C      -0.0684129768      2.1809132628     -0.0735417076
H      -0.8831375616     -1.2972396590     -0.2079081958
H      -2.7189505873      0.3445410130      1.4866019797
H      -2.7617002613     -1.3622976187      0.6125668974
H       0.9192536389      2.3270875348      0.4200689588
H      -0.8846438760      2.5736992379      0.4645383866
H      -0.0078952520      2.6119159051     -1.1158174787
12
Frame=146  time=73.500fs  energy=-306.17013035Ha  molecule=COOCCCHHHHHH
C       0.1015674411      0.5036209067     -0.0271397402
O       1.1945571016     -0.1501621080     -0.1631388606
O       2.3354332667      0.4831377818     -0.5228698718
C      -1.1275408337     -0.4147060097      0.1309874340
C      -2.2981358664     -0.4137475744      0.7447688575
C      -0.0668961634      2.1771448698     -0.0754988036
H      -0.9126167651     -1.2940173718     -0.2030404482
H      -2.7278244213      0.3510398205      1.4918833272
H      -2.7512891364     -1.3560357409      0.6047217159
H       0.8999726030      2.2977802271      0.4336677794
H      -0.8829831838      2.5677423586      0.4803674508
H      -0.0183649296      2.6327763376     -1.1313726268
12
Frame=147  time=74.000fs  energy=-306.16938421Ha  molecule=COOCCCHHHHHH
C       0.1040197104      0.5039249386     -0.0252460711
O       1.1909495633     -0.1513669871     -0.1644295899
O       2.3434033874      0.4785477938     -0.5280426721
C      -1.1360355014     -0.4105971111      0.1332788029
C      -2.2951033982     -0.4051306924      0.7502195892
C      -0.0649542616      2.1731032911     -0.0777348749
H      -0.9381479901     -1.3018948006     -0.2023904986
H      -2.7356442490      0.3542874524      1.4931253779
H      -2.7446526924     -1.3519052687      0.5980755741
H       0.8812986809      2.2717650173      0.4464735357
H      -0.8841737817      2.5609054362      0.4979028226
H      -0.0283058958      2.6510022947     -1.1425418584
12
Frame=148  time=74.500fs  energy=-306.16909774Ha  molecule=COOCCCHHHHHH
C       0.1057122470      0.5039154271     -0.0234677053
O       1.1874217346     -0.1523244057     -0.1658610207
O       2.3514923687      0.4739006095     -0.5331780830
C      -1.1442941182     -0.4054331131      0.1358070117
C      -2.2922196642     -0.3961044313      0.7560031511
C      -0.0627282037      2.1688340637     -0.0802928567
H      -0.9596503534     -1.3190361984     -0.2054489442
H      -2.7423771229      0.3544283041      1.4905259885
H      -2.7419419934     -1.3493741520      0.5929344897
H       0.8641867261      2.2500463339      0.4588549858
H      -0.8874208251      2.5528412934      0.5166412893
H      -0.0374677003      2.6661067577     -1.1483836299
12
Frame=149  time=75.000fs  energy=-306.16893959Ha  molecule=COOCCCHHHHHH
C       0.1065761769      0.5035519350     -0.0218200447
O       1.1839899567     -0.1530637313     -0.1674372316
O       2.3596686199      0.4691899019     -0.5382699891
C      -1.1521024792     -0.3994363996      0.1384178293
C      -2.2895962980     -0.3867842247      0.7621137981
C      -0.0603588955      2.1643804670     -0.0831725472
H      -0.9772986587     -1.3422734863     -0.2112366152
H      -2.7481596333      0.3519187224      1.4845554809
H      -2.7431814720     -1.3476229177      0.5896774966
H       0.8493761778      2.2333642963      0.4711585616
H      -0.8918243367      2.5432069635      0.5359447036
H      -0.0456343397      2.6778069430     -1.1483796152
12
Frame=150  time=75.500fs  energy=-306.16874504Ha  molecule=COOCCCHHHHHH
C       0.1065753198      0.5028039713     -0.0203117788
O       1.1806667122     -0.1536085186     -0.1691608120
O       2.3678989079      0.4644111290     -0.5433117856
C      -1.1592741234     -0.3928473066      0.1409585200
C      -2.2873261534     -0.3773230341      0.7685187520
C      -0.0579726192      2.1597829866     -0.0863305333
H      -0.9912639871     -1.3683648867     -0.2187728198
H      -2.7532705705      0.3474716038      1.4758953881
H      -2.7483204590     -1.3456457400      0.5887453801
H       0.8373383731      2.2221612588      0.4836014138
H      -0.8964876612      2.5317075602      0.5550976564
H      -0.0526247254      2.6860084537     -1.1424014256
12
Frame=151  time=76.000fs  energy=-306.16851438Ha  molecule=COOCCCHHHHHH
C       0.1057147243      0.5016623713     -0.0189492782
O       1.1774614793     -0.1539786860     -0.1710338744
O       2.3761480089      0.4595613391     -0.5482958506
C      -1.1656696853     -0.3858769493      0.1433043246
C      -2.2854879841     -0.3679007176      0.7751630877
C      -0.0556684912      2.1550772867     -0.0896837451
H      -1.0016931170     -1.3945838153     -0.2272434041
H      -2.7580911087      0.3419887162      1.4653883392
H      -2.7571626486     -1.3423776455      0.5905511706
H       0.8282711701      2.2165781055      0.4962192566
H      -0.9006018516      2.5181510183      0.5733718638
H      -0.0583066837      2.6907753654     -1.1306865515
12
Frame=152  time=76.500fs  energy=-306.16827591Ha  molecule=COOCCCHHHHHH
C       0.1040400196      0.5001457949     -0.0177410289
O       1.1743825493     -0.1541905384     -0.1730581801
O       2.3843771840      0.4546388835     -0.5532129769
C      -1.1712052019     -0.3786945299      0.1453683214
C      -2.2841452377     -0.3587057292      0.7819766518
C      -0.0535126588      2.1502882999     -0.0931110738
H      -1.0087987878     -1.4188911884     -0.2359949881
H      -2.7630562306      0.3364758198      1.4539673356
H      -2.7692890513     -1.3368409629      0.5953761856
H       0.8221494440      2.2164652005      0.5088529762
H      -0.9035030724      2.5024797240      0.5900730092
H      -0.0626068626      2.6923198930     -1.1138377338
12
Frame=153  time=77.000fs  energy=-306.16801386Ha  molecule=COOCCCHHHHHH
C       0.1016263985      0.4982986275     -0.0166989116
O       1.1714392651     -0.1542538572     -0.1752349595
O       2.3925435269      0.4496424632     -0.5580520700
C      -1.1758506050     -0.3714545183      0.1470925530
C      -2.2833365451     -0.3499141359      0.7888799414
C      -0.0515396332      2.1454235190     -0.0964537371
H      -1.0129456556     -1.4396363501     -0.2443989333
H      -2.7686158576      0.3319826046      1.4425826584
H      -2.7840628781     -1.3282659632      0.6033207372
H       0.8187916270      2.2214078802      0.5211559285
H      -0.9046962472      2.4847613941      0.6045608275
H      -0.0655109743      2.6910153939     -1.0928163740
12
Frame=154  time=77.500fs  energy=-306.16774318Ha  molecule=COOCCCHHHHHH
C       0.0985650019      0.4961825930     -0.0158363166
O       1.1686429493     -0.1541702303     -0.1775652136
O       2.4006008912      0.4445703257     -0.5628002653
C      -1.1796225846     -0.3643087134      0.1484405610
C      -2.2830693266     -0.3416754241      0.7957887649
C      -0.0497562094      2.1404707543     -0.0995231447
H      -1.0146106664     -1.4553876851     -0.2518178169
H      -2.7752127764      0.3295718081      1.4321535435
H      -2.8007167778     -1.3161506259      0.6143171997
H       0.8179062927      2.2307728760      0.5326215602
H      -0.9038573578      2.4651576773      0.6162593731
H      -0.0670642660      2.6873901002     -1.0688673581
12
Frame=155  time=78.000fs  energy=-306.16754509Ha  molecule=COOCCCHHHHHH
C       0.0949526413      0.4938656642     -0.0151656008
O       1.1660049033     -0.1539350423     -0.1800499977
O       2.4085019164      0.4394202126     -0.5674436170
C      -1.1825703960     -0.3573877393      0.1493967836
C      -2.2833255775     -0.3341024675      0.8026231169
C      -0.0481454994      2.1354020102     -0.1021184414
H      -1.0142572834     -1.4650674824     -0.2577060444
H      -2.7832508468      0.3302623357      1.4235115866
H      -2.8184735267     -1.3002895068      0.6281679340
H       0.8191244316      2.2437779852      0.5426394409
H      -0.9008279986      2.4438969075      0.6246762905
H      -0.0673761569      2.6820836347     -1.0433794643
12
Frame=156  time=78.500fs  energy=-306.16751196Ha  molecule=COOCCCHHHHHH
C       0.0908864175      0.4914129585     -0.0146966355
O       1.1635330987     -0.1535412462     -0.1826902767
O       2.4162003829      0.4341896105     -0.5719681499
C      -1.1847572832     -0.3507904493      0.1499623185
C      -2.2840779964     -0.3272599413      0.8093219378
C      -0.0466714918      2.1301776899     -0.1040406321
H      -1.0122574377     -1.4680087434     -0.2616717753
H      -2.7930190482      0.3349140054      1.4172997941
H      -2.8366412952     -1.2807968906      0.6445753632
H       0.8220364691      2.2595740750      0.5505810387
H      -0.8956024450      2.4212532987      0.6294339651
H      -0.0666245216      2.6758309786     -1.0178294680
12
Frame=157  time=79.000fs  energy=-306.16770270Ha  molecule=COOCCCHHHHHH
C       0.0864624003      0.4888828022     -0.0144366350
O       1.1612294331     -0.1529824383     -0.1854865449
O       2.4236530155      0.4288757593     -0.5763608466
C      -1.1862445240     -0.3445915691      0.1501466557
C      -2.2853064594     -0.3211519729      0.8158573179
C      -0.0452846231      2.1247446993     -0.1050930722
H      -1.0088989109     -1.4638428308     -0.2634533631
H      -2.8045889085      0.3440900928      1.4138599200
H      -2.8546687432     -1.2581284851      0.6631580259
H       0.8262316652      2.2773182316      0.5558885533
H      -0.8883065536      2.3975256780      0.6302959899
H      -0.0650530221      2.6695194720     -0.9938817113
12
Frame=158  time=79.500fs  energy=-306.16816646Ha  molecule=COOCCCHHHHHH
C       0.0817760464      0.4863283539     -0.0143905619
O       1.1590885440     -0.1522547339     -0.1884386369
O       2.4308204784      0.4234753601     -0.5806103550
C      -1.1870815528     -0.3388538182      0.1499611794
C      -2.2870057760     -0.3157137102      0.8222406850
C      -0.0439276895      2.1190361299     -0.1050864372
H      -1.0044315743     -1.4523578712     -0.2628687301
H      -2.8177429821      0.3579593399      1.4131709403
H      -2.8721830185     -1.2330926834      0.6834650565
H       0.8313192118      2.2962174104      0.5581345904
H      -0.8791808129      2.3730239149      0.6271831828
H      -0.0629532311      2.6641892080     -0.9733913829
12
Frame=159  time=80.000fs  energy=-306.16894761Ha  molecule=COOCCCHHHHHH
C       0.0769220957      0.4838032452     -0.0145625603
O       1.1570983053     -0.1513576447     -0.1915458534
O       2.4376678984      0.4179842338     -0.5847073834
C      -1.1873026514     -0.3336340614      0.1494182651
C      -2.2891825272     -0.3108108761      0.8285184750
C      -0.0425402827      2.1129840929     -0.1038729501
H      -0.9991061143     -1.4334463164     -0.2597922091
H      -2.8319749701      0.3762710080      1.4148682536
H      -2.8890194502     -1.2068295880      0.7050000126
H       0.8369387682      2.3155491749      0.5570610908
H      -0.8686041097      2.3480875377      0.6202216076
H      -0.0606220500      2.6608123924     -0.9580621052
12
Frame=160  time=80.500fs  energy=-306.16999526Ha  molecule=COOCCCHHHHHH
C       0.0719929774      0.4813672077     -0.0149591725
O       1.1552417561     -0.1502939451     -0.1948070739
O       2.4441651782      0.4123972701     -0.5886447793
C      -1.1869302690     -0.3289794458      0.1485368534
C      -2.2918458443     -0.3062494249      0.8347600149
C      -0.0410569632      2.1065386507     -0.1013956238
H      -0.9931865464     -1.4072012453     -0.2541846103
H      -2.8465561683      0.3983992432      1.4183274456
H      -2.9052271812     -1.1807354953      0.7272555937
H       0.8427801497      2.3346875720      0.5526103446
H      -0.8571894977      2.3231401706      0.6098570349
H      -0.0583097353      2.6599645223     -0.9489736806
12
Frame=161  time=81.000fs  energy=-306.17107471Ha  molecule=COOCCCHHHHHH
C       0.0670754928      0.4790873449     -0.0155916593
O       1.1535011405     -0.1490690139     -0.1982208936
O       2.4502871852      0.4067087191     -0.5924173705
C      -1.1859856613     -0.3249076809      0.1473542646
C      -2.2950000935     -0.3017957030      0.8410428036
C      -0.0393994407      2.0996813452     -0.0977171546
H      -0.9869183965     -1.3741889856     -0.2461895831
H      -2.8606233182      0.4234309490      1.4227683932
H      -2.9210344559     -1.1563210056      0.7497576507
H       0.8486021686      2.3531328218      0.5449317653
H      -0.8458855954      2.2987081355      0.5969532311
H      -0.0561971728      2.6616327823     -0.9463326902
12
Frame=162  time=81.500fs  energy=-306.17180115Ha  molecule=COOCCCHHHHHH
C       0.0622475300      0.4770359466     -0.0164749578
O       1.1518632079     -0.1476902845     -0.2017860201
O       2.4560136313      0.4009125636     -0.5960216409
C      -1.1845071713     -0.3213689950      0.1459428137
C      -2.2986422947     -0.2972072218      0.8474377628
C      -0.0374743470      2.0924296264     -0.0930117422
H      -0.9804403132     -1.3358471025     -0.2362770814
H      -2.8732528356      0.4502720190      1.4273451931
H      -2.9367691455     -1.1350062789      0.7721164684
H       0.8542478764      2.3705248380      0.5343513912
H      -0.8359564388      2.2753402161      0.5827394895
H      -0.0544074451      2.6652417449     -0.9495182548
12
Frame=163  time=82.000fs  energy=-306.17181974Ha  molecule=COOCCCHHHHHH
C       0.0575795559      0.4752873189     -0.0176252505
O       1.1503216930     -0.1461667096     -0.2055016127
O       2.4613281371      0.3950028163     -0.5994551627
C      -1.1825701059     -0.3182107167      0.1444232238
C      -2.3027596239     -0.2922717045      0.8539940562
C      -0.0351829754      2.0848266824     -0.0875223702
H      -0.9736980815     -1.2947592730     -0.2253290145
H      -2.8835373410      0.4777677553      1.4312260381
H      -2.9527442231     -1.1178943759      0.7940680904
H       0.8596614175      2.3866404360      0.5213111685
H      -0.8288220446      2.2535049296      0.5686131115
H      -0.0530252260      2.6698756834     -0.9573799480
12
Frame=164  time=82.500fs  energy=-306.17102142Ha  molecule=COOCCCHHHHHH
C       0.0531428449      0.4739135758     -0.0190589269
O       1.1488750545     -0.1445072516     -0.2093672968
O       2.4662164888      0.3889737892     -0.6027158388
C      -1.1802961705     -0.3151770867      0.1429644387
C      -2.3073260160     -0.2868392220      0.8607277304
C      -0.0324368685      2.0769234114     -0.0815063496
H      -0.9664562704     -1.2545665237     -0.2145772154
H      -2.8906766556      0.5048204929      1.4336689045
H      -2.9691292110     -1.1056086813      0.8154746062
H       0.8648811010      2.4013740823      0.5063034891
H      -0.8258367383      2.2335769577      0.5559093472
H      -0.0521142481      2.6745598743     -0.9686157696
12
Frame=165  time=83.000fs  energy=-306.16966131Ha  molecule=COOCCCHHHHHH
C       0.0490186867      0.4729816304     -0.0207924437
O       1.1475244321     -0.1427182023     -0.2133829030
O       2.4706652238      0.3828203840     -0.6058015026
C      -1.1778496238     -0.3119455719      0.1417692594
C      -2.3123019530     -0.2808291538      0.8676210495
C      -0.0291759955      2.0687694575     -0.0751939224
H      -0.9584176451     -1.2196410381     -0.2054518331
H      -2.8940595541      0.5304731876      1.4340788434
H      -2.9858210960     -1.0982479826      0.8362722895
H       0.8699871415      2.4146951118      0.4898278907
H      -0.8280296965      2.2158773852      0.5456755255
H      -0.0517389923      2.6784196366     -0.9819863921
12
Frame=166  time=83.500fs  energy=-306.16836914Ha  molecule=COOCCCHHHHHH
C       0.0453022711      0.4725531790     -0.0228409033
O       1.1462723936     -0.1408017241     -0.2175479161
O       2.4746615419      0.3765384868     -0.6087101164
C      -1.1754201040     -0.3081833056      0.1410462445
C      -2.3176391486     -0.2742203658      0.8746310535
C      -0.0253882426      2.0604136264     -0.0687676297
H      -0.9493586996     -1.1945604169     -0.1993693041
H      -2.8933080250      0.5539622045      1.4320415140
H      -3.0023845303     -1.0954326681      0.8564175763
H       0.8750454545      2.4265952011      0.4723685443
H      -0.8358590777      2.2006985714      0.5384816380
H      -0.0519759289      2.6806969842     -0.9963303037
12
Frame=167  time=84.000fs  energy=-306.16790001Ha  molecule=COOCCCHHHHHH
C       0.0420913778      0.4726801782     -0.0252145900
O       1.1451211271     -0.1387587311     -0.2218609937
O       2.4781940647      0.3701259581     -0.6114401552
C      -1.1731879675     -0.3036303425      0.1409689778
C      -2.3232869018     -0.2670422047      0.8816978878
C      -0.0211226181      2.0519095812     -0.0623573423
H      -0.9392044005     -1.1830678083     -0.1974090655
H      -2.8882915690      0.5747777290      1.4273546721
H      -3.0181416423     -1.0964047107      0.8758886928
H       0.8800987512      2.4370601301      0.4543814615
H      -0.8490608045      2.1882678934      0.5343234467
H      -0.0529055318      2.6807156636     -1.0105264307
12
Frame=168  time=84.500fs  energy=-306.16852066Ha  molecule=COOCCCHHHHHH
C       0.0394639501      0.4733970857     -0.0279155726
O       1.1440695145     -0.1365957443     -0.2263197010
O       2.4812528090      0.3635836322     -0.6139908055
C      -1.1712805686     -0.2982072276      0.1416360885
C      -2.3291950555     -0.2593666116      0.8887478667
C      -0.0164896678      2.0433260744     -0.0560426788
H      -0.9281305367     -1.1866623021     -0.1999117984
H      -2.8791366195      0.5927231980      1.4200549000
H      -3.0322785817     -1.1001320831      0.8946912193
H       0.8851750066      2.4460678438      0.4362782610
H      -0.8666174133      2.1786543925      0.5326356046
H      -0.0546002368      2.6778631439     -1.0234979077
12
Frame=169  time=85.000fs  energy=-306.16969175Ha  molecule=COOCCCHHHHHH
C       0.0374666316      0.4747182005     -0.0309358582
O       1.1431090938     -0.1343298018     -0.2309209911
O       2.4838286459      0.3569150595     -0.6163617728
C      -1.1697531790     -0.2920662913      0.1430553484
C      -2.3353057738     -0.2512980065      0.8956946800
C      -0.0116463007      2.0347504590     -0.0498590316
H      -0.9166381722     -1.2039260400     -0.2062767950
H      -2.8662275897      0.6079379889      1.4104163694
H      -3.0439377134     -1.1054266226      0.9128349358
H       0.8902762287      2.4536033972      0.4184036561
H      -0.8868843348      2.1717025506      0.5324287916
H      -0.0571161543      2.6716267950     -1.0342754302
12
Frame=170  time=85.500fs  energy=-306.17050369Ha  molecule=COOCCCHHHHHH
C       0.0361244540      0.4766433032     -0.0342576958
O       1.1422238275     -0.1319868913     -0.2356623651
O       2.4859135935      0.3501248997     -0.6185530051
C      -1.1686053333     -0.2855469290      0.1451544664
C      -2.3415409117     -0.2429629367      0.9024444775
C      -0.0067662898      2.0262769535     -0.0438087353
H      -0.9055444323     -1.2310696527     -0.2150863235
H      -2.8501886712      0.6208833116      1.3989193762
H      -3.0523316887     -1.1110919760      0.9303098260
H       0.8953643032      2.4596723383      0.4010302734
H      -0.9079107945      2.1670601882      0.5325515825
H      -0.0604950091      2.6616770725     -1.0421125965
12
Frame=171  time=86.000fs  energy=-306.17036815Ha  molecule=COOCCCHHHHHH
C       0.0354595613      0.4791648707     -0.0378574638
O       1.1413971195     -0.1295973127     -0.2405428870
O       2.4875011401      0.3432174625     -0.6205646188
C      -1.1678087086     -0.2790907834      0.1478062084
C      -2.3478017029     -0.2345070366      0.9089021701
C      -0.0020062482      2.0179886580     -0.0378795844
H      -0.8959188135     -1.2629471234     -0.2244030809
H      -2.8318626346      0.6323340714      1.3862212816
H      -3.0568143566     -1.1160421223      0.9470792146
H       0.9003745007      2.4642984316      0.3843875291
H      -0.9278588330      2.1643037123      0.5319847850
H      -0.0647891837      2.6479170250     -1.0465682800
12
Frame=172  time=86.500fs  energy=-306.16943418Ha  molecule=COOCCCHHHHHH
C       0.0354991227      0.4822671380     -0.0417113845
O       1.1406232622     -0.1271907984     -0.2455630168
O       2.4885863604      0.3361969101     -0.6223971637
C      -1.1673403166     -0.2731193454      0.1508727988
C      -2.3539824639     -0.2260944570      0.9149789555
C       0.0025195811      2.0099496273     -0.0320632591
H      -0.8887932967     -1.2944740655     -0.2323162227
H      -2.8122410943      0.6433476464      1.3731040682
H      -3.0569381401     -1.1193565578      0.9631080919
H       0.9052494104      2.4675040004      0.3687005688
H      -0.9453252375      2.1630681126      0.5300272271
H      -0.0700953842      2.6304362307     -1.0474907371
12
Frame=173  time=87.000fs  energy=-306.16830330Ha  molecule=COOCCCHHHHHH
C       0.0362690084      0.4859203860     -0.0457997496
O       1.1399082969     -0.1247927797     -0.2507227721
O       2.4891668880      0.3290683540     -0.6240521379
C      -1.1672007306     -0.2679217289      0.1542461870
C      -2.3599833639     -0.2178902510      0.9206036544
C       0.0067433152      2.0022086741     -0.0263632942
H      -0.8847826513     -1.3219311090     -0.2374707574
H      -2.7923042309      0.6551165517      1.3603466762
H      -3.0525657554     -1.1203526529      0.9784029311
H       0.9099534672      2.4692766190      0.3542079560
H      -0.9594202000      2.1630993274      0.5263283794
H      -0.0765506712      2.6094137070     -1.0449413058
12
Frame=174  time=87.500fs  energy=-306.16750140Ha  molecule=COOCCCHHHHHH
C       0.0377780712      0.4900807773     -0.0501061434
O       1.1392629650     -0.1224233998     -0.2560200295
O       2.4892443404      0.3218387732     -0.6255325267
C      -1.1674023090     -0.2636285258      0.1578598390
C      -2.3657124832     -0.2100339375      0.9257259923
C       0.0106295540      1.9948046584     -0.0207927763
H      -0.8840457816     -1.3433337883     -0.2391811940
H      -2.7728857452      0.6687748506      1.3486124398
H      -3.0438858408     -1.1186463809      0.9930089419
H       0.9144702506      2.4695638440      0.3411550414
H      -0.9696382016      2.1642277321      0.5208139092
H      -0.0842908016      2.5850559704     -1.0391190897
12
Frame=175  time=88.000fs  energy=-306.16726383Ha  molecule=COOCCCHHHHHH
C       0.0400080071      0.4946951940     -0.0546133786
O       1.1386971516     -0.1200990579     -0.2614501737
O       2.4888250956      0.3145172933     -0.6268430143
C      -1.1679545398     -0.2602568078      0.1616806876
C      -2.3710814862     -0.2026188075      0.9303110899
C       0.0141597505      1.9877685810     -0.0153689684
H      -0.8864770729     -1.3579999792     -0.2372361005
H      -2.7546139490      0.6852179285      1.3383951039
H      -3.0313297658     -1.1141563614      1.0069890206
H       0.9188005321      2.4683055608      0.3297752721
H      -0.9756900601      2.1663220810      0.5135891482
H      -0.0934102617      2.5575896302     -1.0303192732
12
Frame=176  time=88.500fs  energy=-306.16759368Ha  molecule=COOCCCHHHHHH
C       0.0429150730      0.4997064051     -0.0593004552
O       1.1382165126     -0.1178346673     -0.2670061501
O       2.4879202175      0.3071149729     -0.6279899003
C      -1.1688570452     -0.2577749652      0.1656925735
C      -2.3760027361     -0.1956757861      0.9343362623
C       0.0173242962      1.9811222656     -0.0101086999
H      -0.8918838076     -1.3658562226     -0.2316404972
H      -2.7378935550      0.7049268137      1.3299851316
H      -3.0155142019     -1.1070941896      1.0204224461
H       0.9229680369      2.4654724591      0.3202709001
H      -0.9774167541      2.1692694789      0.5048827699
H      -0.1039415765      2.5272889509     -1.0189363019
12
Frame=177  time=89.000fs  energy=-306.16834940Ha  molecule=COOCCCHHHHHH
C       0.0464362342      0.5050548878     -0.0641413784
O       1.1378209004     -0.1156452839     -0.2726787251
O       2.4865446633      0.2996442957     -0.6289808196
C      -1.1700968865     -0.2561430547      0.1698832853
C      -2.3803890754     -0.1891618660      0.9377915656
C       0.0201220877      1.9748748632     -0.0050233688
H      -0.9000577618     -1.3669954254     -0.2224684518
H      -2.7229218861      0.7278393127      1.3234578464
H      -2.9972310358     -1.0979681277      1.0334206432
H       0.9270358332      2.4610965180      0.3127979657
H      -0.9747966797      2.1729852768      0.4950358693
H      -0.1158519976      2.4945225750     -1.0055152964
12
Frame=178  time=89.500fs  energy=-306.16930975Ha  molecule=COOCCCHHHHHH
C       0.0504938133      0.5106771058     -0.0691046777
O       1.1375047257     -0.1135470000     -0.2784573895
O       2.4847156093      0.2921184104     -0.6298241935
C      -1.1716472981     -0.2553262782      0.1742382358
C      -2.3841539197     -0.1829595606      0.9406788561
C       0.0225648559      1.9690199913     -0.0001124511
H      -0.9107770345     -1.3615260115     -0.2098211136
H      -2.7097450742      0.7533434130      1.3187069865
H      -2.9774364774     -1.0875776717      1.0461441409
H       0.9311238352      2.4552920754      0.3074543171
H      -0.9680014622      2.1774324223      0.4845068933
H      -0.1290581697      2.4597983649     -0.9908283686
12
Frame=179  time=90.000fs  energy=-306.17025316Ha  molecule=COOCCCHHHHHH
C       0.0549969875      0.5165030926     -0.0741532152
O       1.1372590648     -0.1115572245     -0.2843319492
O       2.4824501215      0.2845503094     -0.6305284375
C      -1.1734686734     -0.2552924523      0.1787398073
C      -2.3872115257     -0.1768922087      0.9430069380
C       0.0246838486      1.9635378135      0.0046416466
H      -0.9237828012     -1.3495970498     -0.1938391026
H      -2.6983359178      0.7804152962      1.3155194105
H      -2.9571977161     -1.0769605762      1.0588085392
H       0.9354098407      2.4482617572      0.3042674581
H      -0.9574463597      2.1826269911      0.4738633259
H      -0.1434545139      2.4237598224     -0.9759077448
12
Frame=180  time=90.500fs  energy=-306.17101588Ha  molecule=COOCCCHHHHHH
C       0.0598403178      0.5224565571     -0.0792449358
O       1.1370746130     -0.1096941521     -0.2902941615
O       2.4797633121      0.2769521686     -0.6311012652
C      -1.1755123766     -0.2559980536      0.1833712046
C      -2.3894804595     -0.1707529108      0.9447855709
C       0.0265355980      1.9584038102      0.0092721838
H      -0.9387447748     -1.3315538494     -0.1747480886
H      -2.6886570255      0.8078390931      1.3136551074
H      -2.9375894432     -1.0672632125      1.0716754039
H       0.9401034740      2.4402826820      0.3031798387
H      -0.9438076202      2.1886185589      0.4637645348
H      -0.1589267421      2.3871005032     -0.9619731652
12
Frame=181  time=91.000fs  energy=-306.17146947Ha  molecule=COOCCCHHHHHH
C       0.0649021615      0.5284565299     -0.0843346738
O       1.1369440028     -0.1079750086     -0.2963385012
O       2.4766685311      0.2693348030     -0.6315495980
C      -1.1777265146     -0.2573621674      0.1881230547
C      -2.3908941688     -0.1643391914      0.9460241590
C       0.0282037286      1.9536000308      0.0138183420
H      -0.9552097165     -1.3082291090     -0.1529387367
H      -2.6806782876      0.8343994383      1.3128895623
H      -2.9195598261     -1.0595283734      1.0850279000
H       0.9453956121      2.4316776996      0.3040276217
H      -0.9280201157      2.1954627512      0.4549643110
H      -0.1753194009      2.3504363242     -0.9502658959
12
Frame=182  time=91.500fs  energy=-306.17147182Ha  molecule=COOCCCHHHHHH
C       0.0700497353      0.5344173839     -0.0893760747
O       1.1368624125     -0.1064133349     -0.3024616200
O       2.4731799595      0.2617071025     -0.6318802501
C      -1.1800644733     -0.2592346138      0.1929999708
C      -2.3914173489     -0.1574845983      0.9467378529
C       0.0297954528      1.9491217183      0.0183110760
H      -0.9725470904     -1.2812860547     -0.1290555136
H      -2.6743483450      0.8589786723      1.3130050167
H      -2.9038022836     -1.0544511951      1.0991308880
H       0.9513982994      2.4227805990      0.3065147287
H      -0.9112623411      2.2032227487      0.4483236628
H      -0.1923745387      2.3142241070     -0.9418552487
12
Frame=183  time=92.000fs  energy=-306.17093534Ha  molecule=COOCCCHHHHHH
C       0.0751550479      0.5402499240     -0.0943232577
O       1.1368267925     -0.1050174060     -0.3086608363
O       2.4693158064      0.2540757124     -0.6321009347
C      -1.1824957100     -0.2613825890      0.1980228268
C      -2.3910579628     -0.1500805643      0.9469555302
C       0.0314312286      1.9449759010      0.0227611528
H      -0.9899619307     -1.2533335299     -0.1040038694
H      -2.6695631190      0.8805827843      1.3137670034
H      -2.8906774226     -1.0522174523      1.1141819304
H       0.9581041856      2.4139019962      0.3102048777
H      -0.8948765230      2.2120059217      0.4447701787
H      -0.2097009427      2.2787715869     -0.9374782004
12
Frame=184  time=92.500fs  energy=-306.16997134Ha  molecule=COOCCCHHHHHH
C       0.0801126976      0.5458679240     -0.0991323809
O       1.1368346296     -0.1037919990     -0.3149326559
O       2.4651003409      0.2464454536     -0.6322210395
C      -1.1850093541     -0.2635206358      0.2032228865
C      -2.3898655283     -0.1420856726      0.9467209526
C       0.0332256088      1.9411774996      0.0271544284
H      -1.0066443477     -1.2275548514     -0.0787940388
H      -2.6661808943      0.8983700168      1.3149366207
H      -2.8802010978     -1.0524955754      1.1302627915
H       0.9653874382      2.4052994037      0.3145531203
H      -0.8801604411      2.2219812172      0.4451606335
H      -0.2268046003      2.2442996587     -0.9374335811
12
Frame=185  time=93.000fs  energy=-306.16885809Ha  molecule=COOCCCHHHHHH
C       0.0848450299      0.5511920173     -0.1037624850
O       1.1368818114     -0.1027420009     -0.3212720972
O       2.4605646118      0.2388201880     -0.6322519168
C      -1.1876049464     -0.2653652843      0.2086318295
C      -2.3879198529     -0.1335200538      0.9460880654
C       0.0352617999      1.9377507652      0.0314565256
H      -1.0219315515     -1.2070932587     -0.0543284923
H      -2.6640633238      0.9116917005      1.3163069038
H      -2.8720874570     -1.0545331450      1.1473049001
H       0.9730433275      2.3971574717      0.3189694650
H      -0.8680731462      2.2333263558      0.4500934105
H      -0.2431568837      2.2110204426     -0.9415494323
12
Frame=186  time=93.500fs  energy=-306.16792083Ha  molecule=COOCCCHHHHHH
C       0.0892951326      0.5561447152     -0.1081762224
O       1.1369602407     -0.1018752541     -0.3276721778
O       2.4557457512      0.2312037124     -0.6322065782
C      -1.1902859595     -0.2666586781      0.2142787787
C      -2.3853192322     -0.1244458797      0.9451179631
C       0.0375711290      1.9347322093      0.0356262314
H      -1.0352377275     -1.1947934165     -0.0313712054
H      -2.6630965719      0.9201010441      1.3177201360
H      -2.8658544252     -1.0572926650      1.1651026295
H       0.9808535494      2.3895915732      0.3228920363
H      -0.8590054490      2.2461195052      0.4597702479
H      -0.2582736906      2.1792150154     -0.9492715997
12
Frame=187  time=94.000fs  energy=-306.16746384Ha  molecule=COOCCCHHHHHH
C       0.0934160528      0.5606475846     -0.1123398555
O       1.1370582214     -0.1012046928     -0.3341238207
O       2.4506847345      0.2236008077     -0.6320988122
C      -1.1930525630     -0.2671956050      0.2201809234
C      -2.3821685341     -0.1149496208      0.9438762862
C       0.0401307669      1.9321711791      0.0396330447
H      -1.0459632687     -1.1928560452     -0.0105311957
H      -2.6631994153      0.9233985977      1.3190758824
H      -2.8609682852     -1.0596103929      1.1833737532
H       0.9886344864      2.3826720799      0.3258356652
H      -0.8527310690      2.2602223845      0.4739568397
H      -0.2717937618      2.1492487595     -0.9598397392
12
Frame=188  time=94.500fs  energy=-306.16756704Ha  molecule=COOCCCHHHHHH
C       0.0971630628      0.5646239990     -0.1162221117
O       1.1371616472     -0.1007496088     -0.3406167845
O       2.4454231454      0.2160179341     -0.6319419184
C      -1.1958844776     -0.2668854548      0.2263247032
C      -2.3785689745     -0.1051384743      0.9424287117
C       0.0428788883      1.9301304196      0.0434697686
H      -1.0536089314     -1.2020786638      0.0078915221
H      -2.6643396936      0.9217374292      1.3203485448
H      -2.8569276816     -1.0603248273      1.2017972197
H       0.9962373696      2.3764435809      0.3273940715
H      -0.8485218276      2.2752362003      0.4920099079
H      -0.2835312154      2.1215255805     -0.9724170225
12
Frame=189  time=95.000fs  energy=-306.16796304Ha  molecule=COOCCCHHHHHH
C       0.1004942664      0.5680040291     -0.1197947057
O       1.1372527139     -0.1005340845     -0.3471404758
O       2.4400012600      0.2084632386     -0.6317478669
C      -1.1987295044     -0.2657896537      0.2326573925
C      -2.3746145558     -0.0951417566      0.9408388226
C       0.0457342707      1.9286829956      0.0471513299
H      -1.0579023260     -1.2214468565      0.0239803894
H      -2.6665487332      0.9156805866      1.3216002977
H      -2.8532853049     -1.0583516991      1.2200223455
H       1.0035407773      2.3709273246      0.3272206194
H      -0.8453586477      2.2905792971      0.5129471104
H      -0.2934635031      2.0964326927     -0.9860918705
12
Frame=190  time=95.500fs  energy=-306.16825934Ha  molecule=COOCCCHHHHHH
C       0.1033786845      0.5707287489     -0.1230341515
O       1.1373089294     -0.1005815496     -0.3536844938
O       2.4344586321      0.2009458281     -0.6315274449
C      -1.2015091721     -0.2640867872      0.2390977330
C      -2.3703935335     -0.0851049956      0.9391688727
C       0.0486117206      1.9278997184      0.0507029361
H      -1.0587938112     -1.2486125362      0.0380738681
H      -2.6699043703      0.9061510128      1.3229686358
H      -2.8496869221     -1.0527575360      1.2377023356
H       1.0104732824      2.3661160895      0.3250335026
H      -0.8421845256      2.3056390460      0.5355802564
H      -0.3016721042      2.0743334187     -0.9998710943
12
Frame=191  time=96.000fs  energy=-306.16818769Ha  molecule=COOCCCHHHHHH
C       0.1058039925      0.5727517918     -0.1259222803
O       1.1373035093     -0.1009094911     -0.3602394000
O       2.4288354999      0.1934752297     -0.6312908546
C      -1.2041327710     -0.2620130786      0.2455542168
C      -2.3659864675     -0.0751740969      0.9374777266
C       0.0514335710      1.9278333224      0.0541490334
H      -1.0564011385     -1.2806294528      0.0506012523
H      -2.6745004011      0.8943108151      1.3246387612
H      -2.8459260013     -1.0428606037      1.2545439058
H       1.0170291344      2.3619646171      0.3206328198
H      -0.8381315552      2.3199118623      0.5587274504
H      -0.3082762868      2.0555905693     -1.0128008158
12
Frame=192  time=96.500fs  energy=-306.16767831Ha  molecule=COOCCCHHHHHH
C       0.1077776904      0.5740382704     -0.1284455208
O       1.1372059249     -0.1015291347     -0.3667972736
O       2.4231735232      0.1860620904     -0.6310480844
C      -1.2065063464     -0.2598317336      0.2519374684
C      -2.3614626467     -0.0654848043      0.9358163784
C       0.0541385965      1.9285132559      0.0575090029
H      -1.0509882158     -1.3142834877      0.0620144262
H      -2.6804378239      0.8814976744      1.3268330768
H      -2.8419515103     -1.0283018252      1.2703229147
H       1.0232462580      2.3583809486      0.3138917102
H      -0.8326511814      2.3330588817      0.5814438691
H      -0.3133790573      2.0405521321     -1.0241619824
12
Frame=193  time=97.000fs  energy=-306.16687780Ha  molecule=COOCCCHHHHHH
C       0.1093243040      0.5745655433     -0.1305960194
O       1.1369825560     -0.1024485008     -0.3733515090
O       2.4175157679      0.1787190612     -0.6308088815
C      -1.2085430032     -0.2577887124      0.2581709989
C      -2.3568786506     -0.0561607193      0.9342251739
C       0.0566848371      1.9299497217      0.0607976753
H      -1.0429271979     -1.3465434117      0.0727222837
H      -2.6878177829      0.8691868584      1.3297998525
H      -2.8378288367     -1.0090720330      1.2848719676
H       1.0291851351      2.3552420415      0.3047331350
H      -0.8255144729      2.3448995065      0.6031560929
H      -0.3170345694      2.0294846373     -1.0335836600
12
Frame=194  time=97.500fs  energy=-306.16603438Ha  molecule=COOCCCHHHHHH
C       0.1104780447      0.5743257592     -0.1323725734
O       1.1365989153     -0.1036746097     -0.3798967158
O       2.4119055475      0.1714600689     -0.6305823636
C      -1.2101749808     -0.2560687891      0.2641985506
C      -2.3522740468     -0.0473004154      0.9327328145
C       0.0590434097      1.9321377267      0.0640269998
H      -1.0326569878     -1.3750391614      0.0830520866
H      -2.6967103708      0.8588348017      1.3337604801
H      -2.8336935349     -0.9855440291      1.2980693643
H       1.0349252362      2.3524322700      0.2931128899
H      -0.8166989355      2.3553925763      0.6236353089
H      -0.3192397923      2.0225110909     -1.0409889701
12
Frame=195  time=98.000fs  energy=-306.16535582Ha  molecule=COOCCCHHHHHH
C       0.1112716204      0.5733248867     -0.1337782742
O       1.1360221197     -0.1052142604     -0.3864288630
O       2.4063849858      0.1642988809     -0.6303766950
C      -1.2113541839     -0.2547913383      0.2699826502
C      -2.3476678636     -0.0389543817      0.9313577995
C       0.0611897111      1.9350620422      0.0672070080
H      -1.0206729654     -1.3981408642      0.0932668141
H      -2.7071162773      0.8516578062      1.3388363463
H      -2.8297387540     -0.9584946201      1.3098485684
H       1.0405692226      2.3498769518      0.2790138155
H      -0.8062458814      2.3645906727      0.6428559272
H      -0.3199564823      2.0196081199     -1.0464439898
12
Frame=196  time=98.500fs  energy=-306.16495473Ha  molecule=COOCCCHHHHHH
C       0.1117289389      0.5715792687     -0.1348174060
O       1.1352211091     -0.1070745643     -0.3929448520
O       2.4009941541      0.1572484748     -0.6301990292
C      -1.2120430612     -0.2540251048      0.2754986180
C      -2.3430623643     -0.0311074314      0.9301122100
C       0.0630984546      1.9387019061      0.0703460960
H      -1.0075056322     -1.4148280877      0.1035804796
H      -2.7189402584      0.8484738230      1.3449971056
H      -2.8262316491     -0.9290953396      1.3202282790
H       1.0462485183      2.3475512555      0.2624453337
H      -0.7941682157      2.3725807337      0.6608474088
H      -0.3191478588      2.0206445348     -1.0500244701
12
Frame=197  time=99.000fs  energy=-306.16486800Ha  molecule=COOCCCHHHHHH
C       0.1118645420      0.5691137125     -0.1354933167
O       1.1341662873     -0.1092632481     -0.3994418029
O       2.3957703670      0.1503210312     -0.6300555444
C      -1.2122055683     -0.2538075175      0.2807281321
C      -2.3384545028     -0.0236754770      0.9290080316
C       0.0647433594      1.9430331854      0.0734519586
H      -0.9936843983     -1.4244976284      0.1141614793
H      -2.7319667752      0.8496300138      1.3520341117
H      -2.8235105441     -0.8988248351      1.3293293265
H       1.0521203552      2.3454619366      0.2434408058
H      -0.7804230017      2.3794401922      0.6776049451
H      -0.3168103326      2.0254296976     -1.0517634883
12
Frame=198  time=99.500fs  energy=-306.16510244Ha  molecule=COOCCCHHHHHH
C       0.1116861811      0.5659618004     -0.1358071394
O       1.1328304324     -0.1117880765     -0.4059166828
O       2.3907474775      0.1435278229     -0.6299515157
C      -1.2118048818     -0.2541606347      0.2856560725
C      -2.3338487417     -0.0165170449      0.9280644151
C       0.0661000217      1.9480286782      0.0765327143
H      -0.9797027306     -1.4268063020      0.1251280952
H      -2.7458316086      0.8549829874      1.3595484549
H      -2.8219410139     -0.8692816340      1.3373513399
H       1.0583460650      2.3436118470      0.2220514089
H      -0.7649252219      2.3852220513      0.6930662746
H      -0.3129878790      2.0337517699     -1.0516646411
12
Frame=199  time=100.000fs  energy=-306.16566121Ha  molecule=COOCCCHHHHHH
C       0.1111966447      0.5621664614     -0.1357574393
O       1.1311906004     -0.1146550931     -0.4123662701
O       2.3859553094      0.1368787333     -0.6298914736
C      -1.2108070330     -0.2550986329      0.2902713119
C      -2.3292643103     -0.0094549018      0.9273119757
C       0.0671507731      1.9536580113      0.0795962593
H      -0.9660010174     -1.4215994027      0.1365455556
H      -2.7600073138      0.8639440938      1.3669638946
H      -2.8218500465     -0.8419718332      1.3445165314
H       1.0650504280      2.3419617879      0.1983419871
H      -0.7475807410      2.3899660433      0.7071346806
H      -0.3077670116      2.0453966452     -1.0497298957
12
Frame=200  time=100.500fs  energy=-306.16654536Ha  molecule=COOCCCHHHHHH
C       0.1103936079      0.5577785085     -0.1353410543
O       1.1292300270     -0.1178659719     -0.4187870810
O       2.3814191041      0.1303815878     -0.6298794388
C      -1.2091844675     -0.2566272610      0.2945686076
C      -2.3247354685     -0.0023024010      0.9267919251
C       0.0678912958      1.9598873319      0.0826459707
H      -0.9529751836     -1.4089116794      0.1484342945
H      -2.7738279924      0.8756160044      1.3735830437
H      -2.8234659698     -0.8181555652      1.3510066356
H       1.0722771985      2.3404055049      0.1723980114
H      -0.7283367186      2.3937289747      0.7197332792
H      -0.3012614617      2.0601505910     -1.0459706470
12
Frame=201  time=101.000fs  energy=-306.16772866Ha  molecule=COOCCCHHHHHH
C       0.1092679295      0.5528519376     -0.1345547899
O       1.1269394470     -0.1214153611     -0.4251751366
O       2.3771588145      0.1240416098     -0.6299191624
C      -1.2069151187     -0.2587361461      0.2985489346
C      -2.3203086378      0.0051092046      0.9265522064
C       0.0683398626      1.9666771997      0.0856712141
H      -0.9409934090     -1.3890316222      0.1607829459
H      -2.7865606039      0.8889917646      1.3786827869
H      -2.8268735815     -0.7987509862      1.3569076481
H       1.0799618045      2.3387724328      0.1443516881
H      -0.7072659626      2.3966370762      0.7308939070
H      -0.2936021505      2.0777957653     -1.0404003384
12
Frame=202  time=101.500fs  energy=-306.16910282Ha  molecule=COOCCCHHHHHH
C       0.1078013474      0.5474373143     -0.1333968724
O       1.1243175830     -0.1252897725     -0.4315258588
O       2.3731885731      0.1178612884     -0.6300143242
C      -1.2039790964     -0.2613828848      0.3022185889
C      -2.3160399669      0.0129069888      0.9266441672
C       0.0685497260      1.9739770187      0.0886328131
H      -0.9303848093     -1.3626427551      0.1735484958
H      -2.7974951938      0.9031382756      1.3816121551
H      -2.8319904424     -0.7842637050      1.3621708569
H       1.0879320590      2.3368652811      0.1144276018
H      -0.6846887806      2.3989620677      0.7408788347
H      -0.2849488012      2.0981071730     -1.0330185814
12
Frame=203  time=102.000fs  energy=-306.17043768Ha  molecule=COOCCCHHHHHH
C       0.1059658423      0.5415782048     -0.1318672345
O       1.1213701159     -0.1294698316     -0.4378342730
O       2.3695170360      0.1118409685     -0.6301686570
C      -1.2003586651     -0.2644708382      0.3055886136
C      -2.3119939010      0.0211608273      0.9271208253
C       0.0686202754      1.9817176996      0.0914492527
H      -0.9213759587     -1.3310338554      0.1866343399
H      -2.8060177689      0.9173096282      1.3818564331
H      -2.8385768262     -0.7747481911      1.3666047904
H       1.0959336722      2.3345228208      0.0829929909
H      -0.6612708916      2.4011920138      0.7502844342
H      -0.2755299835      2.1208540203     -1.0237987228
12
Frame=204  time=102.500fs  energy=-306.17142120Ha  molecule=COOCCCHHHHHH
C       0.1037291808      0.5353169145     -0.1299676468
O       1.1181061678     -0.1339358439     -0.4440951387
O       2.3661487712      0.1059802934     -0.6303859302
C      -1.1960443452     -0.2678293556      0.3086744896
C      -2.3082426000      0.0298784203      0.9280359228
C       0.0686956867      1.9898081392      0.0939952732
H      -0.9139998587     -1.2963120454      0.1998652926
H      -2.8116511741      0.9309837592      1.3790589360
H      -2.8462750282     -0.7698287653      1.3699030586
H       1.1036715437      2.3316745410      0.0505854500
H      -0.6379762167      2.4040385115      0.7600334191
H      -0.2656928619      2.1457979736     -1.0126973046
12
Frame=205  time=103.000fs  energy=-306.17179143Ha  molecule=COOCCCHHHHHH
C       0.1010684117      0.5287079766     -0.1277041487
O       1.1145345366     -0.1386729522     -0.4503030376
O       2.3630856976      0.1002799755     -0.6306697290
C      -1.1910474332     -0.2711991751      0.3114964133
C      -2.3048635059      0.0390081992      0.9294405708
C       0.0689443818      1.9981391716      0.0961195215
H      -0.9080422500     -1.2615830071      0.2130020417
H      -2.8140820744      0.9438513869      1.3730267364
H      -2.8546453847     -0.7687815943      1.3716908118
H       1.1108555833      2.3283472708      0.0179011050
H      -0.6158378076      2.4083491865      0.7712244693
H      -0.2559277068      2.1726846412     -0.9997053211
12
Frame=206  time=103.500fs  energy=-306.17156685Ha  molecule=COOCCCHHHHHH
C       0.0979809059      0.5218261984     -0.1250890718
O       1.1106656737     -0.1436719532     -0.4564539974
O       2.3603274718      0.0947426950     -0.6310230369
C      -1.1854143551     -0.2742358623      0.3140820552
C      -2.3019267587      0.0484455419      0.9313719349
C       0.0695257792      2.0065935815      0.0976763829
H      -0.9031107616     -1.2308938881      0.2258228367
H      -2.8132021933      0.9557973014      1.3637581578
H      -2.8631611533     -0.7706230870      1.3715604616
H       1.1172421257      2.3246247301     -0.0142548263
H      -0.5956616033      2.4149364529      0.7848909711
H      -0.2468520617      2.2012556894     -0.9849365164
12
Frame=207  time=104.000fs  energy=-306.17115055Ha  molecule=COOCCCHHHHHH
C       0.0944813490      0.5147621280     -0.1221369058
O       1.1065153861     -0.1489263491     -0.4625477786
O       2.3578712182      0.0893722837     -0.6314477897
C      -1.1792266136     -0.2765751237      0.3164702797
C      -2.2994717910      0.0580493230      0.9338380320
C       0.0705523670      2.0150594124      0.0985590639
H      -0.8988544003     -1.2084507888      0.2382181426
H      -2.8091088674      0.9668661092      1.3514416100
H      -2.8711994821     -0.7742016691      1.3691021842
H       1.1226871168      2.3206005567     -0.0450356760
H      -0.5777727052      2.4243676382      0.8017208648
H      -0.2391528799      2.2312918647     -0.9686810232
12
Frame=208  time=104.500fs  energy=-306.17112309Ha  molecule=COOCCCHHHHHH
C       0.0905957258      0.5076127196     -0.1188598868
O       1.1021013248     -0.1544296405     -0.4685867187
O       2.3557104497      0.0841724584     -0.6319445782
C      -1.1725899836     -0.2778968982      0.3187099900
C      -2.2974945328      0.0676660852      0.9368139641
C       0.0720662486      2.0234472529      0.0987206571
H      -0.8950303960     -1.1979027767      0.2501738415
H      -2.8020370056      0.9772475890      1.3363856716
H      -2.8781345481     -0.7783517328      1.3639814438
H       1.1272143072      2.3163502455     -0.0736185540
H      -0.5619082610      2.4367742312      0.8218379124
H      -0.2335270634      2.2626424973     -0.9513802193
12
Frame=209  time=105.000fs  energy=-306.17193113Ha  molecule=COOCCCHHHHHH
C       0.0863594018      0.5004653763     -0.1152681066
O       1.0974405135     -0.1601761748     -0.4745729300
O       2.3538303693      0.0791455892     -0.6325118678
C      -1.1656061989     -0.2779867204      0.3208474382
C      -2.2959555013      0.0771383310      0.9402482271
C       0.0740484827      2.0317070794      0.0981794941
H      -0.8915015286     -1.2015510146      0.2617196561
H      -2.7923505398      0.9873205298      1.3189970277
H      -2.8834862306     -0.7819915297      1.3560326244
H       1.1310349033      2.3119320169     -0.0992994864
H      -0.5473522628      2.4517672652      0.8447790090
H      -0.2306444900      2.2952273449     -0.9335721950
12
Frame=210  time=105.500fs  energy=-306.17348020Ha  molecule=COOCCCHHHHHH
C       0.0818162624      0.4933807834     -0.1113729933
O       1.0925489810     -0.1661636348     -0.4805063867
O       2.3522045691      0.0742916978     -0.6331455415
C      -1.1583361690     -0.2768298921      0.3229184187
C      -2.2947911296      0.0863070460      0.9440681308
C       0.0764467615      2.0398322225      0.0970002285
H      -0.8883929178     -1.2191310214      0.2728907525
H      -2.7805710399      0.9976623216      1.2997884512
H      -2.8870094479     -0.7841598905      1.3452962963
H       1.1345001242      2.3073982280     -0.1215790786
H      -0.5332324484      2.4685767425      0.8697140256
H      -0.2310935841      2.3289999264     -0.9157750776
12
Frame=211  time=106.000fs  energy=-306.17523917Ha  molecule=COOCCCHHHHHH
C       0.0770205747      0.4863948911     -0.1071916282
O       1.0874377759     -0.1723929340     -0.4863839380
O       2.3508009080      0.0696090681     -0.6338403227
C      -1.1508114067     -0.2745967983      0.3249603572
C      -2.2939145904      0.0950276895      0.9481831376
C       0.0791948361      2.0478484140      0.0952650413
H      -0.8860272062     -1.2481194773      0.2836408717
H      -2.7673335015      1.0089911855      1.2793244113
H      -2.8887048613     -0.7841089348      1.3320000699
H       1.1380295501      2.3027866330     -0.1401811395
H      -0.5187581162      2.4862951258      0.8957175329
H      -0.2353079015      2.3639001029     -0.8983620687
12
Frame=212  time=106.500fs  energy=-306.17656908Ha  molecule=COOCCCHHHHHH
C       0.0720411439      0.4795417874     -0.1027502183
O       1.0821054143     -0.1788624112     -0.4921978997
O       2.3495911189      0.0650952269     -0.6345919502
C      -1.1430672568     -0.2715781447      0.3270282984
C      -2.2932028028      0.1031915472      0.9524865523
C       0.0822123873      2.0557945494      0.0930629576
H      -0.8848616803     -1.2847841244      0.2938350754
H      -2.7532981135      1.0221019288      1.2581337567
H      -2.8887501288     -0.7814235700      1.3164775726
H       1.1419996389      2.2980756100     -0.1550282528
H      -0.5032481040      2.5040040327      0.9218529609
H      -0.2434859855      2.3998285436     -0.8815242375
12
Frame=213  time=107.000fs  energy=-306.17699657Ha  molecule=COOCCCHHHHHH
C       0.0669620668      0.4728716641     -0.0980856693
O       1.0765409456     -0.1855626628     -0.4979371429
O       2.3485527380      0.0607473674     -0.6353976149
C      -1.1351429402     -0.2681878631      0.3291898920
C      -2.2925013274      0.1107281026      0.9568634540
C       0.0854113561      2.0637066253      0.0904934598
H      -0.8856761116     -1.3242066281      0.3033679681
H      -2.7390984248      1.0377869501      1.2366778520
H      -2.8873900811     -0.7760041387      1.2990763193
H       1.1466190594      2.2931573313     -0.1662349821
H      -0.4861173898      2.5208222401      0.9471875504
H      -0.2555587561      2.4366050179     -0.8653213693
12
Frame=214  time=107.500fs  energy=-306.17660553Ha  molecule=COOCCCHHHHHH
C       0.0618858585      0.4664445725     -0.0932477093
O       1.0707365936     -0.1924787482     -0.5035909649
O       2.3476660429      0.0565635260     -0.6362553116
C      -1.1271004784     -0.2648704034      0.3315100353
C      -2.2916709012      0.1176008721      0.9612118602
C       0.0887211698      2.0716125146      0.0876570086
H      -0.8892336741     -1.3612433307      0.3121848157
H      -2.7252398061      1.0566339439      1.2153183958
H      -2.8849122827     -0.7679481658      1.2801600839
H       1.1519276934      2.2878780516     -0.1740814084
H      -0.4669729837      2.5360422727      0.9709589348
H      -0.2712675755      2.4739341848     -0.8497460950
12
Frame=215  time=108.000fs  energy=-306.17584165Ha  molecule=COOCCCHHHHHH
C       0.0569359506      0.4603175460     -0.0882976672
O       1.0646892074     -0.1995937507     -0.5091498830
O       2.3469125135      0.0525426766     -0.6371634404
C      -1.1190535829     -0.2619753075      0.3340476438
C      -2.2906096519      0.1238189937      0.9654517676
C       0.0920947138      2.0795348986      0.0846397896
H      -0.8958003048     -1.3919146200      0.3202242390
H      -2.7119633303      1.0788020227      1.1942584231
H      -2.8817381849     -0.7575340852      1.2601682147
H       1.1578787922      2.2820925784     -0.1789182797
H      -0.4456146841      2.5491793178      0.9926415163
H      -0.2902617889      2.5114400039     -0.8347238978
12
Frame=216  time=108.500fs  energy=-306.17509472Ha  molecule=COOCCCHHHHHH
C       0.0522395523      0.4545339791     -0.0832970077
O       1.0584008516     -0.2068884497     -0.5146066272
O       2.3462732372      0.0486835103     -0.6381203240
C      -1.1111528643     -0.2597179039      0.3368562822
C      -2.2892410734      0.1294567149      0.9695187721
C       0.0954958517      2.0874954548      0.0815080289
H      -0.9051569364     -1.4138556925      0.3273963589
H      -2.6992312953      1.1039438327      1.1735474848
H      -2.8784818117     -0.7453087580      1.2396277923
H       1.1644182300      2.2757003684     -0.1811106365
H      -0.4219695904      2.5599003659      1.0118672230
H      -0.3121376914      2.5487068786     -0.8200780099
12
Frame=217  time=109.000fs  energy=-306.17454128Ha  molecule=COOCCCHHHHHH
C       0.0479066080      0.4491177029     -0.0782975560
O       1.0518817660     -0.2143393581     -0.5199570036
O       2.3457277934      0.0449835032     -0.6391240728
C      -1.1035549030     -0.2582033564      0.3399846665
C      -2.2874969818      0.1346558228      0.9733552463
C       0.0988894437      2.0955142649      0.0783081731
H      -0.9168400590     -1.4260232555      0.3335937245
H      -2.6868299461      1.1313010978      1.1531505005
H      -2.8759227260     -0.7321306647      1.2191094500
H       1.1715407766      2.2686641051     -0.1810431626
H      -0.3960644048      2.5679632986      1.0283770882
H      -0.3364374899      2.5852952568     -0.8055191627
12
Frame=218  time=109.500fs  energy=-306.17422823Ha  molecule=COOCCCHHHHHH
C       0.0440226123      0.4440776352     -0.0733406354
O       1.0451507358     -0.2219175235     -0.5251991634
O       2.3452541811      0.0414384893     -0.6401727265
C      -1.0964042077     -0.2574783173      0.3434776476
C      -2.2853090598      0.1396032014      0.9769059907
C       0.1022388193      2.1036062078      0.0750696827
H      -0.9303430321     -1.4281068069      0.3387110039
H      -2.6744913747      1.1598904978      1.1330218712
H      -2.8749171790     -0.7190676057      1.1991606042
H       1.1792969313      2.2610057928     -0.1791510110
H      -0.3680273344      2.5732053722      1.0420365966
H      -0.3626246077      2.6207384381     -0.7906699522
12
Frame=219  time=110.000fs  energy=-306.17418077Ha  molecule=COOCCCHHHHHH
C       0.0406505987      0.4394175290     -0.0684603978
O       1.0382334928     -0.2295885495     -0.5303323776
O       2.3448293556      0.0380425193     -0.6412643817
C      -1.0898283122     -0.2575691544      0.3473770183
C      -2.2826118374      0.1444973192      0.9801191270
C       0.1055080220      2.1117772341      0.0718100947
H      -0.9452051691     -1.4201095697      0.3426574331
H      -2.6619747859      1.1886535202      1.1131509184
H      -2.8762671375     -0.7071677716      1.1802394107
H       1.1877553655      2.2527884547     -0.1759422730
H      -0.3380860626      2.5755511316      1.0528600086
H      -0.3900652819      2.6545407959     -0.7751168749
12
Frame=220  time=110.500fs  energy=-306.17440965Ha  molecule=COOCCCHHHHHH
C       0.0378346355      0.4351435314     -0.0636867044
O       1.0311607719     -0.2373133001     -0.5353561628
O       2.3444296550      0.0347876724     -0.6423971611
C      -1.0839377743     -0.2584886015      0.3517220735
C      -2.2793524202      0.1495181009      0.9829486530
C       0.1086656201      2.1200213528      0.0685423210
H      -0.9610179876     -1.4022648682      0.3453577905
H      -2.6491007819      1.2164994593      1.0935792095
H      -2.8805795458     -0.6971798897      1.1626705905
H       1.1969570884      2.2440939410     -0.1719822851
H      -0.3065379311      2.5750044642      1.0609886776
H      -0.4180598296      2.6861996951     -0.7584825844
12
Frame=221  time=111.000fs  energy=-306.17481310Ha  molecule=COOCCCHHHHHH
C       0.0356020215      0.4312670373     -0.0590462102
O       1.0239670995     -0.2450484153     -0.5402699108
O       2.3440303211      0.0316636652     -0.6435690057
C      -1.0788264556     -0.2602079914      0.3565494292
C      -2.2755014213      0.1548084248      0.9853563473
C       0.1116888930      2.1283188615      0.0652827715
H      -0.9773884602     -1.3753324516      0.3467441481
H      -2.6357520081      1.2422677836      1.0744000837
H      -2.8881526626     -0.6893192355      1.1466335868
H       1.2068851889      2.2350043662     -0.1678262866
H      -0.2736875441      2.5716125132      1.0666014079
H      -0.4459401630      2.7152512090     -0.7404966219
12
Frame=222  time=111.500fs  energy=-306.17504599Ha  molecule=COOCCCHHHHHH
C       0.0339646884      0.4278040820     -0.0545621261
O       1.0166915312     -0.2527464628     -0.5450732018
O       2.3436040458      0.0286576125     -0.6447774276
C      -1.0745705222     -0.2625984157      0.3618890598
C      -2.2710635556      0.1604691417      0.9873156297
C       0.1145693443      2.1366373435      0.0620560322
H      -0.9939057786     -1.3412885405      0.3467572140
H      -2.6218480920      1.2647165243      1.0557421580
H      -2.8989162563     -0.6831930835      1.1321728521
H       1.2174375693      2.2255980340     -0.1639207151
H      -0.2397737114      2.5654182397      1.0697944033
H      -0.4731903813      2.7413084744     -0.7210255161
12
Frame=223  time=112.000fs  energy=-306.17459712Ha  molecule=COOCCCHHHHHH
C       0.0329227029      0.4247729396     -0.0502544968
O       1.0093789325     -0.2603583359     -0.5497665944
O       2.3431208825      0.0257547848     -0.6460196739
C      -1.0712280393     -0.2653619494      0.3677554493
C      -2.2660842183      0.1665585433      0.9888183578
C       0.1173203986      2.1449375194      0.0588905445
H      -1.0101583990     -1.3041337266      0.3453798045
H      -2.6073300225      1.2826616834      1.0377474309
H      -2.9124473285     -0.6779533945      1.1192183722
H       1.2283804425      2.2159682028     -0.1605294711
H      -0.2049305754      2.5564401425      1.0705365103
H      -0.4995008066      2.7640561114     -0.7000394711
12
Frame=224  time=112.500fs  energy=-306.17332827Ha  molecule=COOCCCHHHHHH
C       0.0324714983      0.4221862665     -0.0461437038
O       1.0020764928     -0.2678399000     -0.5543505134
O       2.3425518831      0.0229404816     -0.6472940977
C      -1.0688454842     -0.2680314755      0.3741489134
C      -2.2606360653      0.1730850883      0.9898726404
C       0.1199833906      2.1531799021      0.0558052493
H      -1.0257776527     -1.2697786683      0.3426279645
H      -2.5922034185      1.2952506760      1.0205660942
H      -2.9281059125     -0.6725790609      1.1076409345
H       1.2392926573      2.2062698504     -0.1577423576
H      -0.1692248447      2.5447195587      1.0687913991
H      -0.5246946434      2.7832253174     -0.6775520042
12
Frame=225  time=113.000fs  energy=-306.17178066Ha  molecule=COOCCCHHHHHH
C       0.0326149363      0.4200447926     -0.0422580080
O       0.9948274855     -0.2751547500     -0.5588221340
O       2.3418724983      0.0202008894     -0.6486016872
C      -1.0674699442     -0.2701079653      0.3810740681
C      -2.2547923685      0.1800070466      0.9904894235
C       0.1226234583      2.1613194765      0.0527947236
H      -1.0404937126     -1.2443911167      0.3384605197
H      -2.5765473747      1.3021001456      1.0043469221
H      -2.9452301599     -0.6660614098      1.0973378345
H       1.2495251601      2.1967855335     -0.1555654991
H      -0.1327536575      2.5304485323      1.0647608062
H      -0.5485634705      2.7986037019     -0.6535768211
12
Frame=226  time=113.500fs  energy=-306.17086397Ha  molecule=COOCCCHHHHHH
C       0.0333635099      0.4183318680     -0.0386315762
O       0.9876656305     -0.2822743626     -0.5631745452
O       2.3410619295      0.0175229692     -0.6499450853
C      -1.0671382998     -0.2711689629      0.3885433303
C      -2.2486220856      0.1872448582      0.9906757336
C       0.1253168930      2.1692958106      0.0498220183
H      -1.0541410116     -1.2331576295      0.3327213570
H      -2.5605046479      1.3032870645      0.9892490402
H      -2.9631381625     -0.6574521465      1.0882546303
H       1.2582483415      2.1879497505     -0.1540362629
H      -0.0957300341      2.5140767171      1.0591004994
H      -0.5707474234      2.8100550843     -0.6281328935
12
Frame=227  time=114.000fs  energy=-306.17113929Ha  molecule=COOCCCHHHHHH
C       0.0347067087      0.4170073346     -0.0352913744
O       0.9806140930     -0.2891785350     -0.5673994492
O       2.3401011902      0.0148952580     -0.6513262282
C      -1.0678376638     -0.2710015358      0.3965593963
C      -2.2422011699      0.1946818106      0.9904365096
C       0.1281406990      2.1770299292      0.0468268424
H      -1.0666510759     -1.2385998434      0.3251983964
H      -2.5442755617      1.2994773007      0.9754456009
H      -2.9810712074     -0.6459212298      1.0803741484
H       1.2646340693      2.1802697442     -0.1532998861
H      -0.0585101093      2.4962908718      1.0529498648
H      -0.5907962702      2.8175455027     -0.6013104431
12
Frame=228  time=114.500fs  energy=-306.17212477Ha  molecule=COOCCCHHHHHH
C       0.0365978337      0.4160133574     -0.0322502818
O       0.9736862090     -0.2958547590     -0.5714890594
O       2.3389722884      0.0123089074     -0.6527448504
C      -1.0694931310     -0.2697204728      0.4050933695
C      -2.2356191087      0.2021634275      0.9897795517
C       0.1311640510      2.1844216164      0.0437451176
H      -1.0779671597     -1.2590669952      0.3158204729
H      -2.5280838281      1.2919992198      0.9630886715
H      -2.9982047971     -0.6308296560      1.0737013901
H       1.2680781647      2.1742354055     -0.1536230077
H      -0.0215316026      2.4779038766      1.0477652329
H      -0.6083458034      2.8211880261     -0.5733444279
12
Frame=229  time=115.000fs  energy=-306.17291100Ha  molecule=COOCCCHHHHHH
C       0.0389707304      0.4152952746     -0.0295107839
O       0.9668881342     -0.3022947177     -0.5754364677
O       2.3376593544      0.0097572811     -0.6541992032
C      -1.0720022140     -0.2676797305      0.4140804603
C      -2.2289698397      0.2095193940      0.9887172376
C       0.1344376106      2.1913494287      0.0405286543
H      -1.0879467978     -1.2899811038      0.3047992164
H      -2.5121395934      1.2825763297      0.9522859376
H      -3.0137555560     -0.6117307525      1.0682594927
H       1.2683385467      2.1702801646     -0.1553607918
H       0.0148096557      2.4597301494      1.0450561868
H      -0.6232368788      2.8213059230     -0.5446407047
12
Frame=230  time=115.500fs  energy=-306.17291696Ha  molecule=COOCCCHHHHHH
C       0.0417790709      0.4148286771     -0.0270779062
O       0.9602205199     -0.3084890253     -0.5792323301
O       2.3361485595      0.0072344567     -0.6556883409
C      -1.0752832184     -0.2653278355      0.4234328415
C      -2.2223325609      0.2165946580      0.9872608126
C       0.1379902713      2.1976818634      0.0371650903
H      -1.0964223207     -1.3258192210      0.2926851947
H      -2.4966237022      1.2728806652      0.9431224217
H      -3.0270913097     -0.5883645549      1.0640902013
H       1.2655117132      2.1687439817     -0.1589147308
H       0.0502400402      2.4424176932      1.0460438118
H      -0.6355241992      2.8184516935     -0.5157397527
12
Frame=231  time=116.000fs  energy=-306.17211568Ha  molecule=COOCCCHHHHHH
C       0.0450025039      0.4146175690     -0.0249630779
O       0.9536833220     -0.3144254609     -0.5828636836
O       2.3344267980      0.0047344053     -0.6572136924
C      -1.0792849116     -0.2631553356      0.4330476598
C      -2.2157703453      0.2232560522      0.9854242732
C       0.1418389979      2.2033066141      0.0336914613
H      -1.1032421604     -1.3607472518      0.2803184835
H      -2.4816764305      1.2644605471      0.9356403344
H      -3.0377843710     -0.5607127476      1.0612553445
H       1.2599103976      2.1698467436     -0.1647053089
H       0.0845792371      2.4263205291      1.0513385121
H      -0.6453889847      2.8132754181     -0.4872049670
12
Frame=232  time=116.500fs  energy=-306.17103731Ha  molecule=COOCCCHHHHHH
C       0.0486208989      0.4146677251     -0.0231735937
O       0.9472812324     -0.3200919310     -0.5863192001
O       2.3324820818      0.0022512956     -0.6587784090
C      -1.0839592449     -0.2615588329      0.4428260365
C      -2.2093432862      0.2294048723      0.9832339121
C       0.1459948030      2.2081530514      0.0301956523
H      -1.1082924914     -1.3900584201      0.2685059658
H      -2.4673649104      1.2587271873      0.9298046128
H      -3.0455961672     -0.5290527459      1.0598071511
H       1.2519853858      2.1737161190     -0.1731467867
H       0.1176785119      2.4114946755      1.0607764122
H      -0.6530505593      2.8063285174     -0.4595074421
12
Frame=233  time=117.000fs  energy=-306.17016202Ha  molecule=COOCCCHHHHHH
C       0.0526036431      0.4149779909     -0.0217079994
O       0.9410251096     -0.3254761257     -0.5895919894
O       2.3303034160     -0.0002208229     -0.6603860585
C      -1.0892293305     -0.2607506737      0.4526836480
C      -2.2031182682      0.2350050012      0.9807309125
C       0.1504608581      2.2121845361      0.0268067669
H      -1.1115921702     -1.4112414387      0.2578010952
H      -2.4536446659      1.2568102592      0.9255297265
H      -3.0504878625     -0.4939894036      1.0597659129
H       1.2422577507      2.1804207837     -0.1846040204
H       0.1493736056      2.3977681062      1.0734630416
H      -0.6587202310      2.7979884521     -0.4329704939
12
Frame=234  time=117.500fs  energy=-306.16963962Ha  molecule=COOCCCHHHHHH
C       0.0569067483      0.4155435816     -0.0205568010
O       0.9349304070     -0.3305656368     -0.5926782035
O       2.3278813180     -0.0026884702     -0.6620403423
C      -1.0949790321     -0.2608108621      0.4625414199
C      -2.1971560688      0.2400973451      0.9779652810
C       0.1552322275      2.2153799576      0.0236718634
H      -1.1133332037     -1.4233979122      0.2485812851
H      -2.4403811482      1.2594740649      0.9227268430
H      -3.0527163310     -0.4564936467      1.0611205910
H       1.2312622797      2.1899870274     -0.1993544637
H       0.1794696792      2.3848589274      1.0880542875
H      -0.6625950710      2.7885000757     -0.4077715826
12
Frame=235  time=118.000fs  energy=-306.16942952Ha  molecule=COOCCCHHHHHH
C       0.0614710423      0.4163566222     -0.0197024921
O       0.9290139882     -0.3353497221     -0.5955751253
O       2.3252087774     -0.0051584099     -0.6637451493
C      -1.1010548203     -0.2617602683      0.4723133292
C      -2.1914988299      0.2448021853      0.9749903475
C       0.1602989082      2.2177216000      0.0209273008
H      -1.1138297655     -1.4263759610      0.2411667040
H      -2.4273846651      1.2670313509      0.9213346823
H      -3.0529283555     -0.4178733937      1.0638450876
H       1.2195329407      2.2023933367     -0.2175805319
H       0.2077645406      2.3724933871      1.1031547944
H      -0.6648950033      2.7780591185     -0.3839910641
12
Frame=236  time=118.500fs  energy=-306.16945051Ha  molecule=COOCCCHHHHHH
C       0.0662233123      0.4174032711     -0.0191205314
O       0.9232918294     -0.3398197572     -0.5982793832
O       2.3222808445     -0.0076370620     -0.6655046283
C      -1.1072695402     -0.2636025295      0.4818990476
C      -2.1861735265      0.2493122481      0.9718619451
C       0.1656486808      2.2191906928      0.0186828654
H      -1.1134200666     -1.4202872459      0.2358690553
H      -2.4144250984      1.2792769030      0.9213328177
H      -3.0521595645     -0.3796392927      1.0679206383
H       1.2076288093      2.2175420338     -0.2393914639
H       0.2340791050      2.3604640010      1.1175933664
H      -0.6659220485      2.7668986425     -0.3616791538
12
Frame=237  time=119.000fs  energy=-306.16963974Ha  molecule=COOCCCHHHHHH
C       0.0710800762      0.4186606713     -0.0187817988
O       0.9177783120     -0.3439680294     -0.6007853110
O       2.3190931935     -0.0101299607     -0.6673233720
C      -1.1134081017     -0.2663285520      0.4911839542
C      -2.1812059849      0.2538717792      0.9686398117
C       0.1712679490      2.2197672073      0.0170238128
H      -1.1123892914     -1.4054436590      0.2329743040
H      -2.4012464846      1.2955072348      0.9227391388
H      -3.0516901359     -0.3432908313      1.0733476127
H       1.1961666085      2.2352243759     -0.2648543411
H       0.2582740110      2.3486284010      1.1304759240
H      -0.6661022970      2.7553421959     -0.3409048957
12
Frame=238  time=119.500fs  energy=-306.16993047Ha  molecule=COOCCCHHHHHH
C       0.0759521037      0.4200959605     -0.0186552707
O       0.9124869090     -0.3477861338     -0.6030840714
O       2.3156409231     -0.0126412834     -0.6692067403
C      -1.1192367742     -0.2698905795      0.5000475096
C      -2.1766387742      0.2587431260      0.9653887950
C       0.1771423469      2.2194306369      0.0160193914
H      -1.1109392337     -1.3826043658      0.2326687733
H      -2.3875871779      1.3146230839      0.9255896590
H      -3.0527816743     -0.3100715115      1.0801417852
H       1.1858038334      2.2551061010     -0.2940030172
H       0.2802607306      2.3368894602      1.1411083888
H      -0.6659824781      2.7437966399     -0.3217649030
12
Frame=239  time=120.000fs  energy=-306.17018613Ha  molecule=COOCCCHHHHHH
C       0.0807499478      0.4216684002     -0.0187110140
O       0.9074314910     -0.3512641520     -0.6051638335
O       2.3119182443     -0.0151735815     -0.6711611947
C      -1.1245172164     -0.2741596567      0.5083809435
C      -2.1725457442      0.2641697305      0.9621782718
C       0.1832612888      2.2181602493      0.0157248931
H      -1.1091914743     -1.3533955670      0.2349104835
H      -2.3732004830      1.3352899478      0.9299070286
H      -3.0564061219     -0.2807797245      1.0883224664
H       1.1771351487      2.2767482464     -0.3268076639
H       0.3000183810      2.3251890845      1.1489296660
H      -0.6661859493      2.7326960735     -0.3043592587
12
Frame=240  time=120.500fs  energy=-306.17021749Ha  molecule=COOCCCHHHHHH
C       0.0853926258      0.4233361440     -0.0189247397
O       0.9026272221     -0.3543914183     -0.6070109693
O       2.3079190643     -0.0177280249     -0.6731943655
C      -1.1290278807     -0.2789006745      0.5161110170
C      -2.1690340057      0.2703464773      0.9590782592
C       0.1896271896      2.2159371748      0.0161732402
H      -1.1072027734     -1.3205825620      0.2393020721
H      -2.3578751416      1.3561327815      0.9356732537
H      -3.0630878233     -0.2557144022      1.0978990972
H       1.1705274687      2.2996483252     -0.3631149169
H       0.3176129015      2.3135223758      1.1535245345
H      -0.6673471340      2.7224359781     -0.2887587543
12
Frame=241  time=121.000fs  energy=-306.16991816Ha  molecule=COOCCCHHHHHH
C       0.0898175665      0.4250677041     -0.0192823535
O       0.8980911568     -0.3571592002     -0.6086126595
O       2.3036386501     -0.0203055336     -0.6753146400
C      -1.1325922113     -0.2838000822      0.5232171468
C      -2.1662300072      0.2774038670      0.9561529641
C       0.1962625301      2.2127536208      0.0173603898
H      -1.1049971736     -1.2878426230      0.2450888048
H      -2.3414628853      1.3759166407      0.9428212711
H      -3.0728620106     -0.2347387439      1.1088500199
H       1.1659717472      2.3232747319     -0.4025794879
H       0.3332084820      2.3019505198      1.1546960971
H      -0.6700251067      2.7133147755     -0.2749782886
12
Frame=242  time=121.500fs  energy=-306.16933887Ha  molecule=COOCCCHHHHHH
C       0.0939857541      0.4268518443     -0.0197804545
O       0.8938425106     -0.3595637982     -0.6099602689
O       2.2990766926     -0.0229088407     -0.6775304632
C      -1.1351000109     -0.2885260297      0.5297276649
C      -2.1642607846      0.2854056770      0.9534573406
C       0.2032066201      2.2086298801      0.0192320433
H      -1.1026338878     -1.2592078701      0.2513241167
H      -2.3239189819      1.3936698360      0.9512525431
H      -3.0852584973     -0.2173849903      1.1210850230
H       1.1630205958      2.3470803990     -0.4446049085
H       0.3470618434      2.2905828699      1.1525307962
H      -0.6745878598      2.7054685196     -0.2629544297
12
Frame=243  time=122.000fs  energy=-306.16869364Ha  molecule=COOCCCHHHHHH
C       0.0978804020      0.4286945930     -0.0204240413
O       0.8899001223     -0.3616074844     -0.6110500303
O       2.2942402604     -0.0255446655     -0.6798500401
C      -1.1365104252     -0.2927614767      0.5357034237
C      -2.1632413905      0.2943574214      0.9510387438
C       0.2105015815      2.2036268091      0.0216791066
H      -1.1002368315     -1.2386860734      0.2570330480
H      -2.3053437528      1.4087253184      0.9608757608
H      -3.0993187884     -0.2029755151      1.1344079517
H       1.1608541636      2.3705068780     -0.4883234385
H       0.3594985192      2.2795477928      1.1474066121
H      -0.6811042861      2.6988264983     -0.2525298985
12
Frame=244  time=122.500fs  energy=-306.16835432Ha  molecule=COOCCCHHHHHH
C       0.1014990221      0.4306038434     -0.0212247318
O       0.8862785828     -0.3632977140     -0.6118807114
O       2.2891438501     -0.0282246376     -0.6822814898
C      -1.1368431005     -0.2962292402      0.5412204763
C      -2.1632598084      0.3042138699      0.9489356993
C       0.2181736042      2.1978412512      0.0245441877
H      -1.0979548161     -1.2297211052      0.2613591166
H      -2.2859691947      1.4206916742      0.9716285633
H      -3.1137457265     -0.1907409633      1.1485115232
H       1.1584730711      2.3930065041     -0.5326442568
H       0.3708830457      2.2690007276      1.1399608772
H      -0.6893174850      2.6931376808     -0.2434487919
12
Frame=245  time=123.000fs  energy=-306.16859635Ha  molecule=COOCCCHHHHHH
C       0.1048397168      0.4325762729     -0.0221961528
O       0.8829851669     -0.3646478359     -0.6124519229
O       2.2838066316     -0.0309645358     -0.6848322844
C      -1.1361603633     -0.2987513096      0.5463414800
C      -2.1643600634      0.3148805702      0.9471736961
C       0.2262159181      2.1913910325      0.0276357545
H      -1.0959281136     -1.2342089464      0.2638299049
H      -2.2660804551      1.4294384687      0.9834673666
H      -3.1271255391     -0.1799087741      1.1630051621
H       1.1549313050      2.4140809885     -0.5763611341
H       0.3815857377      2.2591592200      1.1310451394
H      -0.6986892490      2.6880388286     -0.2353555129
12
Frame=246  time=123.500fs  energy=-306.16928285Ha  molecule=COOCCCHHHHHH
C       0.1078887796      0.4345919532     -0.0233462898
O       0.8800178719     -0.3656784418     -0.6127636034
O       2.2782493066     -0.0337826843     -0.6875083949
C      -1.1345481794     -0.3002985716      0.5510890544
C      -2.1665324315      0.3262194588      0.9457629603
C       0.2345811745      2.1843989673      0.0307468129
H      -1.0942459943     -1.2517603346      0.2645575982
H      -2.2459600140      1.4350964766      0.9963624288
H      -3.1381216010     -0.1697823416      1.1774572326
H       1.1494837168      2.4333124463     -0.6182668791
H       0.3919526100      2.2503179120      1.1216315310
H      -0.7084460458      2.6831265158     -0.2278160132
12
Frame=247  time=124.000fs  energy=-306.16993312Ha  molecule=COOCCCHHHHHH
C       0.1106163069      0.4366148179     -0.0246730048
O       0.8773671421     -0.3664153377     -0.6128160554
O       2.2724929370     -0.0366981256     -0.6903144412
C      -1.1321047666     -0.3009852605      0.5554451996
C      -2.1697128577      0.3380622078      0.9446982250
C       0.2431909524      2.1769792744      0.0336755640
H      -1.0929140292     -1.2797811681      0.2641808689
H      -2.2258907766      1.4380194622      1.0103091628
H      -3.1456521454     -0.1598132025      1.1914510920
H       1.1415774287      2.4503732999     -0.6572152368
H       0.4022994840      2.2428188829      1.1126507870
H      -0.7176288122      2.6780376164     -0.2203901046
12
Frame=248  time=124.500fs  energy=-306.17010088Ha  molecule=COOCCCHHHHHH
C       0.1129813385      0.4386006829     -0.0261656136
O       0.8750208221     -0.3668849724     -0.6126107579
O       2.2665600688     -0.0397290324     -0.6932545333
C      -1.1289365318     -0.3010248892      0.5593682406
C      -2.1737921655      0.3502301651      0.9439634997
C       0.2519555052      2.1692289213      0.0362453014
H      -1.0918531747     -1.3142514605      0.2636331210
H      -2.2062022389      1.4387545247      1.0253360224
H      -3.1490267427     -0.1496480218      1.2046424262
H       1.1308091164      2.4650239443     -0.6921674336
H       0.4129239334      2.2369917612      1.1048501251
H      -0.7252121542      2.6725141619     -0.2127270538
12
Frame=249  time=125.000fs  energy=-306.16966799Ha  molecule=COOCCCHHHHHH
C       0.1149431929      0.4405147109     -0.0278096577
O       0.8729699184     -0.3671118783     -0.6121531515
O       2.2604754653     -0.0428913007     -0.6963322634
C      -1.1251612560     -0.3006764324      0.5628107261
C      -2.1786273665      0.3625426568      0.9435378396
C       0.2607868779      2.1612264913      0.0383182908
H      -1.0909982607     -1.3507170551      0.2639467076
H      -2.1872707880      1.4380758799      1.0414895040
H      -3.1479590776     -0.1391186620      1.2167810379
H       1.1169922481      2.4771164643     -0.7222935434
H       0.4241033859      2.2331079882      1.0987708868
H      -0.7302798809      2.6663955634     -0.2045993720
12
Frame=250  time=125.500fs  energy=-306.16886187Ha  molecule=COOCCCHHHHHH
C       0.1164726051      0.4423464519     -0.0295926633
O       0.8712128545     -0.3671181921     -0.6114546032
O       2.2542640402     -0.0461974654     -0.6995503136
C      -1.1209110210     -0.3001820624      0.5657429382
C      -2.1840562068      0.3748187113      0.9433965118
C       0.2696030785      2.1530348123      0.0397983865
H      -1.0903721523     -1.3852593540      0.2660330524
H      -2.1694425965      1.4369633170      1.0588170648
H      -3.1425161412     -0.1281804991      1.2277109311
H       1.1002224325      2.4865855363     -0.7470482484
H       0.4360789724      2.2313771922      1.0947889725
H      -0.7321368908      2.6595630349     -0.1958622338
12
Frame=251  time=126.000fs  energy=-306.16803084Ha  molecule=COOCCCHHHHHH
C       0.1175574892      0.4441094282     -0.0315080315
O       0.8697534902     -0.3669243991     -0.6105296924
O       2.2479481584     -0.0496563992     -0.7029106977
C      -1.1163251344     -0.2997240133      0.5681662208
C      -2.1899103693      0.3868925564      0.9435108572
C       0.2783283170      2.1447026634      0.0406291022
H      -1.0900139825     -1.4150388538      0.2704876851
H      -2.1529829311      1.4364752559      1.0773698399
H      -3.1331099824     -0.1168951422      1.2373838300
H       1.0808347017      2.4934178912     -0.7661549203
H       0.4490431653      2.2319582840      1.0931121166
H      -0.7303090350      2.6519051911     -0.1864150362
12
Frame=252  time=126.500fs  energy=-306.16743771Ha  molecule=COOCCCHHHHHH
C       0.1181983038      0.4458293855     -0.0335520476
O       0.8685970487     -0.3665503143     -0.6093934526
O       2.2415471151     -0.0532733307     -0.7064148823
C      -1.1115360719     -0.2994135120      0.5701052869
C      -2.1960177504      0.3986325006      0.9438468845
C       0.2868937023      2.1362674623      0.0407945460
H      -1.0899322005     -1.4382665679      0.2775855913
H      -2.1380560374      1.4375936539      1.0972027819
H      -3.1205110241     -0.1054801972      1.2458796458
H       1.0593202473      2.4976294717     -0.7795663169
H       0.4631242843      2.2349368514      1.0937380031
H      -0.7245186364      2.6433067048     -0.1761949731
12
Frame=253  time=127.000fs  energy=-306.16719137Ha  molecule=COOCCCHHHHHH
C       0.1183985967      0.4475332745     -0.0357173580
O       0.8677481169     -0.3660154444     -0.6080609761
O       2.2350784171     -0.0570499789     -0.7100636484
C      -1.1066612644     -0.2992971826      0.5715957632
C      -2.2021965882      0.4099552218      0.9443632369
C       0.2952378671      2.1277578875      0.0403222494
H      -1.0901097564     -1.4539537759      0.2873712251
H      -2.1247303425      1.4410712962      1.1183590602
H      -3.1058296770     -0.0943501832      1.2534184211
H       1.0362776358      2.4992674872     -0.7874552888
H       0.4783779702      2.2402790231      1.0964264073
H      -0.7146864016      2.6336497593     -0.1651921037
12
Frame=254  time=127.500fs  energy=-306.16726978Ha  molecule=COOCCCHHHHHH
C       0.1181590941      0.4492446320     -0.0379888282
O       0.8672093137     -0.3653391452     -0.6065475553
O       2.2285596191     -0.0609847748     -0.7138570475
C      -1.1018018608     -0.2993718456      0.5726757691
C      -2.2082523411      0.4208334779      0.9450117213
C       0.3033066335      2.1191950267      0.0392840688
H      -1.0905137743     -1.4616596496      0.2997459848
H      -2.1130076823      1.4473052142      1.1408414894
H      -3.0904388359     -0.0841019499      1.2603526562
H       1.0123938782      2.4984230494     -0.7902171236
H       0.4947943211      2.2477969606      1.1007027156
H      -0.7009437499      2.6228273821     -0.1534662627
12
Frame=255  time=128.000fs  energy=-306.16758062Ha  molecule=COOCCCHHHHHH
C       0.1174769699      0.4509830040     -0.0403430226
O       0.8669795954     -0.3645406262     -0.6048682704
O       2.2220099851     -0.0650730997     -0.7177946420
C      -1.0970441558     -0.2995994265      0.5733818695
C      -2.2139839093      0.4312941950      0.9457418747
C       0.3110537741      2.1105923892      0.0377924035
H      -1.0910987174     -1.4613084815      0.3145250979
H      -2.1028620929      1.4562688442      1.1645813999
H      -3.0758277324     -0.0754423280      1.2671310110
H       0.9884201635      2.4952326040     -0.7884446752
H       0.5123123520      2.2571452766      1.1058803366
H      -0.6836358921      2.6107693187     -0.1411538451
12
Frame=256  time=128.500fs  energy=-306.16800515Ha  molecule=COOCCCHHHHHH
C       0.1163476958      0.4527632655     -0.0427498668
O       0.8670525320     -0.3636385639     -0.6030370987
O       2.2154515615     -0.0693075914     -0.7218759740
C      -1.0924614752     -0.2999143319      0.5737483382
C      -2.2191984874      0.4414046804      0.9465086048
C       0.3184445963      2.1019533521      0.0359937143
H      -1.0918084803     -1.4531115276      0.3314604138
H      -2.0942751071      1.4675281356      1.1894177901
H      -3.0634016606     -0.0690742305      1.2742312790
H       0.9651598352      2.4898793967     -0.7829034254
H       0.5308287100      2.2678538326      1.1111025871
H      -0.6633363612      2.5974890862     -0.1284614743
12
Frame=257  time=129.000fs  energy=-306.16840884Ha  molecule=COOCCCHHHHHH
C       0.1147667995      0.4545932412     -0.0451753713
O       0.8674153538     -0.3626504750     -0.6010658841
O       2.2089093041     -0.0736788667     -0.7261010674
C      -1.0881155720     -0.3002221525      0.5738082580
C      -2.2237311792      0.4512484456      0.9472809212
C       0.3254631928      2.0932643624      0.0340628104
H      -1.0925806204     -1.4375780261      0.3502405425
H      -2.0872579005      1.4803428498      1.2150935586
H      -3.0542637935     -0.0655607788      1.2820706077
H       0.9434926462      2.4826237335     -0.7745619661
H       0.5501949856      2.2793876120      1.1154221591
H      -0.6409042751      2.5831511828     -0.1156465961
12
Frame=258  time=129.500fs  energy=-306.16864600Ha  molecule=COOCCCHHHHHH
C       0.1127313439      0.4564717174     -0.0475851484
O       0.8680493818     -0.3615924378     -0.5989635622
O       2.2024099463     -0.0781766009     -0.7304707358
C      -1.0840566238     -0.3003934144      0.5735950945
C      -2.2274640784      0.4608975461      0.9480492183
C       0.3321232452      2.0844883317      0.0321942673
H      -1.0933545554     -1.4155715236      0.3704849927
H      -2.0818563578      1.4938201142      1.2412714594
H      -3.0490355349     -0.0651984846      1.2909146346
H       0.9243697699      2.4738278525     -0.7646157982
H       0.5702130135      2.2912102131      1.1179096151
H      -0.6175488913      2.5681289467     -0.1029901580
12
Frame=259  time=130.000fs  energy=-306.16857445Ha  molecule=COOCCCHHHHHH
C       0.1102427656      0.4583895293     -0.0499477654
O       0.8689317578     -0.3604796462     -0.5967361264
O       2.1959797395     -0.0827901821     -0.7349865558
C      -1.0803216049     -0.3002563734      0.5731443871
C      -2.2303392882      0.4703913852      0.9488286408
C       0.3384754552      2.0755641438      0.0305883989
H      -1.0940893411     -1.3883934488      0.3917427776
H      -2.0781407188      1.5070669417      1.2675672110
H      -3.0477689235     -0.0679393774      1.3008140171
H       0.9087611157      2.4639326258     -0.7544442162
H       0.5906409915      2.3028217326      1.1177552196
H      -0.5948414691      2.5530219686     -0.0907639129
12
Frame=260  time=130.500fs  energy=-306.16810075Ha  molecule=COOCCCHHHHHH
C       0.1073120499      0.4603346019     -0.0522368026
O       0.8700380099     -0.3593277212     -0.5943877499
O       2.1896422088     -0.0875085274     -0.7396505682
C      -1.0769335061     -0.2995906913      0.5724964629
C      -2.2323618623      0.4797297990      0.9496575915
C       0.3446004001      2.0664130546      0.0294364405
H      -1.0947954426     -1.3579397894      0.4134961820
H      -2.0761892118      1.5192997924      1.2935885178
H      -3.0499701550     -0.0733840819      1.3115888857
H       0.8976148807      2.4534227323     -0.7455444415
H       0.6112187026      2.3137633052      1.1143451455
H      -0.5746169764      2.5386151761     -0.0792001337
12
Frame=261  time=131.000fs  energy=-306.16728463Ha  molecule=COOCCCHHHHHH
C       0.1039671408      0.4623006258     -0.0544332033
O       0.8713444882     -0.3581532929     -0.5919224639
O       2.1834174248     -0.0923196286     -0.7444649795
C      -1.0739063579     -0.2981305479      0.5716982267
C      -2.2335911248      0.4888811654      0.9505926518
C       0.3505859047      2.0569541442      0.0289021556
H      -1.0955685675     -1.3268692859      0.4351914949
H      -2.0760813117      1.5298989255      1.3189694318
H      -3.0547225665     -0.0808433392      1.3228662806
H       0.8918021302      2.4427761587     -0.7393992115
H       0.6317178683      2.3236237327      1.1073130016
H      -0.5587082876      2.5257530250     -0.0684698005
12
Frame=262  time=131.500fs  energy=-306.16640521Ha  molecule=COOCCCHHHHHH
C       0.1002588138      0.4642924126     -0.0565287584
O       0.8728281152     -0.3569719472     -0.5893442427
O       2.1773233722     -0.0972106899     -0.7494320972
C      -1.0712540234     -0.2955900547      0.5707974383
C      -2.2341249956      0.4977944662      0.9517030758
C       0.3565020733      2.0471301794      0.0290956500
H      -1.0965996201     -1.2984719821      0.4563331325
H      -2.0778938245      1.5384286517      1.3433943395
H      -3.0608601826     -0.0894431878      1.3341449628
H       0.8919991934      2.4323463678     -0.7372232221
H       0.6519931352      2.3320698668      1.0965644442
H      -0.5485722124      2.5151371309     -0.0586559920
12
Frame=263  time=132.000fs  energy=-306.16588871Ha  molecule=COOCCCHHHHHH
C       0.0962579735      0.4663189445     -0.0585267512
O       0.8744617884     -0.3557951952     -0.5866549696
O       2.1713786896     -0.1021685908     -0.7545543736
C      -1.0689919294     -0.2916858578      0.5698340271
C      -2.2340819543      0.5064064257      0.9530646458
C       0.3623852568      2.0369329237      0.0300489273
H      -1.0981475311     -1.2763159034      0.4765588664
H      -2.0816986322      1.5446323514      1.3666126823
H      -3.0671395575     -0.0982449474      1.3448603516
H       0.8985340090      2.4222186069     -0.7396926327
H       0.6720004466      2.3388786606      1.0822790928
H      -0.5449533288      2.5071342962     -0.0497370925
12
Frame=264  time=132.500fs  energy=-306.16612475Ha  molecule=COOCCCHHHHHH
C       0.0920417783      0.4683808209     -0.0604354822
O       0.8762102456     -0.3546304028     -0.5838532757
O       2.1656051553     -0.1071795673     -0.7598344977
C      -1.0671342857     -0.2861826772      0.5688341403
C      -2.2335781247      0.5146505651      0.9547485594
C       0.3682321755      2.0264149096      0.0317034282
H      -1.1004527671     -1.2634751811      0.4956610699
H      -2.0875665832      1.5484002367      1.3884447264
H      -3.0724170642     -0.1063736204      1.3544685138
H       0.9112504162      2.4121211358     -0.7467699040
H       0.6917903842      2.3439567160      1.0649016632
H      -0.5476916069      2.5016723761     -0.0416063807
12
Frame=265  time=133.000fs  energy=-306.16713834Ha  molecule=COOCCCHHHHHH
C       0.0876768497      0.4704650494     -0.0622574213
O       0.8780297376     -0.3534849513     -0.5809355127
O       2.1600284601     -0.1122280175     -0.7652754117
C      -1.0656939553     -0.2789741148      0.5678061667
C      -2.2327070709      0.5224655023      0.9568092414
C       0.3740036068      2.0156848366      0.0339133797
H      -1.1036190564     -1.2613985511      0.5135784950
H      -2.0955486203      1.5497554418      1.4087784891
H      -3.0757951460     -0.1131205473      1.3625306598
H       0.9294422557      2.4014298130     -0.7576729800
H       0.7114934292      2.3473438340      1.0451254045
H      -0.5557258840      2.4982452629     -0.0341203365
12
Frame=266  time=133.500fs  energy=-306.16849359Ha  molecule=COOCCCHHHHHH
C       0.0832137861      0.4725498344     -0.0639836444
O       0.8798690768     -0.3523719750     -0.5778973963
O       2.1546774221     -0.1172949348     -0.7708803108
C      -1.0646871051     -0.2701241529      0.5667465391
C      -2.2315315444      0.5297982417      0.9592786232
C       0.3796388249      2.0048843237      0.0364686770
H      -1.1075372999     -1.2693817641      0.5303127566
H      -2.1056655510      1.5488498940      1.4275658791
H      -3.0766752129     -0.1179803782      1.3687531627
H       0.9519078141      2.3892852439     -0.7710317193
H       0.7313057841      2.3492058895      1.0238530721
H      -0.5673213505      2.4960578269     -0.0271696989
12
Frame=267  time=134.000fs  energy=-306.16963131Ha  molecule=COOCCCHHHHHH
C       0.0786961782      0.4746129018     -0.0655987643
O       0.8816711268     -0.3513127594     -0.5747350698
O       2.1495830241     -0.1223566153     -0.7766530329
C      -1.0641415667     -0.2598434030      0.5656552713
C      -2.2300849858      0.5366047994      0.9621680982
C       0.3850750568      1.9941485136      0.0391403764
H      -1.1119035916     -1.2849134043      0.5458155941
H      -2.1179303452      1.5459354122      1.4448124040
H      -3.0747333776     -0.1206395199      1.3729816950
H       0.9771948750      2.3748088483     -0.7852706428
H       0.7514580982      2.3498130293      1.0020946830
H      -0.5804974097      2.4942921582     -0.0207342850
12
Frame=268  time=134.500fs  energy=-306.17021907Ha  molecule=COOCCCHHHHHH
C       0.0741760189      0.4766402874     -0.0670903624
O       0.8833745612     -0.3503350275     -0.5714454195
O       2.1447776779     -0.1273846824     -0.7825985990
C      -1.0641023188     -0.2484178156      0.5645470779
C      -2.2283800530      0.5428465256      0.9654764218
C       0.3902602204      1.9835782268      0.0417219040
H      -1.1163224475     -1.3046061558      0.5599485288
H      -2.1323575194      1.5413322961      1.4605572181
H      -3.0698510222     -0.1209381745      1.3751588771
H       1.0039024065      2.3572593311     -0.7989812780
H       0.7721651882      2.3494908682      0.9808482094
H      -0.5934205801      2.4923192053     -0.0148804532
12
Frame=269  time=135.000fs  energy=-306.17020645Ha  molecule=COOCCCHHHHHH
C       0.0697212084      0.4786342535     -0.0684546007
O       0.8849177423     -0.3494717583     -0.5680271325
O       2.1402936996     -0.1323478245     -0.7887232601
C      -1.0646328324     -0.2361636151      0.5634524378
C      -2.2264214856      0.5484861075      0.9691966205
C       0.3951585463      1.9732427161      0.0440375267
H      -1.1203690129     -1.3248565707      0.5725170699
H      -2.1489137917      1.5354376956      1.4748542929
H      -3.0620571739     -0.1188229948      1.3752820866
H       1.0307808698      2.3360400474     -0.8110010182
H       0.7936043060      2.3485818616      0.9610639609
H      -0.6045523250      2.4897263503     -0.0097313262
12
Frame=270  time=135.500fs  energy=-306.16982480Ha  molecule=COOCCCHHHHHH
C       0.0654116543      0.4806143767     -0.0696980245
O       0.8862452556     -0.3487593353     -0.5644824617
O       2.1361604799     -0.1372148697     -0.7950337415
C      -1.0658100653     -0.2234094930      0.5624171536
C      -2.2242157175      0.5534935493      0.9733156956
C       0.3997520325      1.9631897763      0.0459444924
H      -1.1235992716     -1.3421886160      0.5832964948
H      -2.1674578337      1.5287349624      1.4877603986
H      -3.0515246900     -0.1143369582      1.3734018457
H       1.0567468383      2.3106981093     -0.8204118511
H       0.8159218724      2.3474252623      0.9436204036
H      -0.6126990205      2.4862649855     -0.0054352562
12
Frame=271  time=136.000fs  energy=-306.16945819Ha  molecule=COOCCCHHHHHH
C       0.0613302649      0.4826058142     -0.0708356514
O       0.8873129814     -0.3482313761     -0.5608168583
O       2.1324008600     -0.1419586973     -0.8015359805
C      -1.0677042708     -0.2104427049      0.5614955773
C      -2.2217720139      0.5578549379      0.9778108833
C       0.4040381311      1.9534506174      0.0473473953
H      -1.1256521824     -1.3538470825      0.5920760070
H      -2.1877205070      1.5217688391      1.4993282079
H      -3.0386011510     -0.1076733102      1.3696481571
H       1.0809447857      2.2809782272     -0.8266216477
H       0.8392013286      2.3463035861      0.9292123151
H      -0.6170434521      2.4818214491     -0.0021308334
12
Frame=272  time=136.500fs  energy=-306.16939563Ha  molecule=COOCCCHHHHHH
C       0.0575527179      0.4846224698     -0.0718841734
O       0.8880886002     -0.3479134807     -0.5570357841
O       2.1290284807     -0.1465596961     -0.8082340609
C      -1.0703621625     -0.1974744040      0.5607377121
C      -2.2190933247      0.5615746497      0.9826471939
C       0.4080293092      1.9440449669      0.0482066240
H      -1.1263378071     -1.3580265427      0.5987073867
H      -2.2093341596      1.5151193079      1.5096053495
H      -3.0238405841     -0.0992472260      1.3642562535
H       1.1027672500      2.2469024493     -0.8293948662
H       0.8633881894      2.3453744003      0.9182164479
H      -0.6170893088      2.4764042202      0.0000785547
12
Frame=273  time=137.000fs  energy=-306.16972427Ha  molecule=COOCCCHHHHHH
C       0.0541394645      0.4866580240     -0.0728544544
O       0.8885490564     -0.3478242717     -0.5531417778
O       2.1260474230     -0.1510075921     -0.8151295959
C      -1.0738051336     -0.1846425043      0.5601806036
C      -2.2161651363      0.5646762906      0.9877778058
C       0.4117554705      1.9349845833      0.0485332443
H      -1.1256260433     -1.3537241001      0.6031171761
H      -2.2318884690      1.5093647248      1.5186290290
H      -3.0080155017     -0.0897297159      1.3575781869
H       1.1218290697      2.2088671121     -0.8288032922
H       0.8882339893      2.3446402892      0.9106295585
H      -0.6125644189      2.4701339777      0.0011321240
12
Frame=274  time=137.500fs  energy=-306.17037186Ha  molecule=COOCCCHHHHHH
C       0.0511319730      0.4886876152     -0.0737469716
O       0.8886776257     -0.3479815111     -0.5491335167
O       2.1234538158     -0.1553013955     -0.8222216406
C      -1.0780334316     -0.1720303815      0.5598459124
C      -2.2129516774      0.5672044820      0.9931479717
C       0.4152641983      1.9262737711      0.0483766946
H      -1.1235970936     -1.3405140161      0.6052945951
H      -2.2549853721      1.5050238109      1.5264127557
H      -2.9920929468     -0.0800192139      1.3500723285
H       1.1379512281      2.1677101939     -0.8251589044
H       0.9133020011      2.3439630965      0.9061019700
H      -0.6033614337      2.4632378766      0.0010052707
12
Frame=275  time=138.000fs  energy=-306.17120333Ha  molecule=COOCCCHHHHHH
C       0.0485524106      0.4906755634     -0.0745503132
O       0.8884624073     -0.3484080184     -0.5450067323
O       2.1212382588     -0.1594479671     -0.8295070620
C      -1.0830284943     -0.1596814999      0.5597395919
C      -2.2094013237      0.5692234562      0.9987024267
C       0.4186165904      1.9179091617      0.0478095160
H      -1.1204122553     -1.3184075377      0.6052804339
H      -2.2782772036      1.5024970296      1.5329297924
H      -2.9771611583     -0.0711495427      1.3422635212
H       1.1511487635      2.1246791990     -0.8189410107
H       0.9380361974      2.3431047365      0.9040444513
H      -0.5895279670      2.4560400592     -0.0003026423
12
Frame=276  time=138.500fs  energy=-306.17206842Ha  molecule=COOCCCHHHHHH
C       0.0464041759      0.4925828291     -0.0752417893
O       0.8878978592     -0.3491320148     -0.5407567941
O       2.1193878473     -0.1634603455     -0.8369809848
C      -1.0887505988     -0.1475967138      0.5598504426
C      -2.2054602644      0.5708097508      1.0043950664
C       0.4218824494      1.9098794393      0.0469131174
H      -1.1163279197     -1.2879001595      0.6031765998
H      -2.3014772771      1.5020350448      1.5380997340
H      -2.9643094542     -0.0641523595      1.3346770919
H       1.1616122526      2.0812858710     -0.8107247584
H       0.9618574984      2.3417757185      0.9037591315
H      -0.5713105670      2.4489478550     -0.0027739432
12
Frame=277  time=139.000fs  energy=-306.17275987Ha  molecule=COOCCCHHHHHH
C       0.0446711709      0.4943709665     -0.0757899535
O       0.8869900349     -0.3501804683     -0.5363829558
O       2.1178872081     -0.1673567212     -0.8446369663
C      -1.0951318349     -0.1357114701      0.5601478418
C      -2.2010937006      0.5720424749      1.0101982614
C       0.4251416955      1.9021637449      0.0457693482
H      -1.1117398661     -1.2502511284      0.5991786016
H      -2.3243424081      1.5037371579      1.5417843348
H      -2.9544882701     -0.0599059386      1.3277703827
H       1.1696925083      2.0390965347     -0.8011332718
H       0.9842351636      2.3396754676      0.9045411405
H      -0.5492627965      2.4424452991     -0.0063652696
12
Frame=278  time=139.500fs  energy=-306.17300879Ha  molecule=COOCCCHHHHHH
C       0.0433167093      0.4960047640     -0.0761593591
O       0.8857627922     -0.3515700268     -0.5318931664
O       2.1167190144     -0.1711593430     -0.8524669844
C      -1.1020717233     -0.1238689420      0.5605835700
C      -2.1963109654      0.5729980675      1.0161089836
C       0.4284926974      1.8947296795      0.0444583193
H      -1.1071825705     -1.2078430258      0.5935936352
H      -2.3466392818      1.5075537072      1.5437936164
H      -2.9483785177     -0.0590063562      1.3218852743
H       1.1758748241      1.9995150860     -0.7908082693
H       1.0047037585      2.3365131769      0.9057302777
H      -0.5243472694      2.4370910213     -0.0110013079
12
Frame=279  time=140.000fs  energy=-306.17267766Ha  molecule=COOCCCHHHHHH
C       0.0422849291      0.4974555889     -0.0763155932
O       0.8842582271     -0.3533021599     -0.5273057799
O       2.1158648793     -0.1748915796     -0.8604617917
C      -1.1094473030     -0.1118286044      0.5611017934
C      -2.1911829566      0.5737489472      1.0221500163
C       0.4320558556      1.8875345594      0.0430559663
H      -1.1031823162     -1.1641123130      0.5867802464
H      -2.3681195645      1.5132783385      1.5439054197
H      -2.9462884635     -0.0616810853      1.3172200996
H       1.1806960270      1.9635971276     -0.7803553326
H       1.0228464319      2.3320046284      0.9067395558
H      -0.4978635540      2.4334988501     -0.0166007718
12
Frame=280  time=140.500fs  energy=-306.17193452Ha  molecule=COOCCCHHHHHH
C       0.0415056644      0.4987019974     -0.0762262564
O       0.8825272652     -0.3553641866     -0.5226448908
O       2.1153069377     -0.1785734376     -0.8686121855
C      -1.1171299555     -0.0993335916      0.5616492666
C      -2.1858394321      0.5743569516      1.0283658757
C       0.4359650623      1.8805293277      0.0416270386
H      -1.1000572208     -1.1226995056      0.5790313259
H      -2.3885292397      1.5205686960      1.5419077004
H      -2.9481263811     -0.0677638129      1.3138226497
H       1.1846181747      1.9319596765     -0.7702645386
H       1.0382821606      2.3258573897      0.9070875733
H      -0.4711908810      2.4323193699     -0.0231380808
12
Frame=281  time=141.000fs  energy=-306.17111590Ha  molecule=COOCCCHHHHHH
C       0.0409064358      0.4997268324     -0.0758604840
O       0.8806167498     -0.3577330044     -0.5179328824
O       2.1150289982     -0.1822187480     -0.8769105021
C      -1.1249899157     -0.0861871820      0.5621772142
C      -2.1804566748      0.5748639509      1.0348181090
C       0.4403538397      1.8736604754      0.0402207929
H      -1.0979277123     -1.0865334744      0.5705258381
H      -2.4076327641      1.5290077022      1.5376366038
H      -2.9534291581     -0.0767448415      1.3116016847
H       1.1879772061      1.9048563888     -0.7608936998
H       1.0506748940      2.3177829218      0.9064240984
H      -0.4455669931      2.4342754787     -0.0307023759
12
Frame=282  time=141.500fs  energy=-306.17051607Ha  molecule=COOCCCHHHHHH
C       0.0404289438      0.5005158986     -0.0751926689
O       0.8785612970     -0.3603802272     -0.5131861753
O       2.1150155372     -0.1858355341     -0.8853506877
C      -1.1328942053     -0.0722870116      0.5626396812
C      -2.1752540024      0.5752944050      1.0415838309
C       0.4453371661      1.8668747190      0.0388735399
H      -1.0968575356     -1.0576084169      0.5613558227
H      -2.4252117217      1.5381566337      1.5309797076
H      -2.9613565976     -0.0878499956      1.3103366982
H       1.1910552613      1.8823489423     -0.7525399132
H       1.0597736435      2.3075559157      0.9045526363
H      -0.4219675208      2.4401591517     -0.0395037644
12
Frame=283  time=142.000fs  energy=-306.17031790Ha  molecule=COOCCCHHHHHH
C       0.0400338253      0.5010582276     -0.0742074857
O       0.8763835888     -0.3632775819     -0.5084159281
O       2.1152486084     -0.1894286998     -0.8939265832
C      -1.1407009362     -0.0576250175      0.5629891210
C      -2.1704915900      0.5756682404      1.0487511917
C       0.4509894545      1.8601357842      0.0376095531
H      -1.0969047578     -1.0371479158      0.5515605063
H      -2.4410612095      1.5475889736      1.5218842070
H      -2.9707309073     -0.1000996550      1.3097152229
H       1.1941612818      1.8644095449     -0.7455060302
H       1.0654558171      2.2950877107      0.9014646934
H      -0.4009867185      2.4506158164     -0.0497812273
12
Frame=284  time=142.500fs  energy=-306.17056419Ha  molecule=COOCCCHHHHHH
C       0.0396936155      0.5013443333     -0.0729035210
O       0.8741010405     -0.3663994596     -0.5036315801
O       2.1157049459     -0.1930032618     -0.9026298937
C      -1.1482546420     -0.0422827969      0.5631719244
C      -2.1664534262      0.5760087905      1.0564096068
C       0.4573283656      1.8534443540      0.0364361549
H      -1.0981019043     -1.0255569289      0.5411521274
H      -2.4550142290      1.5569346867      1.5103852311
H      -2.9802082679     -0.1123970797      1.3094067438
H       1.1976327702      1.8509197594     -0.7400992650
H       1.0677418803      2.2804716968      0.8973704110
H      -0.3827196375      2.4658211077     -0.0616671566
12
Frame=285  time=143.000fs  energy=-306.17113788Ha  molecule=COOCCCHHHHHH
C       0.0393873796      0.5013626176     -0.0712954436
O       0.8717303956     -0.3697222505     -0.4988428899
O       2.1163551908     -0.1965657899     -0.9114493594
C      -1.1553925979     -0.0264239787      0.5631296284
C      -2.1634185759      0.5763439286      1.0646399497
C       0.4643147471      1.8468466901      0.0353372857
H      -1.1004344318     -1.0222813040      0.5301279424
H      -2.4669676463      1.5659327750      1.4966180407
H      -2.9884962254     -0.1236763775      1.3091295162
H       1.2017884953      1.8416423546     -0.7365820555
H       1.0667826631      2.2639908434      0.8926984924
H      -0.3667433841      2.4853044155     -0.0751033042
12
Frame=286  time=143.500fs  energy=-306.17186197Ha  molecule=COOCCCHHHHHH
C       0.0391046213      0.5010973588     -0.0694144492
O       0.8692862723     -0.3732225365     -0.4940589708
O       2.1171654270     -0.2001234379     -0.9203713870
C      -1.1619645284     -0.0102586622      0.5628067927
C      -2.1616323234      0.5767068845      1.0735079618
C       0.4718715418      1.8404261238      0.0342713713
H      -1.1038404456     -1.0260971980      0.5184699732
H      -2.4768687379      1.5744413163      1.4807845259
H      -2.9945152023     -0.1330588200      1.3086858986
H       1.2068815912      1.8362204028     -0.7351181220
H       1.0628325183      2.2460946728      0.8880530672
H      -0.3522778504      2.5080563167     -0.0898430530
12
Frame=287  time=144.000fs  energy=-306.17258246Ha  molecule=COOCCCHHHHHH
C       0.0388567013      0.5005298951     -0.0673064451
O       0.8667770638     -0.3768757946     -0.4892860128
O       2.1180997007     -0.2036820860     -0.9293813292
C      -1.1678552742      0.0059849059      0.5621599635
C      -2.1612842898      0.5771388988      1.0830606834
C       0.4799077487      1.8342819156      0.0331773806
H      -1.1082531656     -1.0354389437      0.5061558045
H      -2.4846632547      1.5823829607      1.4630886492
H      -2.9974843701     -0.1399573852      1.3079748118
H       1.2130897592      1.8342137771     -0.7357529315
H       1.0562226069      2.2273379276      0.8841356696
H      -0.3384599383      2.5328589320     -0.1055256024
12
Frame=288  time=144.500fs  energy=-306.17314336Ha  molecule=COOCCCHHHHHH
C       0.0386852110      0.4996441745     -0.0650282839
O       0.8642042287     -0.3806573594     -0.4845262851
O       2.1191215731     -0.2072454259     -0.9384644298
C      -1.1729967866      0.0220473522      0.5611612136
C      -2.1624924856      0.5776885475      1.0933203194
C       0.4883249932      1.8285122134      0.0319842738
H      -1.1136691196     -1.0482267017      0.4932084132
H      -2.4902709164      1.5896876586      1.4437086832
H      -2.9969626363     -0.1440957716      1.3070016441
H       1.2205529527      1.8351421185     -0.7384384395
H       1.0473514897      2.2082948995      0.8816771469
H      -0.3245257635      2.5585329790     -0.1217424827
12
Frame=289  time=145.000fs  energy=-306.17343724Ha  molecule=COOCCCHHHHHH
C       0.0386557606      0.4984356999     -0.0626423351
O       0.8615670326     -0.3845462396     -0.4797796557
O       2.1201941153     -0.2108153132     -0.9476060686
C      -1.1773711265      0.0376478271      0.5597990697
C      -2.1652876893      0.5784007833      1.1042725269
C       0.4970099860      1.8232095004      0.0306120826
H      -1.1201600299     -1.0618208962      0.4797444781
H      -2.4936438736      1.5963151777      1.4228420233
H      -2.9928768790     -0.1454841564      1.3058890932
H       1.2294092172      1.8384972640     -0.7430538253
H       1.0366986933      2.1895039261      0.8814356867
H      -0.3098231505      2.5839179377     -0.1380398501
12
Frame=290  time=145.500fs  energy=-306.17348959Ha  molecule=COOCCCHHHHHH
C       0.0388399118      0.4969173593     -0.0602095050
O       0.8588680045     -0.3885292354     -0.4750464581
O       2.1212796837     -0.2143924114     -0.9567914850
C      -1.1810079569      0.0525406839      0.5580799950
C      -2.1696063504      0.5793043186      1.1158593498
C       0.5058393853      1.8184579600      0.0289648070
H      -1.1278190334     -1.0735217965      0.4659668358
H      -2.4948495148      1.6023218498      1.4007595184
H      -2.9855359584     -0.1444138086      1.3048755192
H       1.2397809538      1.8437480805     -0.7493712448
H       1.0248270284      2.1714611738      0.8842220159
H      -0.2937973407      2.6078133257     -0.1539139537
12
Frame=291  time=146.000fs  energy=-306.17343325Ha  molecule=COOCCCHHHHHH
C       0.0392983610      0.4951180708     -0.0577818949
O       0.8561154494     -0.3926031644     -0.4703301791
O       2.1223405572     -0.2179765722     -0.9660053409
C      -1.1839742363      0.0665565303      0.5560274860
C      -2.1752999800      0.5804118218      1.1279836032
C       0.5147064776      1.8143255297      0.0269318725
H      -1.1367220342     -1.0810920458      0.4521246084
H      -2.4940989559      1.6078774742      1.3778130976
H      -2.9756368610     -0.1414584624      1.3043045929
H       1.2517318721      1.8503911167     -0.7570028776
H       1.0123214527      2.1546126856      0.8908298602
H      -0.2760692649      2.6291036741     -0.1688625713
12
Frame=292  time=146.500fs  energy=-306.17339990Ha  molecule=COOCCCHHHHHH
C       0.0400727346      0.4930764001     -0.0553982792
O       0.8533232253     -0.3967745766     -0.4656387449
O       2.1233399734     -0.2215672163     -0.9752314648
C      -1.1863608104      0.0796072375      0.5536791225
C      -2.1821522385      0.5817319022      1.1405190068
C       0.5235474776      1.8108600581      0.0244071899
H      -1.1469171734     -1.0830095665      0.4384695900
H      -2.4917264603      1.6132245066      1.3544094595
H      -2.9642673364     -0.1374603563      1.3046108760
H       1.2652452088      1.8580177104     -0.7654073047
H       0.9996840351      2.1393083892      0.9018565601
H      -0.2565218869      2.6469380336     -0.1824651571
12
Frame=293  time=147.000fs  energy=-306.17344791Ha  molecule=COOCCCHHHHHH
C       0.0411855024      0.4908353492     -0.0530851830
O       0.8505096916     -0.4010570987     -0.4609843410
O       2.1242426988     -0.2251638058     -0.9844529263
C      -1.1882730316      0.0916674125      0.5510844140
C      -2.1898960192      0.5832817294      1.1533202393
C       0.5323474323      1.8080952920      0.0213139028
H      -1.1584141310     -1.0784292511      0.4252233682
H      -2.4881528299      1.6186232530      1.3309774771
H      -2.9528673425     -0.1334900611      1.3062908289
H       1.2802269225      1.8663234227     -0.7739413818
H       0.9872567938      2.1257531276      0.9175182107
H      -0.2352820066      2.6607723434     -0.1944295214
12
Frame=294  time=147.500fs  energy=-306.17358100Ha  molecule=COOCCCHHHHHH
C       0.0426444429      0.4884420395     -0.0508618930
O       0.8476974655     -0.4054676846     -0.4563827873
O       2.1250152932     -0.2287661986     -0.9936523935
C      -1.1898265271      0.1027493324      0.5483037251
C      -2.1982334444      0.5850915890      1.1662325170
C       0.5411313559      1.8060572537      0.0176215377
H      -1.1711729621     -1.0669997836      0.4125648289
H      -2.4838471159      1.6243037618      1.3079411805
H      -2.9430990971     -0.1307482460      1.3098538328
H       1.2965099523      1.8750578041     -0.7818930140
H       0.9752005277      2.1139896472      0.9375245204
H      -0.2126427819      2.6703216609     -0.2045956694
12
Frame=295  time=148.000fs  energy=-306.17379905Ha  molecule=COOCCCHHHHHH
C       0.0444488940      0.4859502324     -0.0487455573
O       0.8449133762     -0.4100229589     -0.4518527765
O       2.1256269960     -0.2323747666     -1.0028127433
C      -1.1911440249      0.1128837977      0.5454062305
C      -2.2068632919      0.5871987533      1.1791019841
C       0.5499498625      1.8047628678      0.0133517529
H      -1.1851049542     -1.0487092386      0.4006330553
H      -2.4792878128      1.6304295973      1.2856987660
H      -2.9366166116     -0.1303844137      1.3157634365
H       1.3138666321      1.8839641800     -0.7884997436
H       0.9635257401      2.1039179937      0.9610490413
H      -0.1890031049      2.6755329096     -0.2129201761
12
Frame=296  time=148.500fs  energy=-306.17411482Ha  molecule=COOCCCHHHHHH
C       0.0465962733      0.4834211356     -0.0467539887
O       0.8421866129     -0.4147360882     -0.4474143887
O       2.1260515093     -0.2359902521     -1.0119178808
C      -1.1923501897      0.1221108232      0.5424658756
C      -2.2155135949      0.5896330605      1.1917864182
C       0.5588617384      1.8042124423      0.0085725671
H      -1.2000832171     -1.0238271238      0.3895293221
H      -2.4749233569      1.6370823381      1.2646058905
H      -2.9347833886     -0.1332579505      1.3243850932
H       1.3320492589      1.8927478023     -0.7930107845
H       0.9521629495      2.0953490994      0.9868496510
H      -0.1648316893      2.6765925573     -0.2194554954
12
Frame=297  time=149.000fs  energy=-306.17450322Ha  molecule=COOCCCHHHHHH
C       0.0490867373      0.4809195108     -0.0449054353
O       0.8395442810     -0.4196143820     -0.4430867008
O       2.1262686175     -0.2396134788     -1.0209534492
C      -1.1935650076      0.1304812457      0.5395567714
C      -2.2239713796      0.5923997699      1.2041641306
C       0.5679184825      1.8043841948      0.0033851029
H      -1.2159534214     -0.9929580833      0.3793019930
H      -2.4711341453      1.6442699821      1.2449639286
H      -2.9384073284     -0.1397072745      1.3359461876
H       1.3508478508      1.9010839634     -0.7948025222
H       0.9410311337      2.0880676114      1.0135091884
H      -0.1406365528      2.6739242055     -0.2243308850
12
Frame=298  time=149.500fs  energy=-306.17480992Ha  molecule=COOCCCHHHHHH
C       0.0519243408      0.4785062604     -0.0432161445
O       0.8370063219     -0.4246581500     -0.4388854896
O       2.1262639833     -0.2432452328     -1.0299068564
C      -1.1949000233      0.1380717931      0.5367516996
C      -2.2321008991      0.5954657474      1.2161390879
C       0.5771580838      1.8052373139     -0.0020898151
H      -1.2325432722     -0.9572293415      0.3699061459
H      -2.4681963047      1.6519437882      1.2270144022
H      -2.9475433817     -0.1493924314      1.3504992582
H       1.3701313510      1.9086540403     -0.7934798816
H       0.9300634174      2.0818674472      1.0396569037
H      -0.1169393439      2.6681470705     -0.2277383684
12
Frame=299  time=150.000fs  energy=-306.17474386Ha  molecule=COOCCCHHHHHH
C       0.0551170918      0.4762340134     -0.0416986936
O       0.8345838400     -0.4298618467     -0.4348227373
O       2.1260264138     -0.2468865279     -1.0387663395
C      -1.1964620676      0.1450082759      0.5341264492
C      -2.2398442263      0.5987555688      1.2276414500
C       0.5866092789      1.8067197649     -0.0077219467
H      -1.2496889431     -0.9185317595      0.3611577081
H      -2.4662491200      1.6599923062      1.2109408393
H      -2.9614228418     -0.1612755424      1.3678857366
H       1.3898496275      1.9151819583     -0.7888896987
H       0.9191972093      2.0765570769      1.0640736217
H      -0.0942742901      2.6600137594     -0.2299223453
12
Frame=300  time=150.500fs  energy=-306.17406698Ha  molecule=COOCCCHHHHHH
C       0.0586798176      0.4741529434     -0.0403639943
O       0.8322842703     -0.4352180607     -0.4309090306
O       2.1255446403     -0.2505391095     -1.0475199367
C      -1.1983592698      0.1514727476      0.5317649580
C      -2.2472029328      0.6021632882      1.2386238791
C       0.5962994139      1.8087696899     -0.0133783765
H      -1.2673208579     -0.8795022476      0.3527520951
H      -2.4652905317      1.6682056968      1.1968818009
H      -2.9786101628     -0.1738131593      1.3877333001
H       1.4100002182      1.9204499622     -0.7810439414
H       0.9083668613      2.0719581435      1.0856878230
H      -0.0732149284      2.6503660476     -0.2311727935
12
Frame=301  time=151.000fs  energy=-306.17281545Ha  molecule=COOCCCHHHHHH
C       0.0626367395      0.4723203063     -0.0392249233
O       0.8301196451     -0.4407219621     -0.4271569562
O       2.1248068750     -0.2542059090     -1.0561557138
C      -1.2006963719      0.1576801362      0.5297568919
C      -2.2542093154      0.6055764779      1.2490555705
C       0.6062566739      1.8113065332     -0.0189276049
H      -1.2855855379     -0.8430745253      0.3443692203
H      -2.4652248259      1.6762648704      1.1849491120
H      -2.9973882156     -0.1853457943      1.4095207092
H       1.4305992645      1.9243040301     -0.7700367265
H       0.8975272670      2.0679208461      1.1035530006
H      -0.0543939832      2.6401271690     -0.2318241966
12
Frame=302  time=151.500fs  energy=-306.17129939Ha  molecule=COOCCCHHHHHH
C       0.0670177156      0.4707987532     -0.0382961499
O       0.8281073694     -0.4463718027     -0.4235813538
O       2.1238024217     -0.2578913776     -1.0646626680
C      -1.2035600827      0.1638478567      0.5281896875
C      -2.2609025656      0.6088996670      1.2589173647
C       0.6165053291      1.8142237392     -0.0242440103
H      -1.3048464440     -0.8120047731      0.3357321250
H      -2.4659323129      1.6837719483      1.1752405640
H      -3.0161447620     -0.1944399646      1.4326750471
H       1.4516881175      1.9266724869     -0.7560246763
H       0.8866876996      2.0643497522      1.1168795737
H      -0.0384817686      2.6302977587     -0.2322531295
12
Frame=303  time=152.000fs  energy=-306.16997341Ha  molecule=COOCCCHHHHHH
C       0.0718494276      0.4696455803     -0.0375889213
O       0.8262626535     -0.4521659324     -0.4201963557
O       2.1225224031     -0.2616014726     -1.0730308808
C      -1.2070057828      0.1701724423      0.5271390004
C      -2.2673151930      0.6120682462      1.2681993213
C       0.6270589511      1.8173966243     -0.0292136569
H      -1.3255194790     -0.7886505666      0.3265623964
H      -2.4673236276      1.6902790124      1.1678518964
H      -3.0336015751     -0.1999890476      1.4566564785
H       1.4733522468      1.9275916524     -0.7392497834
H       0.8759138565      2.0612049585      1.1250923798
H      -0.0261140123      2.6218795973     -0.2328598122
12
Frame=304  time=152.500fs  energy=-306.16925705Ha  molecule=COOCCCHHHHHH
C       0.0771436949      0.4689032362     -0.0371040430
O       0.8245922937     -0.4581010733     -0.4170130468
O       2.1209594417     -0.2653431173     -1.0812510439
C      -1.2110539274      0.1767869588      0.5266553070
C      -2.2734676216      0.6150506915      1.2768999292
C       0.6379136205      1.8207049062     -0.0337407536
H      -1.3478582045     -0.7745721060      0.3165872287
H      -2.4693770681      1.6953400132      1.1628839559
H      -3.0488765543     -0.2011805448      1.4810046136
H       1.4957214174      1.9272171328     -0.7200580866
H       0.8653046286      2.0584727981      1.1278688519
H      -0.0177673867      2.6156998460     -0.2340304594
12
Frame=305  time=153.000fs  energy=-306.16928903Ha  molecule=COOCCCHHHHHH
C       0.0828862191      0.4685951985     -0.0368268178
O       0.8230937937     -0.4641726612     -0.4140390926
O       2.1191071958     -0.2691236280     -1.0893139523
C      -1.2156996379      0.1837041386      0.5267498594
C      -2.2793677879      0.6178442180      1.2850248744
C       0.6490404221      1.8240574260     -0.0377532630
H      -1.3717655757     -0.7699178780      0.3056653953
H      -2.4721510029      1.6985976105      1.1604400411
H      -3.0614193181     -0.1974756102      1.5053361951
H       1.5189541011      1.9258188067     -0.6988958336
H       0.8549735783      2.0561303441      1.1251472630
H      -0.0136113127      2.6122101952     -0.2360957553
12
Frame=306  time=153.500fs  energy=-306.16985973Ha  molecule=COOCCCHHHHHH
C       0.0890326191      0.4687267390     -0.0367261694
O       0.8217574887     -0.4703745530     -0.4112791287
O       2.1169607090     -0.2729507234     -1.0972106538
C      -1.2209271190      0.1908062909      0.5273909590
C      -2.2850107608      0.6204685083      1.2925836115
C       0.6603794563      1.8274052215     -0.0412051203
H      -1.3967263553     -0.7733072332      0.2938892580
H      -2.4757594648      1.6998450548      1.1606188559
H      -3.0709333439     -0.1886158818      1.5293329112
H       1.5432225289      1.9237665710     -0.6762864513
H       0.8450427251      2.0541220917      1.1171070766
H      -0.0134100191      2.6113775375     -0.2393071788
12
Frame=307  time=154.000fs  energy=-306.17061722Ha  molecule=COOCCCHHHHHH
C       0.0955143276      0.4692881699     -0.0367585751
O       0.8205693891     -0.4766974222     -0.4087351545
O       2.1145174635     -0.2768329192     -1.1049334111
C      -1.2267174273      0.1978972744      0.5285140105
C      -2.2903786743      0.6229583811      1.2995859414
C       0.6718402779      1.8307383787     -0.0440745316
H      -1.4219081776     -0.7824061455      0.2815579818
H      -2.4803297975      1.6990373400      1.1635065574
H      -3.0773389167     -0.1746192500      1.5527440167
H       1.5686994738      1.9214961829     -0.6527906973
H       0.8356418349      2.0523619906      1.1041278539
H      -0.0165325400      2.6127241315     -0.2438345785
12
Frame=308  time=154.500fs  energy=-306.17129153Ha  molecule=COOCCCHHHHHH
C       0.1022494545      0.4702586363     -0.0368756131
O       0.8195138345     -0.4831277354     -0.4064072534
O       2.1117775056     -0.2807792173     -1.1124764051
C      -1.2330467203      0.2047700497      0.5300382500
C      -2.2954434735      0.6253581787      1.3060419839
C       0.6833127028      1.8340736487     -0.0463620913
H      -1.4463427265     -0.7947050347      0.2690552336
H      -2.4859772062      1.6962874814      1.1691661304
H      -3.0807571307     -0.1557634639      1.5753920490
H       1.5955294996      1.9194282470     -0.6289444457
H       0.8269064121      2.0507691751      1.0867447774
H      -0.0220727207      2.6154811214     -0.2497656007
12
Frame=309  time=155.000fs  energy=-306.17174801Ha  molecule=COOCCCHHHHHH
C       0.1091527345      0.4716100427     -0.0370321661
O       0.8185758602     -0.4896484395     -0.4042948676
O       2.1087420589     -0.2847975372     -1.1198353696
C      -1.2398794286      0.2112536808      0.5318821787
C      -2.3001699880      0.6277198301      1.3119646732
C       0.6946864675      1.8374417949     -0.0480935616
H      -1.4690971558     -0.8080865852      0.2567202997
H      -2.4928000401      1.6918737009      1.1776201479
H      -3.0815043190     -0.1325853846      1.5971734919
H       1.6237670951      1.9178482361     -0.6051803183
H       0.8189671260      2.0493245673      1.0656358867
H      -0.0290287348      2.6187648056     -0.2570941765
12
Frame=310  time=155.500fs  energy=-306.17190400Ha  molecule=COOCCCHHHHHH
C       0.1161439774      0.4733124241     -0.0371925718
O       0.8177432879     -0.4962399630     -0.4023978991
O       2.1054117522     -0.2888929082     -1.1270065168
C      -1.2471649893      0.2172277900      0.5339714920
C      -2.3045138494      0.6301025708      1.3173695268
C       0.7058714318      1.8408769511     -0.0493276551
H      -1.4894162421     -0.8210150766      0.2448162354
H      -2.5008723980      1.6862443826      1.1888338690
H      -3.0800987682     -0.1058990219      1.6180597640
H       1.6532864274      1.9168148202     -0.5817698070
H       0.8119281602      2.0481188107      1.0416819461
H      -0.0364599666      2.6217038638     -0.2657157843
12
Frame=311  time=156.000fs  energy=-306.17166498Ha  molecule=COOCCCHHHHHH
C       0.1231551406      0.4753383296     -0.0373335857
O       0.8170075824     -0.5028795891     -0.4007164832
O       2.1017857664     -0.2930668133     -1.1339856835
C      -1.2548430332      0.2226116673      0.5362393803
C      -2.3084143580      0.6325727386      1.3222690631
C       0.7168099901      1.8444065285     -0.0501649527
H      -1.5067970457     -0.8324080405      0.2335966507
H      -2.5102298509      1.6800014143      1.2027132856
H      -3.0772835063     -0.0768145670      1.6381128988
H       1.6837048815      1.9161576090     -0.5588266869
H       0.8058444639      2.0473717145      1.0161021639
H      -0.0435600360      2.6235094083     -0.2754529048
12
Frame=312  time=156.500fs  energy=-306.17096619Ha  molecule=COOCCCHHHHHH
C       0.1301343265      0.4776623410     -0.0374438300
O       0.8163625722     -0.5095394785     -0.3992494180
O       2.0978624217     -0.2973178671     -1.1407682972
C      -1.2628512636      0.2273527953      0.5386262531
C      -2.3117907706      0.6352015919      1.3266659625
C       0.7274786449      1.8480434165     -0.0507511225
H      -1.5209891706     -0.8414797365      0.2233570164
H      -2.5208598293      1.6738679685      1.2191170479
H      -3.0740352398     -0.0467225484      1.6575137740
H       1.7143806422      1.9155595759     -0.5363670057
H       0.8007122133      2.0474101659      0.9905651815
H      -0.0496510239      2.6235152782     -0.2861063680
12
Frame=313  time=157.000fs  energy=-306.16986949Ha  molecule=COOCCCHHHHHH
C       0.1370464512      0.4802578394     -0.0375201133
O       0.8158019019     -0.5161854223     -0.3979925694
O       2.0936406605     -0.3016431444     -1.1473499493
C      -1.2711300965      0.2314220470      0.5410806369
C      -2.3145506404      0.6380577963      1.3305516082
C       0.7378803123      1.8517824478     -0.0512690350
H      -1.5319448115     -0.8476714313      0.2144235746
H      -2.5327000088      1.6686543498      1.2378711349
H      -3.0714877724     -0.0171840423      1.6765657119
H       1.7444992864      1.9146723973     -0.5143846803
H       0.7964728272      2.0486068683      0.9671598148
H      -0.0541469186      2.6212073313     -0.2975050309
12
Frame=314  time=157.500fs  energy=-306.16862031Ha  molecule=COOCCCHHHHHH
C       0.1438715568      0.4830942314     -0.0375628620
O       0.8153168398     -0.5227775650     -0.3969384518
O       2.0891214074     -0.3060395401     -1.1537270213
C      -1.2796232010      0.2348100072      0.5435586179
C      -2.3166098316      0.6411961594      1.3339128392
C       0.7480341274      1.8555998047     -0.0519183769
H      -1.5397440348     -0.8506191286      0.2071114359
H      -2.5456444225      1.6652041866      1.2587838484
H      -3.0707423289      0.0102852943      1.6956362293
H       1.7731957477      1.9132101670     -0.4929079275
H       0.7930116553      2.0513157733      0.9481912810
H      -0.0565328074      2.6162511042     -0.3095283304
12
Frame=315  time=158.000fs  energy=-306.16758926Ha  molecule=COOCCCHHHHHH
C       0.1506011730      0.4861347175     -0.0375730546
O       0.8148952707     -0.5292724807     -0.3960771688
O       2.0843083580     -0.3105047317     -1.1598971380
C      -1.2882753538      0.2375226358      0.5460215251
C      -2.3179155836      0.6446506761      1.3367434802
C       0.7579692558      1.8594559057     -0.0528807172
H      -1.5445246948     -0.8501306683      0.2016830157
H      -2.5595506726      1.6642910653      1.2816646710
H      -3.0726357902      0.0344542636      1.7150490477
H       1.7996520372      1.9109916628     -0.4720176768
H       0.7901505867      2.0558273167      0.9357879558
H      -0.0563799981      2.6085107468     -0.3221044008
12
Frame=316  time=158.500fs  energy=-306.16709510Ha  molecule=COOCCCHHHHHH
C       0.1572334669      0.4893354856     -0.0375504773
O       0.8145219192     -0.5356253372     -0.3953980710
O       2.0792083855     -0.3150375641     -1.1658594657
C      -1.2970295384      0.2395774524      0.5484337024
C      -2.3184642705      0.6484373872      1.3390551675
C       0.7677217527      1.8633036114     -0.0542765799
H      -1.5464354505     -0.8461748786      0.1983163400
H      -2.5742344957      1.6664722678      1.3063419572
H      -3.0775675766      0.0545384456      1.7349757906
H       1.8231574751      1.9079354881     -0.4518339383
H       0.7876593756      2.0623216595      0.9314024735
H      -0.0533808304      2.5980373947     -0.3352062570
12
Frame=317  time=159.000fs  energy=-306.16721843Ha  molecule=COOCCCHHHHHH
C       0.1637696406      0.4926481015     -0.0374921275
O       0.8141794088     -0.5417914279     -0.3948912377
O       2.0738317441     -0.3196380953     -1.1716148580
C      -1.3058251424      0.2410018751      0.5507620194
C      -2.3183104538      0.6525639508      1.3408845091
C       0.7773303578      1.8670982094     -0.0561326375
H      -1.5456186418     -0.8388856800      0.1970860002
H      -2.5894456152      1.6719515180      1.3326655731
H      -3.0854284922      0.0702473797      1.7553634294
H       1.8431452760      1.9040350333     -0.4324969244
H       0.7852895153      2.0708082944      0.9354201447
H      -0.0473721523      2.5850321114     -0.3488537240
12
Frame=318  time=159.500fs  energy=-306.16774503Ha  molecule=COOCCCHHHHHH
C       0.1702133022      0.4960245917     -0.0373907503
O       0.8138496310     -0.5477273090     -0.3945483530
O       2.0681918930     -0.3243076741     -1.1771658594
C      -1.3145987172      0.2418341536      0.5529776076
C      -2.3175666534      0.6570397495      1.3422957191
C       0.7868294320      1.8708027941     -0.0583721088
H      -1.5422240898     -0.8285764803      0.1979610073
H      -2.6048364822      1.6805019162      1.3604892933
H      -3.0956175061      0.0817318788      1.7759041800
H       1.8592283331      1.8993384354     -0.4141584954
H       0.7828179552      2.0810844149      0.9470295686
H      -0.0383364755      2.5698147300     -0.3631127523
12
Frame=319  time=160.000fs  energy=-306.16828623Ha  molecule=COOCCCHHHHHH
C       0.1765717473      0.4994225000     -0.0372341570
O       0.8135150076     -0.5533916573     -0.3943629316
O       2.0623046535     -0.3290491934     -1.1825164746
C      -1.3232874482      0.2421250258      0.5550589481
C      -2.3163929648      0.6618825770      1.3433780116
C       0.7962403791      1.8743862837     -0.0608308986
H      -1.5364422562     -0.8157486710      0.2008213117
H      -2.6199468631      1.6914782434      1.3896422038
H      -3.1071297693      0.0894617064      1.7960487401
H       1.8712492143      1.8939430149     -0.3969818589
H       0.7800903426      2.0927475401      0.9643927347
H      -0.0263915004      2.5528169190     -0.3780885795
12
Frame=320  time=160.500fs  energy=-306.16849546Ha  molecule=COOCCCHHHHHH
C       0.1828568838      0.5028068250     -0.0370060308
O       0.8131593429     -0.5587453000     -0.3943299437
O       2.0561867159     -0.3338673988     -1.1876715679
C      -1.3318337205      0.2419372630      0.5569944013
C      -2.3149773845      0.6671201040      1.3442379517
C       0.8055654502      1.8778164098     -0.0632953818
H      -1.5285295986     -0.8010737583      0.2054860197
H      -2.6342221873      1.7039243078      1.4199041904
H      -3.1187083669      0.0940716152      1.8150675115
H       1.8793335870      1.8879975883     -0.3811452514
H       0.7770486991      2.1052682613      0.9850842867
H      -0.0117828416      2.5345896202     -0.3939208763
12
Frame=321  time=161.000fs  energy=-306.16822056Ha  molecule=COOCCCHHHHHH
C       0.1890849592      0.5061478401     -0.0366881581
O       0.8127681710     -0.5637506020     -0.3944451935
O       2.0498539987     -0.3387690146     -1.1926360820
C      -1.3401887318      0.2413426879      0.5587828356
C      -2.3135124938      0.6727860486      1.3449892293
C       0.8147873162      1.8810527971     -0.0655477570
H      -1.5188066898     -0.7853478386      0.2117388015
H      -2.6470627013      1.7167379061      1.4509959878
H      -3.1290302987      0.0962268894      1.8321502390
H       1.8839262052      1.8817004829     -0.3668442995
H       0.7737279651      2.1180955395      1.0066405278
H       0.0051107792      2.5158056115     -0.4107863513
12
Frame=322  time=161.500fs  energy=-306.16750968Ha  molecule=COOCCCHHHHHH
C       0.1952758064      0.5094168272     -0.0362633815
O       0.8123288988     -0.5683713590     -0.3947049848
O       2.0433203851     -0.3437623768     -1.1974144071
C      -1.3483138550      0.2404200582      0.5604330071
C      -2.3121746997      0.6789127392      1.3457425184
C       0.8238739918      1.8840445243     -0.0673973975
H      -1.5076434834     -0.7694497707      0.2193398596
H      -2.6578843928      1.7288345063      1.4825845195
H      -3.1368844336      0.0965388679      1.8465187968
H       1.8857933923      1.8752871149     -0.3542847928
H       0.7702256459      2.1307484051      1.0269458403
H       0.0237665219      2.4972454165     -0.4289007879
12
Frame=323  time=162.000fs  energy=-306.16653777Ha  molecule=COOCCCHHHHHH
C       0.2014520843      0.5125825962     -0.0357188707
O       0.8118311861     -0.5725736708     -0.3951061057
O       2.0365970642     -0.3488563613     -1.2020100138
C      -1.3561792257      0.2392569771      0.5619629828
C      -2.3111091694      0.6855229038      1.3465967557
C       0.8327857541      1.8867328911     -0.0686910859
H      -1.4954563955     -0.7543365170      0.2280247965
H      -2.6661742008      1.7392764752      1.5143001974
H      -3.1413100576      0.0955215265      1.8575260753
H       1.8859740932      1.8690074959     -0.3436665982
H       0.7666659862      2.1428691356      1.0443605193
H       0.0435276926      2.4797565781     -0.4485123643
12
Frame=324  time=162.500fs  energy=-306.16553672Ha  molecule=COOCCCHHHHHH
C       0.2076384769      0.5156105728     -0.0350489290
O       0.8112676727     -0.5763273709     -0.3956458548
O       2.0296926209     -0.3540589755     -1.2064253870
C      -1.3637608406      0.2379538089      0.5633994946
C      -2.3104221392      0.6926235228      1.3476329906
C       0.8414808989      1.8890581511     -0.0693108676
H      -1.4827127250     -0.7410621331      0.2375010798
H      -2.6715278796      1.7473588312      1.5457620140
H      -3.1416739791      0.0935711501      1.8647190306
H       1.8856735766      1.8630960680     -0.3351681689
H       0.7631723731      2.1542369994      1.0576888279
H       0.0636588028      2.4641812013     -0.4698815806
12
Frame=325  time=163.000fs  energy=-306.16475295Ha  molecule=COOCCCHHHHHH
C       0.2138604904      0.5184647967     -0.0342559948
O       0.8106347280     -0.5796074213     -0.3963220337
O       2.0226138586     -0.3593763848     -1.2106623019
C      -1.3710388799      0.2366229266      0.5647757185
C      -2.3101804515      0.7002030821      1.3489115774
C       0.8499183418      1.8909691569     -0.0691680492
H      -1.4699154182     -0.7307559345      0.2474587589
H      -2.6736646544      1.7526489282      1.5766037527
H      -3.1376824944      0.0909633237      1.8678589860
H       1.8861237971      1.8577394987     -0.3289387698
H       0.7598509142      2.1647479852      1.0660821290
H       0.0834458641      2.4512595812     -0.4932448017
12
Frame=326  time=163.500fs  energy=-306.16441208Ha  molecule=COOCCCHHHHHH
C       0.2201423472      0.5211120159     -0.0333493520
O       0.8099327928     -0.5823947537     -0.3971328943
O       2.0153669795     -0.3648127086     -1.2147223219
C      -1.3779982890      0.2353795441      0.5661267681
C      -2.3104155997      0.7082318586      1.3504721592
C       0.8580574126      1.8924338179     -0.0681996715
H      -1.4575579992     -0.7245192583      0.2576017147
H      -2.6724207961      1.7549837266      1.6064947944
H      -3.1293473656      0.0878653088      1.8669092987
H       1.8884256875      1.8530530395     -0.3250922483
H       0.7567859756      2.1743766789      1.0689438190
H       0.1023315823      2.4415216219     -0.5187615676
12
Frame=327  time=164.000fs  energy=-306.16466461Ha  molecule=COOCCCHHHHHH
C       0.2265038362      0.5235262035     -0.0323423003
O       0.8091660449     -0.5846763312     -0.3980769548
O       2.0079585871     -0.3703702823     -1.2186072808
C      -1.3846300541      0.2343269799      0.5674840205
C      -2.3111285893      0.7166640014      1.3523347667
C       0.8658578022      1.8934465483     -0.0663712700
H      -1.4460658221     -0.7232615839      0.2676898110
H      -2.6677325689      1.7544380786      1.6351538290
H      -3.1169351595      0.0843558221      1.8620082583
H       1.8933829160      1.8490741062     -0.3236907060
H       0.7540446041      2.1831416390      1.0658785801
H       0.1200513947      2.4351892929     -0.5464505263
12
Frame=328  time=164.500fs  energy=-306.16551867Ha  molecule=COOCCCHHHHHH
C       0.2329567537      0.5256916682     -0.0312490276
O       0.8083413101     -0.5864446670     -0.3991526463
O       2.0003962035     -0.3760500310     -1.2223196508
C      -1.3909315097      0.2335407641      0.5688698148
C      -2.3122927492      0.7254396558      1.3545001320
C       0.8732820686      1.8940296891     -0.0636850943
H      -1.4357410584     -0.7275082338      0.2775805728
H      -2.6596238334      1.7512871492      1.6623604300
H      -3.1009278127      0.0804418180      1.8534461320
H       1.9013688145      1.8457709651     -0.3247181864
H       0.7516812371      2.1910876950      1.0566947382
H       0.1367137741      2.4321225180     -0.5761280307
12
Frame=329  time=165.000fs  energy=-306.16679870Ha  molecule=COOCCCHHHHHH
C       0.2395026395      0.5276041113     -0.0300821816
O       0.8074665336     -0.5876971389     -0.4003579460
O       1.9926882712     -0.3818518385     -1.2258628072
C      -1.3969052848      0.2330570600      0.5702944579
C      -2.3138537747      0.7344857226      1.3569482758
C       0.8803012102      1.8942285454     -0.0601910043
H      -1.4267300120     -0.7372433080      0.2872534880
H      -2.6482090076      1.7459857853      1.6879732878
H      -3.0820050242      0.0760674992      1.8416554888
H       1.9122657720      1.8430563031     -0.3280531248
H       0.7497328742      2.1982894464      1.0414556032
H       0.1527910887      2.4318270855     -0.6073681109
12
Frame=330  time=165.500fs  energy=-306.16817448Ha  molecule=COOCCCHHHHHH
C       0.2461337688      0.5292700733     -0.0288516717
O       0.8065495627     -0.5884351249     -0.4016902602
O       1.9848437544     -0.3877748350     -1.2292410407
C      -1.4025576825      0.2328713838      0.5717576428
C      -2.3157292917      0.7437153574      1.3596363656
C       0.8869032767      1.8941008716     -0.0559978668
H      -1.4190372463     -0.7518852962      0.2968001447
H      -2.6337105018      1.7391698193      1.7119607459
H      -3.0610242059      0.0711205964      1.8271991656
H       1.9254836227      1.8407972964     -0.3334498326
H       0.7481968366      2.2048779944      1.0205822480
H       0.1690216843      2.4335298532     -0.6395039107
12
Frame=331  time=166.000fs  energy=-306.16926207Ha  molecule=COOCCCHHHHHH
C       0.2528375773      0.5307049589     -0.0275647587
O       0.8055977852     -0.5886629546     -0.4031466257
O       1.9768715282     -0.3938175440     -1.2324591921
C      -1.4078978746      0.2329471646      0.5732539166
C      -2.3178118742      0.7530279898      1.3624983428
C       0.8931034866      1.8937022489     -0.0512823832
H      -1.4125916509     -0.7704150863      0.3063893110
H      -2.6164774987      1.7316568854      1.7344373337
H      -3.0389575260      0.0654474486      1.8107278420
H       1.9400567763      1.8388211987     -0.3405416943
H       0.7469904811      2.2110915225      0.9950044079
H       0.1862434345      2.4363159147     -0.6716916325
12
Frame=332  time=166.500fs  energy=-306.16974684Ha  molecule=COOCCCHHHHHH
C       0.2596023033      0.5319296772     -0.0262267429
O       0.8046183058     -0.5883871883     -0.4047240023
O       1.9687798767     -0.3999780302     -1.2355222316
C      -1.4129382285      0.2332275662      0.5747785635
C      -2.3199774338      0.7623117168      1.3654482497
C       0.8989499029      1.8930706882     -0.0462904336
H      -1.4073290807     -0.7915654692      0.3162305745
H      -2.5969851082      1.7244132062      1.7556851392
H      -3.0167887921      0.0588832726      1.7929114078
H       1.9548244274      1.8369245992     -0.3488739867
H       0.7459091156      2.2173404820      0.9663132975
H       0.2052084476      2.4392916451     -0.7030344820
12
Frame=333  time=167.000fs  energy=-306.16948621Ha  molecule=COOCCCHHHHHH
C       0.2664211530      0.5329668075     -0.0248409107
O       0.8036176652     -0.5876166724     -0.4064193804
O       1.9605765616     -0.4062543613     -1.2384353339
C      -1.4176938587      0.2336459092      0.5763298770
C      -2.3220976552      0.7714492307      1.3683877266
C       0.9045186503      1.8922157141     -0.0413273851
H      -1.4032374314     -0.8139875053      0.3265390804
H      -2.5757945763      1.7184710958      1.7761349070
H      -2.9954314236      0.0512895404      1.7743895905
H       1.9686545686      1.8348968601     -0.3579537155
H       0.7446080929      2.2242591357      0.9368143428
H       0.2264538038      2.4417103407     -0.7327116729
12
Frame=334  time=167.500fs  energy=-306.16858673Ha  molecule=COOCCCHHHHHH
C       0.2732927337      0.5338372932     -0.0234076455
O       0.8026007371     -0.5863626205     -0.4082296541
O       1.9522693644     -0.4126453048     -1.2412043319
C      -1.4221795026      0.2341327519      0.5779071442
C      -2.3240536987      0.7803278869      1.3712170746
C       0.9099027883      1.8911173416     -0.0367365457
H      -1.4003393874     -0.8363662063      0.3374950432
H      -2.5534749260      1.7148032882      1.7962972589
H      -2.9757096904      0.0425874390      1.7557677219
H       1.9806083881      1.8325509542     -0.3672863769
H       0.7426196610      2.2327006190      0.9093753080
H       0.2502683100      2.4430137963     -0.7600462492
12
Frame=335  time=168.000fs  energy=-306.16742238Ha  molecule=COOCCCHHHHHH
C       0.2802177777      0.5345585424     -0.0219244460
O       0.8015698344     -0.5846381227     -0.4101514337
O       1.9438663355     -0.4191505508     -1.2438358891
C      -1.4264060785      0.2346195040      0.5795080851
C      -2.3257482458      0.7888517335      1.3738480206
C       0.9152008895      1.8897374021     -0.0328577803
H      -1.3986413878     -0.8574863857      0.3492089728
H      -2.5305172792      1.7141695712      1.8166595785
H      -2.9583621974      0.0327936840      1.7376229875
H       1.9899978898      1.8297448786     -0.3763852834
H       0.7394225628      2.2436207748      0.8869607610
H       0.2767199515      2.4428074875     -0.7845133603
12
Frame=336  time=168.500fs  energy=-306.16647848Ha  molecule=COOCCCHHHHHH
C       0.2871962168      0.5351453225     -0.0203871644
O       0.8005249244     -0.5824586733     -0.4121810837
O       1.9353758733     -0.4257700270     -1.2463374215
C      -1.4303805434      0.2350416551      0.5811290094
C      -2.3271139325      0.7969504391      1.3762158248
C       0.9205027703      1.8880410658     -0.0299630672
H      -1.3981064905     -0.8762811659      0.3617091426
H      -2.5072800839      1.7169694956      1.8375785322
H      -2.9440033353      0.0220705299      1.7204761786
H       1.9963908474      1.8263838250     -0.3847725591
H       0.7345837079      2.2578343021      0.8718840170
H       0.3056878456      2.4408335286     -0.8057429099
12
Frame=337  time=169.000fs  energy=-306.16606485Ha  molecule=COOCCCHHHHHH
C       0.2942255285      0.5356139250     -0.0187910211
O       0.7994651173     -0.5798446523     -0.4143150978
O       1.9268072740     -0.4325026306     -1.2487172682
C      -1.4341083063      0.2353435303      0.5827670213
C      -2.3281166805      0.8045817292      1.3782878645
C       0.9258756299      1.8860186909     -0.0282030056
H      -1.3986715735     -0.8918827104      0.3749545896
H      -2.4839807938      1.7231533811      1.8591992286
H      -2.9330473505      0.0107753731      1.7047351871
H       1.9996014835      1.8224006892     -0.3919837245
H       0.7279063691      2.2757598302      0.8652127125
H       0.3368773001      2.4369587874     -0.8235414448
12
Frame=338  time=169.500fs  energy=-306.16614252Ha  molecule=COOCCCHHHHHH
C       0.3012984360      0.5359862702     -0.0171315807
O       0.7983905439     -0.5768236611     -0.4165503840
O       1.9181714438     -0.4393455595     -1.2509850929
C      -1.4375955930      0.2354831265      0.5844221241
C      -2.3287527407      0.8117281526      1.3800656919
C       0.9313546400      1.8836994486     -0.0275868761
H      -1.4002770149     -0.9036616619      0.3888588546
H      -2.4607255670      1.7322276666      1.8814232207
H      -2.9256563421     -0.0005260489      1.6906554580
H       1.9996891949      1.8177320333     -0.3975746092
H       0.7195270563      2.2972690943      0.8665822720
H       0.3698229553      2.4311667329     -0.8379155899
12
Frame=339  time=170.000fs  energy=-306.16637760Ha  molecule=COOCCCHHHHHH
C       0.3084012008      0.5362885909     -0.0154069004
O       0.7973027921     -0.5734302377     -0.4188838600
O       1.9094810427     -0.4462951860     -1.2531521517
C      -1.4408502799      0.2354351055      0.5860980248
C      -2.3290400317      0.8183911168      1.3815793990
C       0.9369355258      1.8811569492     -0.0279857906
H      -1.4028750732     -0.9112414036      0.4033061895
H      -2.4375577701      1.7433600246      1.9039353409
H      -2.9217587034     -0.0111099511      1.6783490703
H       1.9969887314      1.8123051745     -0.4011501996
H       0.7099545606      2.3216529928      0.8742989728
H       0.4039011697      2.4235571064     -0.8490798454
12
Frame=340  time=170.500fs  energy=-306.16638411Ha  molecule=COOCCCHHHHHH
C       0.3155146553      0.5365450030     -0.0136187384
O       0.7962033498     -0.5697025475     -0.4213113474
O       1.9007499294     -0.4533488062     -1.2552310340
C      -1.4438808711      0.2351907506      0.5878014389
C      -2.3290073930      0.8245846290      1.3828764595
C       0.9425733813      1.8785040739     -0.0291583831
H      -1.4064113287     -0.9144769634      0.4181547949
H      -2.4145032954      1.7555585411      1.9262819347
H      -2.9211311760     -0.0202021141      1.6678340415
H       1.9921347491      1.8060395813     -0.4024248600
H       0.7000055320      2.3477008694      0.8856897730
H       0.4383737814      2.4143611449     -0.8574368591
12
Frame=341  time=171.000fs  energy=-306.16598966Ha  molecule=COOCCCHHHHHH
C       0.3226186953      0.5367721276     -0.0117707715
O       0.7950911075     -0.5656779434     -0.4238265141
O       1.8919925193     -0.4605056721     -1.2572347949
C      -1.4466942763      0.2347544397      0.5895402514
C      -2.3286866349      0.8303301616      1.3840101911
C       0.9481984538      1.8758679548     -0.0308129483
H      -1.4108025022     -0.9134026282      0.4332358852
H      -2.3915935415      1.7678667865      1.9479691216
H      -2.9235006007     -0.0271022441      1.6590908641
H       1.9860161671      1.7988477783     -0.4012846944
H       0.6905733098      2.3739632462      0.8978188553
H       0.4724544631      2.4039661934     -0.8635373988
12
Frame=342  time=171.500fs  energy=-306.16527076Ha  molecule=COOCCCHHHHHH
C       0.3296982636      0.5369786923     -0.0098670324
O       0.7939602064     -0.5613907349     -0.4264205121
O       1.8832238084     -0.4677670179     -1.2591762657
C      -1.4492948755      0.2341387180      0.5913221803
C      -2.3281086917      0.8356529633      1.3850318544
C       0.9537392808      1.8733584896     -0.0326708750
H      -1.4159313953     -0.9081825954      0.4483556546
H      -2.3688651823      1.7795053174      1.9685419588
H      -2.9286211499     -0.0312734480      1.6520989151
H       1.9796820226      1.7906224888     -0.3978124892
H       0.6823726799      2.3990925414      0.9082041229
H       0.5053598188      2.3929340888     -0.8680587745
12
Frame=343  time=172.000fs  energy=-306.16442148Ha  molecule=COOCCCHHHHHH
C       0.3367457481      0.5371683309     -0.0079114785
O       0.7927998152     -0.5568725595     -0.4290823776
O       1.8744597159     -0.4751354370     -1.2610680032
C      -1.4516870074      0.2333618429      0.5931557179
C      -2.3273018312      0.8405804634      1.3859872033
C       0.9591353192      1.8710507936     -0.0344955090
H      -1.4216493788     -0.8990909695      0.4632960490
H      -2.3463567948      1.7899045419      1.9876173591
H      -2.9363034715     -0.0323614492      1.6468478626
H       1.9742608928      1.7812319508     -0.3922558356
H       0.6758441980      2.4220446833      0.9151092003
H       0.5363412757      2.3819906096     -0.8717995849
12
Frame=344  time=172.500fs  energy=-306.16364075Ha  molecule=COOCCCHHHHHH
C       0.3437576710      0.5373426256     -0.0059071795
O       0.7915960574     -0.5521533468     -0.4318001008
O       1.8657171084     -0.4826138091     -1.2629226044
C      -1.4538782872      0.2324488165      0.5950523304
C      -2.3262905124      0.8451436929      1.3869171446
C       0.9643391019      1.8689832457     -0.0361009858
H      -1.4277783420     -0.8865173921      0.4778131494
H      -2.3241151603      1.7986318100      2.0048650529
H      -2.9464019743     -0.0301507321      1.6433350167
H       1.9708794584      1.7705410838     -0.3849438461
H       0.6711949123      2.4421281017      0.9175425429
H       0.5647300002      2.3719460567     -0.8756553216
12
Frame=345  time=173.000fs  energy=-306.16309020Ha  molecule=COOCCCHHHHHH
C       0.3507290275      0.5375050530     -0.0038545211
O       0.7903342584     -0.5472629570     -0.4345618172
O       1.8570139646     -0.4902046467     -1.2647533988
C      -1.4558805776      0.2314340479      0.5970275669
C      -2.3250949640      0.8493796119      1.3878606090
C       0.9693142485      1.8671703786     -0.0373504721
H      -1.4341196719     -0.8709915740      0.4916375210
H      -2.3022049940      1.8052934146      2.0199656393
H      -2.9587837913     -0.0245035790      1.6415557764
H       1.9705498413      1.7584453925     -0.3761854732
H       0.6685020597      2.4589190419      0.9150578411
H       0.5899930056      2.3635631621     -0.8805291984
12
Frame=346  time=173.500fs  energy=-306.16288447Ha  molecule=COOCCCHHHHHH
C       0.3576488630      0.5376658581     -0.0017493115
O       0.7890001176     -0.5422333756     -0.4373563492
O       1.8483698872     -0.4979098730     -1.2665752641
C      -1.4577085013      0.2303648063      0.5991006248
C      -2.3237316243      0.8533306473      1.3888565237
C       0.9740365651      1.8656199607     -0.0381556425
H      -1.4404755377     -0.8532277009      0.5044798014
H      -2.2807138599      1.8094953442      2.0325893933
H      -2.9732967473     -0.0153224714      1.6414867713
H       1.9740331607      1.7448959218     -0.3661936336
H       0.6677924606      2.4721479075      0.9075252268
H       0.6117847268      2.3574258836     -0.8871723444
12
Frame=347  time=174.000fs  energy=-306.16306907Ha  molecule=COOCCCHHHHHH
C       0.3644974130      0.5378457078      0.0004182105
O       0.7875799785     -0.5371003986     -0.4401730475
O       1.8398065187     -0.5057305075     -1.2684051208
C      -1.4593760895      0.2293052419      0.6012928191
C      -2.3222139251      0.8570401525      1.3899431158
C       0.9784991160      1.8643447714     -0.0384812587
H      -1.4466822609     -0.8341749661      0.5160453701
H      -2.2597503115      1.8108765237      2.0424130928
H      -2.9897422817     -0.0025407550      1.6430643770
H       1.9817046279      1.7299139847     -0.3550513944
H       0.6690730033      2.4816336636      0.8949955040
H       0.6299880406      2.3538423122     -0.8960172471
12
Frame=348  time=174.500fs  energy=-306.16360748Ha  molecule=COOCCCHHHHHH
C       0.3712441319      0.5380773197      0.0026636311
O       0.7860609903     -0.5319044007     -0.4430015999
O       1.8313473782     -0.5136662696     -1.2702619217
C      -1.4608921637      0.2283360222      0.6036247353
C      -2.3205527413      0.8605455004      1.3911547163
C       0.9827172964      1.8633670913     -0.0383486836
H      -1.4526518543     -0.8149986926      0.5260660755
H      -2.2394368093      1.8091745629      2.0491627631
H      -3.0078570367      0.0138719866      1.6461674709
H       1.9934592598      1.7136032242     -0.3427071264
H       0.6723407443      2.4872593043      0.8776458319
H       0.6447279067      2.3527975281     -0.9070778621
12
Frame=349  time=175.000fs  energy=-306.16439646Ha  molecule=COOCCCHHHHHH
C       0.3778472268      0.5384053789      0.0050081705
O       0.7844316022     -0.5266901404     -0.4458323717
O       1.8230169558     -0.5217153219     -1.2721661786
C      -1.4622561336      0.2275419518      0.6061120727
C      -2.3187564531      0.8638717158      1.3925172143
C       0.9867305676      1.8627154737     -0.0378345188
H      -1.4584112143     -0.7969000565      0.5343513986
H      -2.2198993152      1.8042833298      2.0526643497
H      -3.0273077940      0.0338994231      1.6506126127
H       2.0086988017      1.6961628720     -0.3289861046
H       0.6775875541      2.4889781399      0.8557883864
H       0.6563455735      2.3539624033     -0.9199560632
12
Frame=350  time=175.500fs  energy=-306.16527291Ha  molecule=COOCCCHHHHHH
C       0.3842556791      0.5388835639      0.0074777956
O       0.7826821316     -0.5215049225     -0.4486570855
O       1.8148394200     -0.5298740972     -1.2741391883
C      -1.4634570993      0.2269930592      0.6087624566
C      -2.3168313424      0.8670281480      1.3940437528
C       0.9906002439      1.8624113133     -0.0370679983
H      -1.4641179709     -0.7808615504      0.5408329680
H      -2.2012553697      1.7962834394      2.0528880495
H      -3.0477016808      0.0574707010      1.6561651786
H       2.0264277932      1.6779045383     -0.3136261053
H       0.6847759780      2.4868875568      0.8299840855
H       0.6653486021      2.3567544231     -0.9339524451
12
Frame=351  time=176.000fs  energy=-306.16600110Ha  molecule=COOCCCHHHHHH
C       0.3904133611      0.5395679970      0.0101015527
O       0.7808043034     -0.5163951036     -0.4514689258
O       1.8068378878     -0.5381371394     -1.2762023301
C      -1.4644781522      0.2267375249      0.6115766206
C      -2.3147825551      0.8700088989      1.3957318094
C       0.9944067663      1.8624432119     -0.0362347255
H      -1.4700313931     -0.7675614317      0.5455589905
H      -2.1836021857      1.7854442558      2.0499732950
H      -3.0686132985      0.0844640353      1.6625679622
H       2.0454519332      1.6592643831     -0.2963566899
H       0.6937390831      2.4814297413      0.8013106583
H       0.6723638256      2.3604383270     -0.9482275302
12
Frame=352  time=176.500fs  energy=-306.16631733Ha  molecule=COOCCCHHHHHH
C       0.3962642400      0.5405120699      0.0129101122
O       0.7787885877     -0.5114038936     -0.4542613326
O       1.7990352847     -0.5464974763     -1.2783770308
C      -1.4653035984      0.2268083059      0.6145530631
C      -2.3126149283      0.8727959338      1.3975615897
C       0.9982507794      1.8627391937     -0.0355828001
H      -1.4764408785     -0.7574857577      0.5486341894
H      -2.1670037355      1.7722142052      2.0442341193
H      -3.0896287140      0.1147155864      1.6695809035
H       2.0645936682      1.6407825177     -0.2770087710
H       0.7040194246      2.4736484338      0.7716463663
H       0.6780920752      2.3642505727     -0.9619266443
12
Frame=353  time=177.000fs  energy=-306.16608383Ha  molecule=COOCCCHHHHHH
C       0.4017575809      0.5417675741      0.0159352361
O       0.7766213089     -0.5065723441     -0.4570264488
O       1.7914558877     -0.5549479596     -1.2806851776
C      -1.4659238123      0.2272284919      0.6176913946
C      -2.3103336767      0.8753629580      1.3994953560
C       1.0022543240      1.8631590992     -0.0354119372
H      -1.4835883199     -0.7510400806      0.5501513882
H      -2.1514708973      1.7572307151      2.0361626813
H      -3.1103921418      0.1480131233      1.6770103500
H       2.0828002065      1.6230330868     -0.2555956360
H       0.7147738387      2.4652596399      0.7436807885
H       0.6832557336      2.3675107254     -0.9742473354
12
Frame=354  time=177.500fs  energy=-306.16547457Ha  molecule=COOCCCHHHHHH
C       0.4068514246      0.5433862255      0.0192085416
O       0.7742859519     -0.5019385135     -0.4597550615
O       1.7841246035     -0.5634825178     -1.2831483621
C      -1.4663362168      0.2280083057      0.6209926018
C      -2.3079462721      0.8776770455      1.4014782012
C       1.0065510850      1.8635155773     -0.0360361729
H      -1.4916258824     -0.7485348008      0.5501596397
H      -2.1369324904      1.7413615388      2.0264404371
H      -3.1306335871      0.1840712572      1.6847082906
H       2.0991695145      1.6065345737     -0.2323200140
H       0.7248620578      2.4584051002      0.7205422566
H       0.6885401904      2.3696811527     -0.9844932671
12
Frame=355  time=178.000fs  energy=-306.16493818Ha  molecule=COOCCCHHHHHH
C       0.4115141892      0.5454147555      0.0227576418
O       0.7717671458     -0.4975332739     -0.4624375716
O       1.7770642422     -0.5720969793     -1.2857860483
C      -1.4665443296      0.2291373435      0.6244574288
C      -2.3054661283      0.8796963265      1.4034414141
C       1.0112545414      1.8636315787     -0.0377086179
H      -1.5006199020     -0.7500762489      0.5486742777
H      -2.1232048771      1.7257399299      2.0159348654
H      -3.1501712392      0.2225162392      1.6925478634
H       2.1130062547      1.5916857681     -0.2075083258
H       0.7332132126      2.4550026683      0.7049196039
H       0.6945202992      2.3703916769     -0.9921291854
12
Frame=356  time=178.500fs  energy=-306.16486184Ha  molecule=COOCCCHHHHHH
C       0.4157250698      0.5478878232      0.0266006259
O       0.7690530578     -0.4933783400     -0.4650646546
O       1.7702933460     -0.5807891468     -1.2886140406
C      -1.4665543579      0.2305807471      0.6280839740
C      -2.3029156987      0.8813687802      1.4053093131
C       1.0164288862      1.8633971748     -0.0405565016
H      -1.5105805820     -0.7554846111      0.5457059911
H      -2.1099682463      1.7117330017      2.0056434286
H      -3.1689014592      0.2628936804      1.7003988130
H       2.1238422143      1.5787422901     -0.1815342247
H       0.7391790501      2.4561547012      0.6983332504
H       0.7016172813      2.3694338082     -0.9968518238
12
Frame=357  time=179.000fs  energy=-306.16535446Ha  molecule=COOCCCHHHHHH
C       0.4194726000      0.5508241171      0.0307435220
O       0.7661357515     -0.4894866860     -0.4676272952
O       1.7638252101     -0.5895573998     -1.2916434426
C      -1.4663711050      0.2322826336      0.6318655842
C      -2.3003261589      0.8826401166      1.4070104621
C       1.0220861063      1.8627829700     -0.0445707307
H      -1.5214835417     -0.7642979391      0.5412823389
H      -2.0967801794      1.7007929976      1.9965655570
H      -3.1867873814      0.3046906333      1.7081196344
H       2.1313951424      1.5678346630     -0.1547774525
H       0.7426070079      2.4620113014      0.7010334509
H       0.7100997632      2.3667463471     -0.9986336861
12
Frame=358  time=179.500fs  energy=-306.16621694Ha  molecule=COOCCCHHHHHH
C       0.4227521096      0.5542256367      0.0351808280
O       0.7630094900     -0.4858651013     -0.4701165363
O       1.7576680764     -0.5983995619     -1.2948805529
C      -1.4659957819      0.2341705781      0.6357895570
C      -2.2977327348      0.8834719326      1.4084925132
C       1.0281912462      1.8618388973     -0.0496103365
H      -1.5332646966     -0.7758192091      0.5354507440
H      -2.0831525984      1.6942039031      1.9895263005
H      -3.2038462717      0.3473693358      1.7155655171
H       2.1355459682      1.5590058015     -0.1276065225
H       0.7438215516      2.4717724854      0.7120365743
H       0.7200940798      2.3624181570     -0.9977315970
12
Frame=359  time=180.000fs  energy=-306.16704795Ha  molecule=COOCCCHHHHHH
C       0.4255635937      0.5580797082      0.0398971254
O       0.7596681122     -0.4825178494     -0.4725233660
O       1.7518259638     -0.6073133213     -1.2983276660
C      -1.4654272761      0.2361578182      0.6398371409
C      -2.2951675638      0.8838617250      1.4097355674
C       1.0346699809      1.8606886380     -0.0554113586
H      -1.5457991210     -0.7891702420      0.5282709639
H      -2.0686652872      1.6928226357      1.9850178601
H      -3.2201317443      0.3904058795      1.7226000340
H       2.1363496497      1.5522475722     -0.1003596861
H       0.7435853660      2.4837497822      0.7291803899
H       0.7315805168      2.3567065498     -0.9946683726
12
Frame=360  time=180.500fs  energy=-306.16752070Ha  molecule=COOCCCHHHHHH
C       0.4279116175      0.5623643505      0.0448696615
O       0.7561037474     -0.4794474401     -0.4748384888
O       1.7462993794     -0.6162971957     -1.3019840151
C      -1.4646666808      0.2381462222      0.6439849881
C      -2.2926537017      0.8838550917      1.4107591732
C       1.0414278264      1.8594945588     -0.0616336091
H      -1.5588928005     -0.8033621008      0.5198114452
H      -2.0530604686      1.6969132598      1.9831118353
H      -3.2357054519      0.4333208766      1.7290971822
H       2.1340421664      1.5475227076     -0.0733206965
H       0.7429157255      2.4957440617      0.7495667841
H       0.7443918347      2.3500437405     -0.9901733199
12
Frame=361  time=181.000fs  energy=-306.16755613Ha  molecule=COOCCCHHHHHH
C       0.4298073257      0.5670537674      0.0500708103
O       0.7523068881     -0.4766525408     -0.4770518335
O       1.7410858447     -0.6253505401     -1.3058463237
C      -1.4637215680      0.2400319372      0.6482072181
C      -2.2902027106      0.8835465168      1.4116219068
C       1.0483772393      1.8583978267     -0.0679417129
H      -1.5723018155     -0.8173894929      0.5101516162
H      -2.0362829969      1.7061143998      1.9834563677
H      -3.2505983026      0.4756978389      1.7349300475
H       2.1290279210      1.5447568528     -0.0467152748
H       0.7427519099      2.5057278259      0.7704296869
H       0.7582448518      2.3430096035     -0.9851240346
12
Frame=362  time=181.500fs  energy=-306.16722355Ha  molecule=COOCCCHHHHHH
C       0.4312700520      0.5721159552      0.0554677216
O       0.7482664775     -0.4741242508     -0.4791520209
O       1.7361800945     -0.6344722224     -1.3099085059
C      -1.4626072607      0.2417122803      0.6524773105
C      -2.2878165381      0.8830700844      1.4124144973
C       1.0554499109      1.8574864786     -0.0740516188
H      -1.5857604415     -0.8303273359      0.4993802990
H      -2.0184713014      1.7195326146      1.9853558829
H      -3.2647707269      0.5171954195      1.7399554186
H       2.1218770604      1.5438148012     -0.0207355516
H       0.7437524324      2.5122664458      0.7896855595
H       0.7727925361      2.3362825321     -0.9805306557
12
Frame=363  time=182.000fs  energy=-306.16663300Ha  molecule=COOCCCHHHHHH
C       0.4323268626      0.5775062919      0.0610212763
O       0.7439712916     -0.4718436192     -0.4811270797
O       1.7315734709     -0.6436587807     -1.3141604455
C      -1.4613451931      0.2430917246      0.6567692459
C      -2.2854924828      0.8825833076      1.4132477529
C       1.0625901940      1.8568027534     -0.0797307226
H      -1.5990034053     -0.8414030332      0.4875889286
H      -1.9999134946      1.7359316175      1.9879163403
H      -3.2780851221      0.5575521790      1.7440050766
H       2.1133157206      1.5444742011      0.0044227736
H       0.7462981502      2.5145294689      0.8059484105
H       0.7876925225      2.3305744428     -0.9775072766
12
Frame=364  time=182.500fs  energy=-306.16592661Ha  molecule=COOCCCHHHHHH
C       0.4330109660      0.5831659348      0.0666877254
O       0.7394124478     -0.4697834337     -0.4829662448
O       1.7272530312     -0.6529035596     -1.3185869948
C      -1.4599605634      0.2440860648      0.6610582153
C      -2.2832282786      0.8822481503      1.4142373295
C       1.0697449519      1.8563646097     -0.0847902089
H      -1.6117831637     -0.8500315918      0.4748647985
H      -1.9809796198      1.7539625220      1.9902129111
H      -3.2903043761      0.5965768244      1.7468900630
H       2.1041720812      1.5464168310      0.0285445810
H       0.7505727709      2.5121372622      0.8183231084
H       0.8026754802      2.3265613899     -0.9771397061
12
Frame=365  time=183.000fs  energy=-306.16527261Ha  molecule=COOCCCHHHHHH
C       0.4333606726      0.5890254141      0.0724211804
O       0.7345852281     -0.4679122905     -0.4846613332
O       1.7232010713     -0.6621970248     -1.3231680453
C      -1.4584809464      0.2446257035      0.6653219438
C      -2.2810237643      0.8822150180      1.4154894508
C       1.0768594199      1.8561839319     -0.0890880532
H      -1.6238837446     -0.8558187015      0.4612870810
H      -1.9620581468      1.7723538697      1.9914222591
H      -3.3011224714      0.6341263118      1.7484186888
H       2.0953007040      1.5492418824      0.0514077351
H       0.7566192585      2.5050225336      0.8262339708
H       0.8175890173      2.3248051239     -0.9802892937
12
Frame=366  time=183.500fs  energy=-306.16482376Ha  molecule=COOCCCHHHHHH
C       0.4334187607      0.5950094291      0.0781751737
O       0.7294892851     -0.4661982855     -0.4862071188
O       1.7193953424     -0.6715275936     -1.3278795692
C      -1.4569357822      0.2446582845      0.6695424616
C      -2.2788783885      0.8826131322      1.4170909450
C       1.0838774681      1.8562774438     -0.0925376498
H      -1.6351301363     -0.8585444806      0.4469266837
H      -1.9435176205      1.7900171620      1.9908919043
H      -3.3102159688      0.6700822603      1.7484205212
H       2.0875169659      1.5525022187      0.0728079509
H       0.7643673831      2.4933429492      0.8293436713
H       0.8324201050      2.3256739127     -0.9874256193
12
Frame=367  time=184.000fs  energy=-306.16466303Ha  molecule=COOCCCHHHHHH
C       0.4332318714      0.6010407195      0.0839031068
O       0.7241277427     -0.4646115862     -0.4876012255
O       1.7158097894     -0.6808822576     -1.3326949046
C      -1.4553561683      0.2441499008      0.6737074202
C      -2.2767870727      0.8835460248      1.4191039139
C       1.0907441673      1.8566690225     -0.0951170968
H      -1.6453906495     -0.8581361311      0.4318491725
H      -1.9256866389      1.8060908390      1.9881635533
H      -3.3172991349      0.7043326551      1.7467660914
H       2.0815385406      1.5557581145      0.0925807707
H       0.7736476634      2.4774527139      0.8275533911
H       0.8473045267      2.3292805073     -0.9985227136
12
Frame=368  time=184.500fs  energy=-306.16476401Ha  molecule=COOCCCHHHHHH
C       0.4328499799      0.6070433355      0.0895575480
O       0.7185061457     -0.4631263423     -0.4888442082
O       1.7124155508     -0.6902466401     -1.3375857024
C      -1.4537745765      0.2430845393      0.6778104479
C      -2.2747368300      0.8850903813      1.4215643630
C       1.0974108966      1.8573843722     -0.0968753964
H      -1.6545712781     -0.8546348798      0.4161182170
H      -1.9088410193      1.8199526056      1.9829709198
H      -3.3221711257      0.7367607159      1.7433776039
H       2.0779288775      1.5586250496      0.1106059631
H       0.7841901502      2.4579313890      0.8210693458
H       0.8625159035      2.3354473914     -1.0130313056
12
Frame=369  time=185.000fs  energy=-306.16499801Ha  molecule=COOCCCHHHHHH
C       0.4323257491      0.6129465622      0.0950892614
O       0.7126317162     -0.4617223823     -0.4899400247
O       1.7091821257     -0.6996047384     -1.3425225418
C      -1.4522243914      0.2414621588      0.6818505907
C      -2.2727047781      0.8872974960      1.4244839965
C       1.1038432987      1.8584408810     -0.0979299144
H      -1.6626041570     -0.8481634883      0.3997971156
H      -1.8931970632      1.8312095305      1.9752207812
H      -3.3247507739      0.7672412206      1.7382322518
H       2.0770554879      1.5607947935      0.1267947705
H       0.7956101821      2.4356326803      0.8104946899
H       0.8784151726      2.3437205245     -1.0299600517
12
Frame=370  time=185.500fs  energy=-306.16519540Ha  molecule=COOCCCHHHHHH
C       0.4317135629      0.6186895886      0.1004480245
O       0.7065129540     -0.4603859059     -0.4908964518
O       1.7060785111     -0.7089391465     -1.3474755845
C      -1.4507393426      0.2392958047      0.6858310891
C      -2.2706573624      0.8901961920      1.4278537769
C       1.1100312126      1.8598365841     -0.0984506032
H      -1.6694337152     -0.8388994908      0.3829475308
H      -1.8789113344      1.8396736831      1.9649655302
H      -3.3250990829      0.7956438627      1.7313617080
H       2.0790702476      1.5620263197      0.1410728336
H       0.8073932110      2.4116882439      0.7968774052
H       0.8953593066      2.3534588520     -1.0480857164
12
Frame=371  time=186.000fs  energy=-306.16521223Ha  molecule=COOCCCHHHHHH
C       0.4310683108      0.6242246548      0.1055859664
O       0.7001594632     -0.4591077368     -0.4917246143
O       1.7030738570     -0.7182323099     -1.3524153824
C      -1.4493526369      0.2366082281      0.6897578195
C      -2.2685506628      0.8937955924      1.4316477181
C       1.1159976730      1.8615428183     -0.0986393201
H      -1.6750046776     -0.8270572106      0.3656258003
H      -1.8660828441      1.8453358426      1.9523762471
H      -3.3234298676      0.8218420034      1.7228492946
H       2.0839020580      1.5621220174      0.1533602451
H       0.8188782571      2.3874492437      0.7816920218
H       0.9136189264      2.3639655706     -1.0661890188
12
Frame=372  time=186.500fs  energy=-306.16497553Ha  molecule=COOCCCHHHHHH
C       0.4304437949      0.6295158087      0.1104602033
O       0.6935814953     -0.4578798895     -0.4924372010
O       1.7001375228     -0.7274682267     -1.3573135254
C      -1.4480953851      0.2334292751      0.6936380428
C      -2.2663315960      0.8980865370      1.4358258642
C       1.1218038643      1.8635023933     -0.0987188805
H      -1.6792565182     -0.8128808909      0.3478774084
H      -1.8547529738      1.8483467992      1.9377210819
H      -3.3201067469      0.8457239757      1.7128239935
H       2.0912527229      1.5609183704      0.1635429850
H       0.8292383373      2.3644286484      0.7668163574
H       0.9333552683      2.3745790117     -1.0831701283
12
Frame=373  time=187.000fs  energy=-306.16454479Ha  molecule=COOCCCHHHHHH
C       0.4298899104      0.6345334147      0.1150314739
O       0.6867891672     -0.4566935785     -0.4930463220
O       1.6972390728     -0.7366334229     -1.3621429557
C      -1.4469948422      0.2297956382      0.6974804388
C      -2.2639397928      0.9030412880      1.4403359644
C       1.1275459853      1.8656348191     -0.0989239809
H      -1.6821278763     -0.7966503823      0.3297303483
H      -1.8449021404      1.8490091834      1.9213502268
H      -3.3156240275      0.8672039608      1.7014509977
H       2.1006118040      1.5583098525      0.1714588536
H       0.8375174703      2.3442379347      0.7544551449
H       0.9546351214      2.3847085336     -1.0980684300
12
Frame=374  time=187.500fs  energy=-306.16413624Ha  molecule=COOCCCHHHHHH
C       0.4294482661      0.6392489040      0.1192611354
O       0.6797927037     -0.4555403244     -0.4935628471
O       1.6943487343     -0.7457168786     -1.3668782706
C      -1.4460736994      0.2257529491      0.7012966851
C      -2.2613105873      0.9086122377      1.4451142921
C       1.1333378720      1.8678535108     -0.0994694667
H      -1.6835705557     -0.7786947401      0.3111893512
H      -1.8364442666      1.8477765658      1.9036861092
H      -3.3105711104      0.8862309564      1.6889202847
H       2.1113259367      1.5542864827      0.1769326284
H       0.8428043001      2.3283905975      0.7467863600
H       0.9774360927      2.3938633605     -1.1100935952
12
Frame=375  time=188.000fs  energy=-306.16399929Ha  molecule=COOCCCHHHHHH
C       0.4291485801      0.6436335839      0.1231106523
O       0.6726042889     -0.4544139716     -0.4939973566
O       1.6914383030     -0.7547092944     -1.3714961543
C      -1.4453503844      0.2213579308      0.7051032548
C      -2.2583800172      0.9147312467      1.4500871509
C       1.1392837244      1.8700898708     -0.1005028293
H      -1.6835680133     -0.7594014598      0.2922339522
H      -1.8292235886      1.8452503036      1.8852139787
H      -3.3055817280      0.9027948687      1.6754336828
H       2.1227037371      1.5489469513      0.1798427969
H       0.8444829929      2.3179958801      0.7453732042
H       1.0016426774      2.4016818600     -1.1186574153
12
Frame=376  time=188.500fs  energy=-306.16422255Ha  molecule=COOCCCHHHHHH
C       0.4290086776      0.6476614277      0.1265435023
O       0.6652398517     -0.4533109512     -0.4943609878
O       1.6884820756     -0.7636019850     -1.3759755287
C      -1.4448392578      0.2166782985      0.7089220222
C      -2.2550918926      0.9213111969      1.4551742401
C       1.1454554478      1.8723109394     -0.1020695911
H      -1.6821516259     -0.7392137165      0.2728206878
H      -1.8230197141      1.8421645580      1.8664683482
H      -3.3012687700      0.9169265780      1.6611889240
H       2.1340819335      1.5424858730      0.1801675806
H       0.8424275323      2.3135041824      0.7506578722
H       1.0270554770      2.4079367639     -1.1233529642
12
Frame=377  time=189.000fs  energy=-306.16465866Ha  molecule=COOCCCHHHHHH
C       0.4290379154      0.6513127308      0.1295260822
O       0.6577188647     -0.4522294365     -0.4946652898
O       1.6854574177     -0.7723858844     -1.3802972565
C      -1.4445503682      0.2117900878      0.7127797401
C      -2.2514057241      0.9282501320      1.4602933118
C       1.1518828277      1.8745227598     -0.1041035275
H      -1.6794095057     -0.7186189224      0.2528857148
H      -1.8175547001      1.8393585707      1.8480123299
H      -3.2981474257      0.9286893060      1.6463615505
H       2.1448398930      1.5351725482      0.1779915409
H       0.8370692768      2.3146313308      0.7617777655
H       1.0534101324      2.4125266639     -1.1239249008
12
Frame=378  time=189.500fs  energy=-306.16504586Ha  molecule=COOCCCHHHHHH
C       0.4292418482      0.6545755834      0.1320258208
O       0.6500621165     -0.4511691098     -0.4949215021
O       1.6823447410     -0.7810510872     -1.3844435771
C      -1.4444892493      0.2067738865      0.7167072774
C      -2.2473034571      0.9354369061      1.4653644595
C       1.1585569160      1.8767587648     -0.1064437455
H      -1.6754862444     -0.6981341185      0.2323451729
H      -1.8124953352      1.8377386145      1.8304097128
H      -3.2965588673      0.9381648027      1.6310910994
H       2.1544109156      1.5273228870      0.1734921539
H       0.8293119687      2.3205100615      0.7768205133
H       1.0803943336      2.4154773327     -1.1203060775
12
Frame=379  time=190.000fs  energy=-306.16520267Ha  molecule=COOCCCHHHHHH
C       0.4296257914      0.6574445549      0.1340086889
O       0.6422891035     -0.4501314560     -0.4951398724
O       1.6791268308     -0.7895867820     -1.3883974322
C      -1.4446570024      0.2017115677      0.7207389247
C      -2.2427927643      0.9427572226      1.4703129801
C       1.1654438802      1.8790592809     -0.1088747062
H      -1.6705757726     -0.6782883167      0.2110959367
H      -1.8074644773      1.8382232953      1.8141930335
H      -3.2966136962      0.9454432791      1.6154789697
H       2.1623191558      1.5192629452      0.1669257742
H       0.8203117477      2.3299907541      0.7934281854
H       1.1076633315      2.4169550279     -1.1127152074
12
Frame=380  time=190.500fs  energy=-306.16511339Ha  molecule=COOCCCHHHHHH
C       0.4301958245      0.6599179680      0.1354391783
O       0.6344168208     -0.4491194529     -0.4953294899
O       1.6757877277     -0.7979814517     -1.3921419252
C      -1.4450499922      0.1966831936      0.7249106698
C      -2.2379056174      0.9501005633      1.4750713380
C       1.1725025568      1.8814518582     -0.1111746600
H      -1.6649100493     -0.6595952686      0.1890241747
H      -1.8020820449      1.8416610758      1.7998298294
H      -3.2981689711      0.9506241063      1.5995994135
H       2.1682322841      1.5112883708      0.1586085319
H       0.8112045421      2.3419550054      0.8094540898
H       1.1348617674      2.4172674893     -1.1017169982
12
Frame=381  time=191.000fs  energy=-306.16486688Ha  molecule=COOCCCHHHHHH
C       0.4309576808      0.6619970705      0.1362836841
O       0.6264605271     -0.4481363764     -0.4954988351
O       1.6723115981     -0.8062235752     -1.3956602884
C      -1.4456585949      0.1917623306      0.7292559841
C      -2.2326925080      0.9573690187      1.4795813830
C       1.1796945626      1.8839423901     -0.1131497652
H      -1.6587448346     -0.6425117088      0.1660289490
H      -1.7960329059      1.8487224433      1.7876880242
H      -3.3008439806      0.9538266202      1.5835185131
H       2.1720032549      1.5036322740      0.1488875214
H       0.8029179608      2.3554969976      0.8233236245
H       1.1616541850      2.4168284496     -1.0881639149
12
Frame=382  time=191.500fs  energy=-306.16456026Ha  molecule=COOCCCHHHHHH
C       0.4319152428      0.6636890680      0.1365158644
O       0.6184356605     -0.4471845851     -0.4956567536
O       1.6686819069     -0.8143026976     -1.3989363398
C      -1.4464657158      0.1870096136      0.7337994347
C      -2.2272138613      0.9644870826      1.4837969641
C       1.1869828846      1.8865185822     -0.1146433917
H      -1.6523438834     -0.6273875979      0.1420608132
H      -1.7891366084      1.8597899430      1.7780061708
H      -3.3040740283      0.9552038083      1.5673134424
H       2.1736831448      1.4964507020      0.1381186651
H       0.7961356279      2.3699188787      0.8340139337
H       1.1877530437      2.4161034753     -1.0730671205
12
Frame=383  time=192.000fs  energy=-306.16425010Ha  molecule=COOCCCHHHHHH
C       0.4330701545      0.6650113777      0.1361210416
O       0.6103596221     -0.4462651914     -0.4958133330
O       1.6648810876     -0.8222102833     -1.4019550685
C      -1.4474463241      0.1824668679      0.7385504156
C      -2.2215308353      0.9714097737      1.4876860239
C       1.1943266069      1.8891569150     -0.1155309457
H      -1.6459644424     -0.6144244411      0.1171654681
H      -1.7813938746      1.8748768133      1.7708771804
H      -3.3071916103      0.9549509222      1.5510859547
H       2.1735004210      1.4898194246      0.1266619754
H       0.7913465692      2.3846445736      0.8408821853
H       1.2129324244      2.4155783900     -1.0575020402
12
Frame=384  time=192.500fs  energy=-306.16395171Ha  molecule=COOCCCHHHHHH
C       0.4344228241      0.6659934232      0.1350975807
O       0.6022526447     -0.4453787270     -0.4959803216
O       1.6608908456     -0.8299399324     -1.4047030844
C      -1.4485684840      0.1781544739      0.7434995883
C      -2.2156980928      0.9781263998      1.4912311473
C       1.2016788478      1.8918270386     -0.1157129250
H      -1.6398485722     -0.6036579601      0.0915165120
H      -1.7729947624      1.8935990681      1.7662505697
H      -3.3095143807      0.9533046837      1.5349680084
H       2.1718144785      1.4837341019      0.1148843859
H       0.7888974951      2.3991600217      0.8435395025
H       1.2370298451      2.4157570226     -1.0425752839
12
Frame=385  time=193.000fs  energy=-306.16366384Ha  molecule=COOCCCHHHHHH
C       0.4359739922      0.6666748254      0.1334552022
O       0.5941377066     -0.4445260736     -0.4961710130
O       1.6566928844     -0.8374869798     -1.4071687921
C      -1.4497952645      0.1740731977      0.7486193964
C      -2.2097604352      0.9846583299      1.4944279830
C       1.2089885663      1.8944951609     -0.1151141217
H      -1.6342240023     -0.5949737137      0.0654225250
H      -1.7642852607      1.9152137766      1.7639534888
H      -3.3104193959      0.9505328976      1.5191208829
H       2.1690633921      1.4781132761      0.1031598618
H       0.7890238057      2.4130066802      0.8418031209
H       1.2599414855      2.4171467748     -1.0293799237
12
Frame=386  time=193.500fs  energy=-306.16339096Ha  molecule=COOCCCHHHHHH
C       0.4377260758      0.6671014884      0.1312115123
O       0.5860399613     -0.4437088215     -0.4963997819
O       1.6522695761     -0.8448478028     -1.4093422577
C      -1.4510867544      0.1702096087      0.7538681218
C      -2.2037529338      0.9910512924      1.4972817123
C       1.2162040868      1.8971297135     -0.1136914634
H      -1.6293139108     -0.5881503847      0.0393049623
H      -1.7557048446      1.9387150864      1.7637262838
H      -3.3093935340      0.9469176400      1.5037304430
H       2.1657236095      1.4728056122      0.0918689233
H       0.7918708647      2.4258052328      0.8356812323
H       1.2816049102      2.4201927933     -1.0188695297
12
Frame=387  time=194.000fs  energy=-306.16314430Ha  molecule=COOCCCHHHHHH
C       0.4396841617      0.6673221465      0.1283885974
O       0.5779862176     -0.4429290722     -0.4966816782
O       1.6476042878     -0.8520191331     -1.4112148605
C      -1.4524020889      0.1665423845      0.7591951936
C      -2.1977018517      0.9973653070      1.4998027094
C       1.2232768098      1.8997085690     -0.1114451754
H      -1.6253503170     -0.5829101402      0.0136613554
H      -1.7477214616      1.9629537767      1.7652628735
H      -3.3060638956      0.9427376412      1.4890002935
H       2.1622810752      1.4676026928      0.0814001859
H       0.7975175582      2.4372775981      0.8253489459
H       1.3019653611      2.4251775264     -1.0116823369
12
Frame=388  time=194.500fs  energy=-306.16292974Ha  molecule=COOCCCHHHHHH
C       0.4418567185      0.6673871789      0.1250111712
O       0.5700046181     -0.4421895507     -0.4970324642
O       1.6426814370     -0.8589974989     -1.4127789003
C      -1.4537018628      0.1630466642      0.7645451666
C      -2.1916237228      1.0036657215      1.5020030587
C       1.2301647508      1.9022236352     -0.1084248527
H      -1.6225829846     -0.5789531958     -0.0109645459
H      -1.7407860549      1.9867436563      1.7682445044
H      -3.3002193801      0.9382554186      1.4751423579
H       2.1592006565      1.4622619971      0.0721458552
H       0.8059984305      2.4472530210      0.8111129799
H       1.3209405054      2.4321399201     -1.0080130215
12
Frame=389  time=195.000fs  energy=-306.16274137Ha  molecule=COOCCCHHHHHH
C       0.4442556468      0.6673497722      0.1211065847
O       0.5621241208     -0.4414947043     -0.4974690876
O       1.6374865020     -0.8657788873     -1.4140273490
C      -1.4549509676      0.1596956977      0.7698596699
C      -2.1855227699      1.0100162750      1.5038949717
C       1.2368362012      1.9046799554     -0.1047269447
H      -1.6212740714     -0.5759704488     -0.0339997786
H      -1.7353070709      2.0089463548      1.7723615390
H      -3.2918282996      0.9337111994      1.4623635198
H       2.1568879799      1.4565450031      0.0644805421
H       0.8173105360      2.4556639122      0.7933887424
H       1.3384054253      2.4408473564     -1.0075909008
12
Frame=390  time=195.500fs  energy=-306.16256322Ha  molecule=COOCCCHHHHHH
C       0.4468948412      0.6672680280      0.1167060345
O       0.5543732414     -0.4408525210     -0.4980101655
O       1.6320061405     -0.8723587859     -1.4149538948
C      -1.4561212113      0.1564613157      0.7750788076
C      -2.1793893043      1.0164730403      1.5054907742
C       1.2432743360      1.9070891704     -0.1004861030
H      -1.6216718967     -0.5736442657     -0.0548582991
H      -1.7316316404      2.0285463551      1.7773260823
H      -3.2810447261      0.9293208524      1.4508490596
H       2.1556521374      1.4502667919      0.0587237159
H       0.8313907606      2.4625458782      0.7727170098
H       1.3542063384      2.4508227391     -1.0097646549
12
Frame=391  time=196.000fs  energy=-306.16236870Ha  molecule=COOCCCHHHHHH
C       0.4497869424      0.6672059819      0.1118459226
O       0.5467780588     -0.4402760124     -0.4986759226
O       1.6262284878     -0.8787327355     -1.4155533334
C      -1.4571927903      0.1533150383      0.7801436142
C      -2.1732012813      1.0230785330      1.5068031630
C       1.2494838054      1.9094585519     -0.0958655032
H      -1.6239708086     -0.5716488553     -0.0729658264
H      -1.7300254939      2.0447219169      1.7828827828
H      -3.2681938557      0.9252726390      1.4407462701
H       2.1556782661      1.4433439362      0.0550994708
H       0.8480572791      2.4680579170      0.7498390799
H       1.3681948608      2.4614169660     -1.0136654420
12
Frame=392  time=196.500fs  energy=-306.16211615Ha  molecule=COOCCCHHHHHH
C       0.4529395897      0.6672317624      0.1065679140
O       0.5393602214     -0.4397831629     -0.4994871973
O       1.6201436021     -0.8848973370     -1.4158221997
C      -1.4581541584      0.1502303857      0.7849996709
C      -2.1669287001      1.0298566968      1.5078446869
C       1.2554987510      1.9117783089     -0.0910508133
H      -1.6282790067     -0.5696560724     -0.0877898653
H      -1.7306552037      2.0569034568      1.7888230815
H      -3.2537356340      0.9217199727      1.4321517374
H       2.1570074727      1.4358256859      0.0537127015
H       0.8669321351      2.4725332529      0.7258170444
H       1.3802637745      2.4719021415     -1.0183900728
12
Frame=393  time=197.000fs  energy=-306.16175884Ha  molecule=COOCCCHHHHHH
C       0.4563536398      0.6674126548      0.1009164484
O       0.5321359428     -0.4393948079     -0.5004636849
O       1.6137438226     -0.8908513795     -1.4157593310
C      -1.4590008041      0.1471857670      0.7896008831
C      -2.1605388024      1.0368100269      1.5086264807
C       1.2613890624      1.9140103257     -0.0862499970
H      -1.6346135840     -0.5673483906     -0.0988665087
H      -1.7335787809      2.0648063704      1.7950006327
H      -3.2382155616      0.9187725056      1.4251043197
H       2.1595246753      1.4278975139      0.0545522255
H       0.8873763120      2.4765647981      0.7021556533
H       1.3903648605      2.4815487652     -1.0231291552
12
Frame=394  time=197.500fs  energy=-306.16130563Ha  molecule=COOCCCHHHHHH
C       0.4600241717      0.6678096856      0.0949349603
O       0.5251165423     -0.4391311955     -0.5016223490
O       1.6070237257     -0.8965966315     -1.4153660235
C      -1.4597342502      0.1441669904      0.7939126164
C      -2.1540004662      1.0439192082      1.5091569424
C       1.2672606107      1.9160812598     -0.0816944828
H      -1.6429214609     -0.5644387371     -0.1058213502
H      -1.7387433900      2.0684348204      1.8013416859
H      -3.2222151741      0.9164906035      1.4195849311
H       2.1629715821      1.4198587464      0.0575174721
H       0.9084714955      2.4810803709      0.6808418453
H       1.3985010913      2.4896736017     -1.0272079365
12
Frame=395  time=198.000fs  energy=-306.16090635Ha  molecule=COOCCCHHHHHH
C       0.4639423859      0.6684750701      0.0886637886
O       0.5183099563     -0.4390096562     -0.5029770922
O       1.5999797722     -0.9021377248     -1.4146456423
C      -1.4603622891      0.1411689687      0.7979140458
C      -2.1472875095      1.0511444587      1.5094407878
C       1.2732403955      1.9178921632     -0.0776191095
H      -1.6531082769     -0.5606936033     -0.1083860025
H      -1.7459868980      2.0680612002      1.8078461839
H      -3.2063093897      0.9148869823      1.4155232459
H       2.1669973251      1.4120927643      0.0624571268
H       0.9291569747      2.4872127914      0.6640625534
H       1.4047050153      2.4956820027     -1.0300762531
12
Frame=396  time=198.500fs  energy=-306.16080146Ha  molecule=COOCCCHHHHHH
C       0.4680971904      0.6694521911      0.0821393279
O       0.5117219619     -0.4390456619     -0.5045398834
O       1.5926101579     -0.9074805918     -1.4136027848
C      -1.4608996735      0.1381971851      0.8015997550
C      -2.1403810940      1.0584275687      1.5094783040
C       1.2794437584      1.9193495694     -0.0742132908
H      -1.6650604745     -0.5559537947     -0.1064108038
H      -1.7550462341      2.0641869299      1.8145803341
H      -3.1910288472      0.9139349970      1.4128097367
H       2.1712446424      1.4050314446      0.0692007858
H       0.9485355310      2.4959264738      0.6536110818
H       1.4090310977      2.4991085840     -1.0313158380
12
Frame=397  time=199.000fs  energy=-306.16115876Ha  molecule=COOCCCHHHHHH
C       0.4724752261      0.6707760712      0.0753933788
O       0.5053567750     -0.4392554761     -0.5063222407
O       1.5849150527     -0.9126301526     -1.4122424071
C      -1.4613678848      0.1352691400      0.8049804659
C      -2.1332721401      1.0656935537      1.5092644806
C       1.2859477888      1.9203904683     -0.0715867241
H      -1.6786535739     -0.5501505214     -0.0998764897
H      -1.7655688624      2.0575066029      1.8216708480
H      -3.1768253462      0.9135784213      1.4113107090
H       2.1754479292      1.3991132178      0.0775771178
H       0.9660816918      2.5077492794      0.6505224688
H       1.4115639366      2.4996346542     -1.0306809940
12
Frame=398  time=199.500fs  energy=-306.16197959Ha  molecule=COOCCCHHHHHH
C       0.4770581012      0.6724727325      0.0684533124
O       0.4992170391     -0.4396574132     -0.5083358877
O       1.5768969288     -0.9175888036     -1.4105694091
C      -1.4617937298      0.1324147169      0.8080825887
C      -2.1259646739      1.0728512121      1.5087880241
C       1.2927837459      1.9209901284     -0.0697645218
H      -1.6937412729     -0.5433144751     -0.0889058125
H      -1.7771141412      2.0488998395      1.8293092556
H      -3.1640449370      0.9137393143      1.4108846236
H       2.1795090503      1.3947510474      0.0874232824
H       0.9816646131      2.5227134841      0.6550519245
H       1.4124244989      2.4970880384     -1.0281345167
12
Frame=399  time=200.000fs  energy=-306.16309681Ha  molecule=COOCCCHHHHHH
C       0.4818192699      0.6745561376      0.0613418719
O       0.4933029476     -0.4402712892     -0.5105923032
O       1.5685606032     -0.9223564695     -1.4085888188
C      -1.4622069331      0.1296745464      0.8109460531
C      -2.1184788851      1.0797940076      1.5080309113
C       1.2999385228      1.9211651579     -0.0686895559
H      -1.7101291348     -0.5355734288     -0.0737678654
H      -1.7891496415      2.0394365176      1.8377608288
H      -3.1529148904      0.9143261038      1.4113976428
H       2.1835371552      1.3923022007      0.0985876563
H       0.9955061726      2.5403685337      0.6667268152
H       1.4117699495      2.4914459012     -1.0238653024
12
Frame=400  time=200.500fs  energy=-306.16423118Ha  molecule=COOCCCHHHHHH
C       0.4867238035      0.6770241154      0.0540764507
O       0.4876110605     -0.4411161858     -0.5131013175
O       1.5599128525     -0.9269321937     -1.4063064858
C      -1.4626371048      0.1270964260      0.8136202112
C      -2.1108515447      1.0864045431      1.5069697638
C       1.3073593291      1.9209782386     -0.0682212717
H      -1.7275499224     -0.5271385840     -0.0548678003
H      -1.8010695511      2.0303474257      1.8473640548
H      -3.1435454099      0.9152448613      1.4127351856
H       2.1878417537      1.3920264464      0.1109356841
H       1.0081369540      2.5597764041      0.6843340308
H       1.4097806982      2.4828568437     -1.0182872326
12
Frame=401  time=201.000fs  energy=-306.16513534Ha  molecule=COOCCCHHHHHH
C       0.4917320221      0.6798569908      0.0466698867
O       0.4821342590     -0.4422061612     -0.5158691356
O       1.5509618827     -0.9313169062     -1.4037302544
C      -1.4631107632      0.1247309705      0.8161590097
C      -2.1031326571      1.0925650069      1.5055800152
C       1.3149684071      1.9205312782     -0.0681495847
H      -1.7456639151     -0.5182879435     -0.0327246258
H      -1.8122529105      2.0229211205      1.8585069311
H      -3.1359421116      0.9164125104      1.4148062508
H       2.1928615739      1.3940504085      0.1243721319
H       1.0202863151      2.5795868983      0.7060060202
H       1.4066276480      2.4716756975     -1.0119990464
12
Frame=402  time=201.500fs  energy=-306.16574090Ha  molecule=COOCCCHHHHHH
C       0.4968049613      0.6830193056      0.0391324227
O       0.4768632129     -0.4435449343     -0.5188962617
O       1.5417172561     -0.9355162684     -1.4008714423
C      -1.4636483942      0.1226286256      0.8186176796
C      -2.0953784452      1.0981734149      1.5038425076
C       1.3226896862      1.9199308163     -0.0682451233
H      -1.7641036860     -0.5093569561     -0.0079461679
H      -1.8221487169      2.0183177023      1.8715668787
H      -3.1300239556      0.9177674624      1.4175393461
H       2.1990578479      1.3983711499      0.1388553324
H       1.0326326300      2.5984031827      0.7297010493
H       1.4024529322      2.4584551832     -1.0057129912
12
Frame=403  time=202.000fs  energy=-306.16611410Ha  molecule=COOCCCHHHHHH
C       0.5019078867      0.6864604601      0.0314720057
O       0.4717880247     -0.4451224922     -0.5221758296
O       1.5321903489     -0.9395422187     -1.3977459519
C      -1.4642609403      0.1208389825      0.8210517376
C      -2.0876424888      1.1031617906      1.5017506713
C       1.3304638476      1.9192613834     -0.0682968246
H      -1.7825662434     -0.5007366666      0.0187972696
H      -1.8303568937      2.0173381306      1.8868175005
H      -3.1256405937      0.9192724972      1.4208716734
H       2.2068410754      1.4049006004      0.1543731207
H       1.0456414591      2.6150915653      0.7536291551
H       1.3973932474      2.4438896828     -1.0002170890
12
Frame=404  time=202.500fs  energy=-306.16635743Ha  molecule=COOCCCHHHHHH
C       0.5070118479      0.6901162243      0.0236943064
O       0.4668995830     -0.4469156069     -0.5256935545
O       1.5223947483     -0.9434128531     -1.3943744253
C      -1.4649471410      0.1194105405      0.8235164465
C      -2.0799689632      1.1075090623      1.4993156445
C       1.3382472672      1.9185865198     -0.0681093556
H      -1.8009237273     -0.4928574860      0.0468203723
H      -1.8366774146      2.0202384824      1.9043365993
H      -3.1225818525      0.9209077830      1.4247356182
H       2.2165422481      1.4135139445      0.1709092493
H       1.0595940623      2.6287735430      0.7762599050
H       1.3916034564      2.4287766023     -0.9963751149
12
Frame=405  time=203.000fs  energy=-306.16658180Ha  molecule=COOCCCHHHHHH
C       0.5120955400      0.6939145104      0.0158036513
O       0.4621900853     -0.4488913509     -0.5294293363
O       1.5123463904     -0.9471508677     -1.3907814171
C      -1.4656939915      0.1183877353      0.8260628406
C      -2.0723905076      1.1112437339      1.4965675495
C       1.3460116352      1.9179534351     -0.0675007498
H      -1.8192877378     -0.4861244934      0.0755210260
H      -1.8411141095      2.0266604167      1.9239499364
H      -3.1205771090      0.9226589221      1.4290493286
H       2.2283975211      1.4240814530      0.1884138213
H       1.0746262652      2.6387817661      0.7962711667
H       1.3852524752      2.4139557199     -0.9950731685
12
Frame=406  time=203.500fs  energy=-306.16688547Ha  molecule=COOCCCHHHHHH
C       0.5171467072      0.6977823688      0.0078036728
O       0.4576519653     -0.4510108959     -0.5333589788
O       1.5020635089     -0.9507811483     -1.3869938689
C      -1.4664810020      0.1178042575      0.8287294867
C      -2.0649307524      1.1144366105      1.4935533215
C       1.3537472749      1.9173961852     -0.0663177793
H      -1.8379705386     -0.4808183861      0.1045011110
H      -1.8438344069      2.0357006501      1.9452289358
H      -3.1192940320      0.9245090640      1.4337192686
H       2.2425268123      1.4364933742      0.2067713753
H       1.0907312854      2.6446750048      0.8125801326
H       1.3785039878      2.4001757991     -0.9970372530
12
Frame=407  time=204.000fs  energy=-306.16731568Ha  molecule=COOCCCHHHHHH
C       0.5221617487      0.7016502784     -0.0003023013
O       0.4532759525     -0.4532320043     -0.5374552013
O       1.4915664422     -0.9543282640     -1.3830393187
C      -1.4672857955      0.1176776225      0.8315367985
C      -2.0576096468      1.1171866051      1.4903322680
C       1.3614652425      1.9169409650     -0.0644576645
H      -1.8573687362     -0.4770531757      0.1336023669
H      -1.8450966632      2.0461086921      1.9675511499
H      -3.1183525997      0.9264403798      1.4386566451
H       2.2589096734      1.4506713674      0.2257696788
H       1.1077607787      2.6462490903      0.8243768763
H       1.3715082785      2.3879501144     -1.0025860223
12
Frame=408  time=204.500fs  energy=-306.16784664Ha  molecule=COOCCCHHHHHH
C       0.5271441646      0.7054539225     -0.0085104163
O       0.4490498931     -0.4555107699     -0.5416884248
O       1.4808773396     -0.9578144042     -1.3789442516
C      -1.4680871596      0.1180104803      0.8344900847
C      -2.0504483566      1.1196047060      1.4869707306
C       1.3691960240      1.9166102333     -0.0618824475
H      -1.8778605867     -0.4748503449      0.1628041052
H      -1.8451706813      2.0565411446      1.9902033237
H      -3.1173613966      0.9284422453      1.4437986435
H       2.2773702954      1.4665533623      0.2450731497
H       1.1254283100      2.6435325498      0.8311390666
H       1.3644200290      2.3774876410     -1.0114659889
12
Frame=409  time=205.000fs  energy=-306.16839373Ha  molecule=COOCCCHHHHHH
C       0.5321030588      0.7091356927     -0.0168152903
O       0.4449591862     -0.4578032647     -0.5460277245
O       1.4700197078     -0.9612581138     -1.3747329173
C      -1.4688648776      0.1187963766      0.8375872503
C      -2.0434713872      1.1218023693      1.4835380863
C       1.3769858422      1.9164211921     -0.0586205172
H      -1.8997637165     -0.4742638821      0.1920749348
H      -1.8442818228      2.0657566295      2.0124727316
H      -3.1159631689      0.9305211351      1.4491224698
H       2.2975779635      1.4840581890      0.2642099300
H       1.1433109943      2.6367886813      0.8326564832
H       1.3574290183      2.3687224988     -1.0228617140
12
Frame=410  time=205.500fs  energy=-306.16885687Ha  molecule=COOCCCHHHHHH
C       0.5370518722      0.7126464561     -0.0252095725
O       0.4409883967     -0.4600665254     -0.5504414797
O       1.4590177564     -0.9646740675     -1.3704268981
C      -1.4695993732      0.1200233673      0.8408229654
C      -2.0367061010      1.1238860072      1.4801048489
C       1.3848920434      1.9163787142     -0.0547559387
H      -1.9233217246     -0.4754498624      0.2212981637
H      -1.8425892980      2.0727039502      2.0336955181
H      -3.1138681620      0.9327097131      1.4546478590
H       2.3190667667      1.5030465798      0.2825930944
H       1.1608587306      2.6265201139      0.8290678130
H       1.3507742972      2.3614186052     -1.0355860818
12
Frame=411  time=206.000fs  energy=-306.16916306Ha  molecule=COOCCCHHHHHH
C       0.5420068247      0.7159463722     -0.0336843153
O       0.4371228064     -0.4622581140     -0.5548970929
O       1.4478958187     -0.9680739349     -1.3660456323
C      -1.4702739225      0.1216729989      0.8441871714
C      -2.0301807218      1.1259540601      1.4767410084
C       1.3929784548      1.9164678077     -0.0504116226
H      -1.9486763805     -0.4786469949      0.2502940650
H      -1.8401879857      2.0765450209      2.0532779376
H      -3.1108675441      0.9350740205      1.4604316696
H       2.3412768933      1.5232940874      0.2995859246
H       1.1774210913      2.6134524365      0.8208775458
H       1.3447244635      2.3552974404     -1.0483552683
12
Frame=412  time=206.500fs  energy=-306.16928476Ha  molecule=COOCCCHHHHHH
C       0.5469848194      0.7190042907     -0.0422297118
O       0.4333486118     -0.4643349096     -0.5593599548
O       1.4366783909     -0.9714681356     -1.3616078988
C      -1.4708784096      0.1237177862      0.8476621497
C      -2.0239216037      1.1280932130      1.4735127465
C       1.4013111254      1.9166512476     -0.0457349068
H      -1.9758310240     -0.4841137641      0.2788797747
H      -1.8371184741      2.0766653265      2.0707167722
H      -3.1068355434      0.9377171293      1.4665592231
H       2.3636141752      1.5444891120      0.3145871160
H       1.1922862329      2.5984905152      0.8089276223
H       1.3395389718      2.3501259343     -1.0599990541
12
Frame=413  time=207.000fs  energy=-306.16924047Ha  molecule=COOCCCHHHHHH
C       0.5520015875      0.7217970569     -0.0508355233
O       0.4296511914     -0.4662527667     -0.5637924666
O       1.4253910785     -0.9748681067     -1.3571339703
C      -1.4714102990      0.1261213127      0.8512223616
C      -2.0179507318      1.1303733559      1.4704777251
C       1.4099546923      1.9168723762     -0.0408888262
H      -2.0046551335     -0.4920852463      0.3069064390
H      -1.8333762456      2.0726924434      2.0856282788
H      -3.1017292239      0.9407756966      1.4731328054
H       2.3855190721      1.5662597373      0.3271012648
H       1.2047155716      2.5826683117      0.7943412370
H       1.3354376917      2.3457459011     -1.0695519494
12
Frame=414  time=207.500fs  energy=-306.16908476Ha  molecule=COOCCCHHHHHH
C       0.5570714750      0.7243103947     -0.0594908253
O       0.4260119655     -0.4679676494     -0.5681535949
O       1.4140620011     -0.9782885627     -1.3526477404
C      -1.4718706492      0.1288400040      0.8548355483
C      -2.0122845427      1.1328434708      1.4676809162
C       1.4189698031      1.9170579966     -0.0360476067
H      -2.0349439312     -0.5027588487      0.3342737375
H      -1.8289191100      2.0645189287      2.0977809720
H      -3.0955885555      0.9444065845      1.4802561223
H       2.4065249217      1.5882210482      0.3367848098
H       1.2139664409      2.5671141171      0.7784850403
H       1.3325863530      2.3420744554     -1.0762865418
12
Frame=415  time=208.000fs  energy=-306.16888518Ha  molecule=COOCCCHHHHHH
C       0.5622087672      0.7265409094     -0.0681834397
O       0.4224052461     -0.4694371921     -0.5723989229
O       1.4027227347     -0.9817490861     -1.3481779199
C      -1.4722621529      0.1318176845      0.8584581153
C      -2.0069340874      1.1355310604      1.4651528070
C       1.4284115203      1.9171198704     -0.0313934376
H      -2.0664245410     -0.5162285863      0.3609831355
H      -1.8236751466      2.0523225669      2.1071262329
H      -3.0885441157      0.9487705122      1.4880210173
H       2.4262806840      1.6100291577      0.3434703933
H       1.2193128483      2.5530136062      0.7629452232
H       1.3310917095      2.3390972985     -1.0797335397
12
Frame=416  time=208.500fs  energy=-306.16870449Ha  molecule=COOCCCHHHHHH
C       0.5674289335      0.7284957482     -0.0769006928
O       0.4187972955     -0.4706209948     -0.5764813247
O       1.3914083599     -0.9852744524     -1.3437578277
C      -1.4726011598      0.1349665045      0.8620234157
C      -2.0019048632      1.1384456220      1.4629097573
C       1.4383262158      1.9169642628     -0.0271040876
H      -2.0985839960     -0.5322993739      0.3872554477
H      -1.8175509017      2.0365709768      2.1138181665
H      -3.0808444218      0.9540321491      1.4965123689
H       2.4445465989      1.6314165778      0.3471594678
H       1.2200870336      2.5414882438      0.7493805527
H       1.3310054758      2.3368505615     -1.0796655420
12
Frame=417  time=209.000fs  energy=-306.16862020Ha  molecule=COOCCCHHHHHH
C       0.5727488665      0.7301866036     -0.0856326454
O       0.4151502156     -0.4714785359     -0.5803526165
O       1.3801570655     -0.9888935186     -1.3394241011
C      -1.4729340055      0.1381557604      0.8654409266
C      -1.9971958032      1.1415829418      1.4609546659
C       1.4487448531      1.9165149285     -0.0233262856
H      -2.1305345877     -0.5503744122      0.4135624976
H      -1.8104327140      2.0179816816      2.1182019365
H      -3.0728728346      0.9603728352      1.5058273931
H       2.4612014885      1.6521812594      0.3479736735
H       1.2157426645      2.5333811786      0.7391902655
H       1.3323417024      2.3353892934     -1.0760267105
12
Frame=418  time=209.500fs  energy=-306.16873755Ha  molecule=COOCCCHHHHHH
C       0.5781838812      0.7316204906     -0.0943749813
O       0.4114290917     -0.4719662240     -0.5839656203
O       1.3690094951     -0.9926372191     -1.3352149362
C      -1.4733245527      0.1412409187      0.8686210335
C      -1.9928012817      1.1449254735      1.4592772207
C       1.4596760772      1.9157325550     -0.0201530648
H      -2.1613044989     -0.5696920729      0.4404251229
H      -1.8021724569      1.9974425080      2.1207660173
H      -3.0650801330      0.9679617982      1.5160638534
H       2.4762651218      1.6721462439      0.3460899656
H       1.2059063539      2.5291174061      0.7332340995
H       1.3351023718      2.3347621424     -1.0688554300
12
Frame=419  time=210.000fs  energy=-306.16910612Ha  molecule=COOCCCHHHHHH
C       0.5837412895      0.7327949953     -0.1031281839
O       0.4076056653     -0.4720377450     -0.5872759185
O       1.3580072917     -0.9965363951     -1.3311681071
C      -1.4738262059      0.1441025089      0.8714978442
C      -1.9887167639      1.1484387930      1.4578538094
C       1.4711010344      1.9146198076     -0.0176142699
H      -2.1902034966     -0.5896022118      0.4682172171
H      -1.7925704152      1.9759575845      2.1221040754
H      -3.0578682315      0.9768893524      1.5272740842
H       2.4899037873      1.6911351796      0.3416969413
H       1.1904243053      2.5286756751      0.7317299302
H       1.3392943888      2.3350074015     -1.0582555491
12
Frame=420  time=210.500fs  energy=-306.16964294Ha  molecule=COOCCCHHHHHH
C       0.5894176252      0.7337009405     -0.1118951402
O       0.4036571030     -0.4716481336     -0.5902435383
O       1.3471909647     -1.0006198979     -1.3273190054
C      -1.4744771686      0.1466528752      0.8740294660
C      -1.9849425637      1.1520701055      1.4566479205
C       1.4829672647      1.9132199938     -0.0156725391
H      -2.2167957520     -0.6095540627      0.4971648576
H      -1.7813753381      1.9546246146      2.1229036845
H      -3.0515305174      0.9871395250      1.5394417488
H       2.5024159850      1.7089741136      0.3349825515
H       1.1694358597      2.5315724089      0.7342330380
H       1.3449310769      2.3361612725     -1.0444168505
12
Frame=421  time=211.000fs  energy=-306.17016408Ha  molecule=COOCCCHHHHHH
C       0.5952023085      0.7343290017     -0.1206799106
O       0.3995639511     -0.4707582887     -0.5928345609
O       1.3365977688     -1.0049134146     -1.3236991436
C      -1.4753099936      0.1488263540      0.8761912047
C      -1.9814843432      1.1557526187      1.4556131011
C       1.4951823245      1.9116135480     -0.0142235781
H      -2.2407236776     -0.6289988092      0.5273998394
H      -1.7683029649      1.9345852503      2.1239196766
H      -3.0462444715      0.9986103914      1.5524907402
H       2.5142054837      1.7255081981      0.3261494697
H       1.1434675673      2.5368478720      0.7396683904
H       1.3520182461      2.3382679050     -1.0276623024
12
Frame=422  time=211.500fs  energy=-306.17049908Ha  molecule=COOCCCHHHHHH
C       0.6010838833      0.7346771646     -0.1294870394
O       0.3953098325     -0.4693383512     -0.5950226965
O       1.3262597835     -1.0094392792     -1.3203352582
C      -1.4763564493      0.1505728998      0.8779723892
C      -1.9783523476      1.1594154564      1.4546999568
C       1.5076163060      1.9099047490     -0.0131110486
H      -2.2616436208     -0.6473704931      0.5589794527
H      -1.7530686882      1.9169201453      2.1258988618
H      -3.0420723358      1.0111455092      1.5663025474
H       2.5257275428      1.7406262908      0.3154547589
H       1.1134714625      2.5431590501      0.7465149273
H       1.3605185348      2.3413941581     -1.0084994727
12
Frame=423  time=212.000fs  energy=-306.17059469Ha  molecule=COOCCCHHHHHH
C       0.6070553270      0.7347562040     -0.1383206083
O       0.3908828040     -0.4673699156     -0.5967909189
O       1.3162021383     -1.0142167523     -1.3172486918
C      -1.4776465959      0.1518563649      0.8793755506
C      -1.9755597018      1.1629974679      1.4538669413
C       1.5201219024      1.9081936832     -0.0121625949
H      -2.2792586403     -0.6641281269      0.5918870643
H      -1.7354273921      1.9025080503      2.1294607281
H      -3.0389638785      1.0245587973      1.5807311598
H       2.5374180761      1.7542735035      0.3032511459
H       1.0806937090      2.5490705220      0.7532076052
H       1.3703019325      2.3456486460     -0.9876446789
12
Frame=424  time=212.500fs  energy=-306.17049305Ha  molecule=COOCCCHHHHHH
C       0.6131172479      0.7345906498     -0.1471843386
O       0.3862768459     -0.4648471476     -0.5981326027
O       1.3064417166     -1.0192617897     -1.3144547520
C      -1.4792073336      0.1526530715      0.8804151062
C      -1.9731191393      1.1664611547      1.4530919742
C       1.5325572559      1.9065542250     -0.0112197435
H      -2.2933546952     -0.6788065973      0.6260326142
H      -1.7152116765      1.8918999790      2.1349726342
H      -3.0367713098      1.0386529960      1.5956153734
H       2.5496451982      1.7664384714      0.2899957571
H       1.0464720665      2.5533330404      0.7584737857
H       1.3811163655      2.3511901418     -0.9660134586
12
Frame=425  time=213.000fs  energy=-306.17026429Ha  molecule=COOCCCHHHHHH
C       0.6192781571      0.7342172267     -0.1560825817
O       0.3814922336     -0.4617773232     -0.5990516944
O       1.2969867872     -1.0245861820     -1.3119622416
C      -1.4810623274      0.1529489551      0.8811148560
C      -1.9710385310      1.1698020344      1.4523810492
C       1.5447942195      1.9050330886     -0.0101398516
H      -2.3037997490     -0.6910471227      0.6612563273
H      -1.6923666011      1.8852511553      2.1424610825
H      -3.0352743733      1.0532354310      1.6107896564
H       2.5626871312      1.7771399049      0.2762191699
H       1.0121503670      2.5549342550      0.7613715940
H       1.3925983482      2.3582203264     -0.9446963072
12
Frame=426  time=213.500fs  energy=-306.16999909Ha  molecule=COOCCCHHHHHH
C       0.6255515261      0.7336836830     -0.1650190905
O       0.3765347931     -0.4581808998     -0.5995620120
O       1.2878376006     -1.0301967877     -1.3097735131
C      -1.4832325438      0.1527364688      0.8815051789
C      -1.9693161410      1.1730510383      1.4517715770
C       1.5567225413      1.9036541744     -0.0087937428
H      -2.3105207798     -0.7006039513      0.6973345744
H      -1.6669841644      1.8823200063      2.1515793038
H      -3.0342059137      1.0681311384      1.6260936539
H       2.5767260680      1.7864188482      0.2624509404
H       0.9790049711      2.5530777421      0.7612419750
H       1.4043271264      2.3669664912     -0.9248786983
12
Frame=427  time=214.000fs  energy=-306.16979842Ha  molecule=COOCCCHHHHHH
C       0.6319516355      0.7330467834     -0.1739931097
O       0.3714147939     -0.4540901351     -0.5996857964
O       1.2789876475     -1.0360954394     -1.3078851678
C      -1.4857369148      0.1520126748      0.8816208900
C      -1.9679364590      1.1762699609      1.4513294153
C       1.5682568797      1.9024212585     -0.0070769736
H      -2.3134829671     -0.7073351621      0.7339889881
H      -1.6393331894      1.8825270829      2.1616409104
H      -3.0332751283      1.0831896326      1.6413801398
H       2.5918501906      1.7943279394      0.2491274822
H       0.9481079618      2.5472006018      0.7577059543
H       1.4159135160      2.3776452420     -0.9076602587
12
Frame=428  time=214.500fs  energy=-306.16973760Ha  molecule=COOCCCHHHHHH
C       0.6384911261      0.7323684137     -0.1829965181
O       0.3661462783     -0.4495462109     -0.5994519413
O       1.2704251015     -1.0422795667     -1.3062892091
C      -1.4885930789      0.1507788834      0.8815001533
C      -1.9668678981      1.1795410675      1.4511392813
C       1.5793373323      1.9013251116     -0.0049238765
H      -2.3126828605     -0.7111883557      0.7708993334
H      -1.6098631678      1.8850685256      2.1717239485
H      -3.0321927858      1.0982826150      1.6565215422
H       2.6080480731      1.8009278683      0.2365558840
H       0.9202734385      2.5369632379      0.7506312179
H       1.4270734501      2.3904047274     -0.8938578941
12
Frame=429  time=215.000fs  energy=-306.16985101Ha  molecule=COOCCCHHHHHH
C       0.6451811759      0.7317120580     -0.1920139897
O       0.3607469111     -0.4445964741     -0.5988945730
O       1.2621340256     -1.0487431580     -1.3049742554
C      -1.4918176660      0.1490415851      0.8811842646
C      -1.9660634176      1.1829536000      1.4512908319
C       1.5899226232      1.9003532172     -0.0023146334
H      -2.3081572708     -0.7121922686      0.8077174871
H      -1.5791644017      1.8890631314      2.1808205938
H      -3.0306997629      1.1132952633      1.6714150259
H       2.6252008213      1.8062889167      0.2249449464
H       0.8961150727      2.5222106939      0.7400663490
H       1.4376489923      2.4052623665     -0.8838884523
12
Frame=430  time=215.500fs  energy=-306.17012950Ha  molecule=COOCCCHHHHHH
C       0.6520331322      0.7311413819     -0.2010247784
O       0.3552377649     -0.4392929393     -0.5980521184
O       1.2540952610     -1.0554777147     -1.3039265531
C      -1.4954252251      0.1468148045      0.8807178710
C      -1.9654631878      1.1865914768      1.4518656431
C       1.5999840345      1.8994967935      0.0007224972
H      -2.3000070386     -0.7104623325      0.8440801124
H      -1.5479021175      1.8936812763      2.1879732134
H      -3.0285933998      1.1281187245      1.6859862096
H       2.6430886776      1.8104851965      0.2144491954
H       0.8760987209      2.5029579469      0.7262040353
H       1.4475944798      2.4220525641     -0.8777267598
12
Frame=431  time=216.000fs  energy=-306.17051292Ha  molecule=COOCCCHHHHHH
C       0.6590602109      0.7307199628     -0.2100049832
O       0.3496425871     -0.4336919335     -0.5969665459
O       1.2462871686     -1.0624730885     -1.3031307945
C      -1.4994253443      0.1441242822      0.8801491202
C      -1.9649974641      1.1905245765      1.4529287037
C       1.6095037912      1.8987531527      0.0041121040
H      -2.2884339413     -0.7062220736      0.8796224044
H      -1.5167584155      1.8982177665      2.1923563593
H      -3.0257460387      1.1426502906      1.7001920157
H       2.6614161959      1.8135827865      0.2051971949
H       0.8605384431      2.4794128144      0.7093904233
H       1.4569515357      2.4404008208     -0.8749253743
12
Frame=432  time=216.500fs  energy=-306.17089149Ha  molecule=COOCCCHHHHHH
C       0.6662786249      0.7305101867     -0.2189304670
O       0.3439865487     -0.4278544118     -0.5956825533
O       1.2386863382     -1.0697181775     -1.3025707978
C      -1.5038185410      0.1410128064      0.8795290891
C      -1.9645892814      1.1948028444      1.4545239524
C       1.6184769280      1.8981231397      0.0077377060
H      -2.2737826487     -0.6998338434      0.9139977423
H      -1.4863931909      1.9021185133      2.1933149419
H      -3.0221161359      1.1568018547      1.7140231306
H       2.6798464619      1.8156310411      0.1973087867
H       0.8495628831      2.4520236829      0.6901633289
H       1.4658184955      2.4597467367     -0.8747101312
12
Frame=433  time=217.000fs  energy=-306.17112974Ha  molecule=COOCCCHHHHHH
C       0.6737080199      0.7305706066     -0.2277804395
O       0.3382948335     -0.4218464954     -0.5942466848
O       1.2312681437     -1.0772014166     -1.3022299793
C      -1.5085924811      0.1375443081      0.8789100025
C      -1.9641579900      1.1994524185      1.4566723979
C       1.6269143903      1.8976054929      0.0114539847
H      -2.2565697867     -0.6918238885      0.9469038537
H      -1.4574142528      1.9049875241      2.1903826460
H      -3.0177539771      1.1705128790      1.7275058566
H       2.6980294343      1.8166630212      0.1909064766
H       0.8430918113      2.4215211004      0.6692876527
H       1.4743189271      2.4794194393     -0.8761393447
12
Frame=434  time=217.500fs  energy=-306.17110829Ha  molecule=COOCCCHHHHHH
C       0.6813711597      0.7309531321     -0.2365407125
O       0.3325915089     -0.4157392023     -0.5927061874
O       1.2240069541     -1.0849109449     -1.3020914806
C      -1.5137197783      0.1338044852      0.8783423526
C      -1.9636247031      1.2044742053      1.4593722229
C       1.6348457777      1.8971919146      0.0151019385
H      -2.2374844837     -0.6828874038      0.9781105835
H      -1.4303453822      1.9065874258      2.1832891754
H      -3.0127976827      1.1837621633      1.7407016834
H       2.7156141724      1.8167045570      0.1861166433
H       0.8408356887      2.3889080410      0.6477543159
H       1.4825787874      2.4987311827     -0.8782633718
12
Frame=435  time=218.000fs  energy=-306.17076607Ha  molecule=COOCCCHHHHHH
C       0.6892928082      0.7317020017     -0.2452052752
O       0.3268989132     -0.4096060373     -0.5911072628
O       1.2168761571     -1.0928343966     -1.3021379887
C      -1.5191571136      0.1298983264      0.8778715211
C      -1.9629196944      1.2098450812      1.4626001805
C       1.6423212147      1.8968645854      0.0185219638
H      -2.2173643598     -0.6738737808      1.0074848997
H      -1.4055880950      1.9068357854      2.1719572147
H      -3.0074506900      1.1965719718      1.7537022557
H       2.7322467670      1.8157883750      0.1830564085
H       0.8423015761      2.3553772137      0.6267288197
H       1.4907158507      2.5170461968     -0.8802210804
12
Frame=436  time=218.500fs  energy=-306.17013024Ha  molecule=COOCCCHHHHHH
C       0.6974975514      0.7328551119     -0.2537751209
O       0.3212374155     -0.4035185267     -0.5894929074
O       1.2098485764     -1.1009586077     -1.3023516381
C      -1.5248462511      0.1259453365      0.8775347370
C      -1.9619900838      1.2155209734      1.4663132772
C       1.6494096193      1.8965959422      0.0215641861
H      -2.1971497519     -0.6657512103      1.0350089732
H      -1.3833828751      1.9057991750      2.1564946147
H      -3.0019408716      1.2090018998      1.7666202669
H       2.7475712751      1.8139700457      0.1818105316
H       0.8468128106      2.3221678898      0.6074472404
H       1.4988411345      2.5338160314     -0.8812706273
12
Frame=437  time=219.000fs  energy=-306.16931150Ha  molecule=COOCCCHHHHHH
C       0.7060065671      0.7344450983     -0.2622553492
O       0.3156252622     -0.3975414879     -0.5879010542
O       1.2028974753     -1.1092696219     -1.3027143411
C      -1.5307205891      0.1220699292      0.8773598009
C      -1.9608052239      1.2214405091      1.4704502234
C       1.6561924838      1.8963508710      0.0240976227
H      -2.1777892301     -0.6595188666      1.0607770757
H      -1.3637825236      1.9036911912      2.1371907535
H      -2.9964772982      1.2211369549      1.7795806246
H       2.7612407685      1.8113403014      0.1824119559
H       0.8535662092      2.2904174040      0.5910915777
H       1.5070676445      2.5485988217     -0.8807998282
12
Frame=438  time=219.500fs  energy=-306.16846250Ha  molecule=COOCCCHHHHHH
C       0.7148348171      0.7364961974     -0.2706540988
O       0.3100786626     -0.3917298666     -0.5863637293
O       1.1959974464     -1.1177528680     -1.3032082559
C      -1.5367175446      0.1183868886      0.8773669849
C      -1.9593582847      1.2275278790      1.4749331106
C       1.6627604284      1.8960893032      0.0260148249
H      -2.1601023850     -0.6560607055      1.0849581801
H      -1.3466447927      1.9008776307      2.1145149483
H      -2.9912220227      1.2330753838      1.7927140783
H       2.7729140337      1.8080277776      0.1848392660
H       0.8616885289      2.2611085209      0.5787303059
H       1.5155099265      2.5610681613     -0.8783354403
12
Frame=439  time=220.000fs  energy=-306.16774304Ha  molecule=COOCCCHHHHHH
C       0.7239896703      0.7390184819     -0.2789838104
O       0.3046127221     -0.3861274097     -0.5849074598
O       1.1891245238     -1.1263932598     -1.3038159495
C      -1.5427889052      0.1149899463      0.8775731157
C      -1.9576647734      1.2336948946      1.4796704166
C       1.6692099518      1.8957709716      0.0272341563
H      -2.1446864148     -0.6560262560      1.1077422204
H      -1.3316398544      1.8978785507      2.0890994163
H      -2.9862782075      1.2449173853      1.8061497591
H       2.7822449569      1.8041873007      0.1890283968
H       0.8703105454      2.2350813993      0.5712966348
H       1.5242670423      2.5710070288     -0.8735423779
12
Frame=440  time=220.500fs  energy=-306.16729535Ha  molecule=COOCCCHHHHHH
C       0.7334699464      0.7420038971     -0.2872619842
O       0.2992435732     -0.3807655894     -0.5835541689
O       1.1822556863     -1.1351752454     -1.3045203024
C      -1.5489037645      0.1119484159      0.8779951243
C      -1.9557599108      1.2398436398      1.4845619369
C       1.6756303701      1.8953639252      0.0277053823
H      -2.1319119943     -0.6597971763      1.1293006605
H      -1.3182649376      1.8953525375      2.0616952536
H      -2.9816851927      1.2567534540      1.8200032186
H       2.7889257456      1.7999690678      0.1948903743
H       0.8786979686      2.2130054705      0.5695247556
H       1.5333988108      2.5782986348     -0.8662282503
12
Frame=441  time=221.000fs  energy=-306.16721284Ha  molecule=COOCCCHHHHHH
C       0.7432650425      0.7454261230     -0.2955100534
O       0.2939909925     -0.3756620169     -0.5823216844
O       1.1753683593     -1.1440827340     -1.3053043794
C      -1.5550467916      0.1093079088      0.8786519688
C      -1.9536958724      1.2458705500      1.4895054544
C       1.6820867650      1.8948491866      0.0274151248
H      -2.1219593660     -0.6674975735      1.1497645306
H      -1.3058689950      1.8940589353      2.0331081536
H      -2.9774168832      1.2686521074      1.8343619110
H       2.7927761510      1.7954834811      0.2023324632
H       0.8863675969      2.1953315871      0.5738798437
H       1.5429060593      2.5829324768     -0.8563685319
12
Frame=442  time=221.500fs  energy=-306.16751434Ha  molecule=COOCCCHHHHHH
C       0.7533548355      0.7492443040     -0.3037508917
O       0.2888802592     -0.3708195225     -0.5812239117
O       1.1684402077     -1.1530986890     -1.3061512493
C      -1.5612152066      0.1070915343      0.8795654384
C      -1.9515377714      1.2516719573      1.4944047244
C       1.6886080443      1.8942177727      0.0263900149
H      -2.1148519250     -0.6790079956      1.1692078925
H      -1.2937036367      1.8947995432      2.0041233978
H      -2.9733870765      1.2806497146      1.8492738016
H       2.7938028965      1.7907838257      0.2112771300
H       0.8931650610      2.1822624001      0.5844998892
H       1.5527166119      2.5850233662     -0.8441365543
12
Frame=443  time=222.000fs  energy=-306.16813440Ha  molecule=COOCCCHHHHHH
C       0.7637102077      0.7534080352     -0.3120061245
O       0.2839426904     -0.3662268024     -0.5802711253
O       1.1614491607     -1.1622046462     -1.3070438009
C      -1.5674159708      0.1053009622      0.8807604372
C      -1.9493561676      1.2571514017      1.4991780883
C       1.6951817207      1.8934649290      0.0246989244
H      -2.1104830750     -0.6939843108      1.1876317834
H      -1.2810148202      1.8983396226      1.9754228905
H      -2.9694632921      1.2927473673      1.8647444001
H       2.7922179436      1.7858641839      0.2216721672
H       0.8993105830      2.1737473635      0.6011431679
H       1.5626779534      2.5848316365     -0.8299220508
12
Frame=444  time=222.500fs  energy=-306.16893909Ha  molecule=COOCCCHHHHHH
C       0.7742937357      0.7578602357     -0.3202944901
O       0.2792148176     -0.3618605780     -0.5794705529
O       1.1543736742     -1.1713807405     -1.3079648007
C      -1.5736642874      0.1039169976      0.8822650505
C      -1.9472156113      1.2622285086      1.5037661493
C       1.7017565109      1.8925859028      0.0224525684
H      -2.1086366802     -0.7118859773      1.2049494453
H      -1.2671683291      1.9053148748      1.9475033797
H      -2.9654840982      1.3049185919      1.8807432173
H       2.7884445826      1.7806600307      0.2334884869
H       0.9053643791      2.1695193578      0.6231879795
H       1.5725643318      2.5827776803     -0.8143354699
12
Frame=445  time=223.000fs  energy=-306.16976657Ha  molecule=COOCCCHHHHHH
C       0.7850605297      0.7625375194     -0.3286313776
O       0.2747363129     -0.3576888320     -0.5788270964
O       1.1471933041     -1.1806064235     -1.3088973166
C      -1.5799832541      0.1028999361      0.8841101453
C      -1.9451619035      1.2668479420      1.5081364048
C       1.7082530825      1.8915748765      0.0197985467
H      -2.1090000832     -0.7320105090      1.2209784836
H      -1.2517802831      1.9161413219      1.9206187377
H      -2.9612703198      1.3171259822      1.8972145960
H       2.7830897550      1.7750541373      0.2467029479
H       0.9121079630      2.1691577895      0.6497085120
H       1.5821076773      2.5794410427     -0.7981906140
12
Frame=446  time=223.500fs  energy=-306.17047731Ha  molecule=COOCCCHHHHHH
C       0.7959594698      0.7673702223     -0.3370286691
O       0.2705471249     -0.3536744872     -0.5783439337
O       1.1398894815     -1.1898615022     -1.3098253247
C      -1.5864025610      0.1021917492      0.8863276208
C      -1.9432122090      1.2709866357      1.5122836305
C       1.7145836656      1.8904260369      0.0169101252
H      -2.1111821958     -0.7535400365      1.2354533280
H      -1.2348218571      1.9309422131      1.8947674361
H      -2.9566230198      1.3293379865      1.9140855228
H       2.7768269393      1.7688990214      0.2612677152
H       0.9203829122      2.1721492707      0.6796071799
H       1.5910481329      2.5755297511     -0.7824468364
12
Frame=447  time=224.000fs  energy=-306.17098130Ha  molecule=COOCCCHHHHHH
C       0.8069348314      0.7722841031     -0.3454935985
O       0.2666849630     -0.3497781922     -0.5780227752
O       1.1324461937     -1.1991270787     -1.3107342192
C      -1.5929547897      0.1017218070      0.8889471934
C      -1.9413508965      1.2746576549      1.5162259704
C       1.7206763877      1.8891354269      0.0139688806
H      -2.1147510162     -0.7756076435      1.2480652908
H      -1.2166685245      1.9495021523      1.8697282716
H      -2.9513139612      1.3415371268      1.9312678246
H       2.7702141369      1.7620498892      0.2770766971
H       0.9309230255      2.1779228087      0.7117629183
H       1.5991872188      2.5718187593     -0.7681114605
12
Frame=448  time=224.500fs  energy=-306.17122925Ha  molecule=COOCCCHHHHHH
C       0.8179278506      0.7772038105     -0.3540258989
O       0.2631843321     -0.3459590282     -0.5778638535
O       1.1248502656     -1.2083861039     -1.3116110021
C      -1.5996704727      0.1014149536      0.8919933401
C      -1.9395320310      1.2779084876      1.5199971668
C       1.7264872966      1.8877054518      0.0111497626
H      -2.1192806989     -0.7973672393      1.2585140801
H      -1.1980637968      1.9712688165      1.8451344638
H      -2.9450867750      1.3537190463      1.9486590186
H       2.7635695370      1.7543868590      0.2939433601
H       0.9442699438      2.1858252626      0.7450926154
H       1.6064283034      2.5690705172     -0.7561296281
12
Frame=449  time=225.000fs  energy=-306.17121008Ha  molecule=COOCCCHHHHHH
C       0.8288778327      0.7820557295     -0.3626155134
O       0.2600771123     -0.3421741795     -0.5778661693
O       1.1170910238     -1.2176234066     -1.3124440458
C      -1.6065736939      0.1011994810      0.8954838219
C      -1.9376883826      1.2808119107      1.5236363805
C       1.7319923216      1.8861515580      0.0086144348
H      -2.1243878275     -0.8180442755      1.2665469531
H      -1.1799961088      1.9954265365      1.8205758840
H      -2.9376824578      1.3658871943      1.9661467277
H       2.7569860473      1.7458193226      0.3116013078
H       0.9608187470      2.1950820604      0.7784851176
H       1.6127887445      2.5679478706     -0.7472735500
12
Frame=450  time=225.500fs  energy=-306.17097158Ha  molecule=COOCCCHHHHHH
C       0.8397229841      0.7867686876     -0.3712439288
O       0.2573934322     -0.3383798158     -0.5780282108
O       1.1091594406     -1.2268255059     -1.3132226688
C      -1.6136793631      0.1010132451      0.8994295230
C      -1.9357441582      1.2834515485      1.5271787957
C       1.7371728883      1.8845073807      0.0065068583
H      -2.1297518557     -0.8369653524      1.2719782900
H      -1.1635346585      2.0210296571      1.7957011819
H      -2.9288845568      1.3780458215      1.9836174202
H       2.7504442927      1.7362813565      0.3297269361
H       0.9809038750      2.2048326554      0.8107260308
H       1.6183829362      2.5689269383     -0.7420333463
12
Frame=451  time=226.000fs  energy=-306.17062412Ha  molecule=COOCCCHHHHHH
C       0.8504021146      0.7912742627     -0.3798890330
O       0.2551614806     -0.3345338744     -0.5783485265
O       1.1010472942     -1.2359806307     -1.3139369628
C      -1.6209928750      0.1008069953      0.9038348167
C      -1.9336257330      1.2859084425      1.5306500441
C       1.7420091573      1.8828268465      0.0049451770
H      -2.1351237116     -0.8535730379      1.2746953878
H      -1.1496853856      2.0471354988      1.7702736882
H      -2.9185635335      1.3901926710      2.0009676708
H       2.7439271607      1.7257264617      0.3479662864
H       1.0048163599      2.2142382089      0.8405371045
H       1.6233998776      2.5722199640     -0.7405332232
12
Frame=452  time=226.500fs  energy=-306.17030150Ha  molecule=COOCCCHHHHHH
C       0.8608577801      0.7955076842     -0.3885312022
O       0.2534060448     -0.3305992911     -0.5788256068
O       1.0927468594     -1.2450788005     -1.3145779663
C      -1.6285117013      0.1005451907      0.9086981631
C      -1.9312669229      1.2882533971      1.5340647363
C       1.7464829860      1.8811824285      0.0040112474
H      -2.1403240414     -0.8674261808      1.2746569007
H      -1.1392990415      2.0728818040      1.7441663232
H      -2.9066981257      1.4023141343      2.0181147112
H       2.7374838717      1.7141227361      0.3659483743
H       1.0327170784      2.2226047060      0.8667418207
H       1.6280906957      2.5777288389     -0.7425057231
12
Frame=453  time=227.000fs  energy=-306.17010463Ha  molecule=COOCCCHHHHHH
C       0.8710391903      0.7994084278     -0.3971574500
O       0.2521468754     -0.3265460222     -0.5794575187
O       1.0842510919     -1.2541115195     -1.3151378527
C      -1.6362273690      0.1002056311      0.9140128341
C      -1.9286106364      1.2905445570      1.5374272317
C       1.7505847684      1.8796589926      0.0037447349
H      -2.1452338863     -0.8781893061      1.2718881538
H      -1.1330243177      2.0975074794      1.7173276307
H      -2.8933697766      1.4143839051      2.0350032780
H       2.7312505396      1.7014462164      0.3832819450
H       1.0645136893      2.2294708764      0.8884484834
H       1.6327595199      2.5850605945     -0.7473406082
12
Frame=454  time=227.500fs  energy=-306.17007560Ha  molecule=COOCCCHHHHHH
C       0.8809033728      0.8029209889     -0.4057611939
O       0.2513978999     -0.3223515321     -0.5802419490
O       1.0755539575     -1.2630710396     -1.3156098860
C      -1.6441266861      0.0997791083      0.9197675274
C      -1.9256104323      1.2928268565      1.5407329617
C       1.7543187507      1.8783443902      0.0041465862
H      -2.1497854747     -0.8856245934      1.2664762434
H      -1.1312828685      2.1203560896      1.6897544325
H      -2.8787442583      1.4263629230      2.0516086825
H       2.7254419100      1.6876727940      0.3995464839
H       1.0997970223      2.2346279132      0.9051350253
H       1.6377459994      2.5936139439     -0.7541987594
