12
Frame=0  time=0.500fs  energy=-306.18396976Ha  molecule=COOCCCHHHHHH
C       0.0662828925      0.4036211369      0.0034269100
O       1.3285449272      0.2528226609      0.0041917880
O       2.1565916334      1.2962208765     -0.0027506048
C      -0.7038671479     -0.8402915479     -0.0013700906
C      -2.0482895593     -0.9020357517     -0.0036817540
C      -0.5455920755      1.7722817146      0.0056613176
H      -0.1253864023     -1.7214894736     -0.0129007853
H      -2.6810186439     -0.0161821132     -0.0193639943
H      -2.5027453355     -1.8379169095     -0.0314608354
H       0.2764772820      2.5229297012      0.0000445872
H      -1.1726976876      1.8933870575      0.8858905942
H      -1.2119648338      1.8780768980     -0.8931845102
12
Frame=1  time=1.000fs  energy=-306.18214010Ha  molecule=COOCCCHHHHHH
C       0.0628898993      0.3984759086      0.0068541456
O       1.3335853925      0.2535554222      0.0083814797
O       2.1602727909      1.3007895691     -0.0055008729
C      -0.6999429733     -0.8384535677     -0.0027393141
C      -2.0509348134     -0.9033129320     -0.0073595472
C      -0.5544471888      1.7721774237      0.0112049650
H      -0.1346762498     -1.6966113633     -0.0257868318
H      -2.7009985931     -0.0362256293     -0.0386604791
H      -2.4536437721     -1.8320873012     -0.0629925252
H       0.2894006470      2.5184045996      0.0000564074
H      -1.1739306335      1.8838092991      0.8868975495
H      -1.2512120333      1.8532383250     -0.9000952904
12
Frame=2  time=1.500fs  energy=-306.17982248Ha  molecule=COOCCCHHHHHH
C       0.0597878393      0.3934866348      0.0102803130
O       1.3386471427      0.2543600252      0.0125687139
O       2.1640378307      1.3052981112     -0.0082516565
C      -0.6964795793     -0.8362917238     -0.0040951125
C      -2.0533877750     -0.9043473775     -0.0110174222
C      -0.5632908682      1.7720810546      0.0165128951
H      -0.1411958074     -1.6776535636     -0.0387584887
H      -2.7205933468     -0.0545287376     -0.0578398919
H      -2.4074403826     -1.8325751243     -0.0948181887
H       0.3002128116      2.5141042245      0.0000050869
H      -1.1765785141      1.8748457200      0.8881562370
H      -1.2892634405      1.8291679865     -0.9044606582
12
Frame=3  time=2.000fs  energy=-306.17785897Ha  molecule=COOCCCHHHHHH
C       0.0570209910      0.3887526281      0.0137002189
O       1.3437358785      0.2552589110      0.0167551934
O       2.1679109901      1.3097523912     -0.0110045251
C      -0.6936108585     -0.8336988715     -0.0054167708
C      -2.0555228550     -0.9050146806     -0.0146380746
C      -0.5721039512      1.7719591955      0.0214770954
H      -0.1442631683     -1.6665262512     -0.0519756686
H      -2.7398982397     -0.0708641661     -0.0768472495
H      -2.3654210546     -1.8417147166     -0.1272403456
H       0.3077766285      2.5092941478     -0.0002102373
H      -1.1810400692      1.8667765044      0.8900168383
H      -1.3250160967      1.8063431317     -0.9052286600
12
Frame=4  time=2.500fs  energy=-306.17683926Ha  molecule=COOCCCHHHHHH
C       0.0546334450      0.3843555503      0.0171058392
O       1.3488476219      0.2562629968      0.0209431496
O       2.1719115514      1.3141626603     -0.0137611296
C      -0.6914185466     -0.8306193729     -0.0066810436
C      -2.0572683358     -0.9053110540     -0.0182122864
C      -0.5808881299      1.7717752904      0.0260166322
H      -0.1436064088     -1.6643365221     -0.0655900488
H      -2.7592214332     -0.0852036226     -0.0956173147
H      -2.3281570838     -1.8603394072     -0.1605149790
H       0.3111892433      2.5033875519     -0.0007228790
H      -1.1875689157      1.8599201851      0.8927882349
H      -1.3573347774      1.7853625407     -0.9015684375
12
Frame=5  time=3.000fs  energy=-306.17677515Ha  molecule=COOCCCHHHHHH
C       0.0526771979      0.3803513499      0.0204875194
O       1.3539684691      0.2573720325      0.0251333830
O       2.1760499390      1.3185382375     -0.0165225769
C      -0.6899424513     -0.8270737250     -0.0078677912
C      -2.0586197648     -0.9053815737     -0.0217487954
C      -0.5896755931      1.7714967891      0.0300874488
H      -0.1392176637     -1.6712377429     -0.0796893220
H      -2.7789455674     -0.0975650446     -0.1140789856
H      -2.2954521006     -1.8874016364     -0.1946916838
H       0.3099958887      2.4961414648     -0.0016215685
H      -1.1962321735      1.8545881494      0.8967266900
H      -1.3852786990      1.7668318034     -0.8930723070
12
Frame=6  time=3.500fs  energy=-306.17716518Ha  molecule=COOCCCHHHHHH
C       0.0512090841      0.3767798575      0.0238347417
O       1.3590752397      0.2585772579      0.0293245569
O       2.1803284496      1.3228844410     -0.0192888236
C      -0.6891756474     -0.8231831473     -0.0089674214
C      -2.0596113346     -0.9054649011     -0.0252817538
C      -0.5985218658      1.7710943635      0.0336804232
H      -0.1314662798     -1.6862687708     -0.0942407333
H      -2.7994472216     -0.1080674234     -0.1321531600
H      -2.2666631648     -1.9203936104     -0.2295084109
H       0.3041620801      2.4876530255     -0.0029373976
H      -1.2069286035      1.8510423046      0.9020310025
H      -1.4081708141      1.7512598885     -0.8797346465
12
Frame=7  time=4.000fs  energy=-306.17726667Ha  molecule=COOCCCHHHHHH
C       0.0502862580      0.3736877060      0.0271375738
O       1.3641353423      0.2598644355      0.0335135740
O       2.1847396072      1.3271993653     -0.0220581803
C      -0.6890511276     -0.8191907704     -0.0099911563
C      -2.0602798102     -0.9058154066     -0.0288761345
C      -0.6074904102      1.7705284326      0.0368151374
H      -0.1214365056     -1.7071287636     -0.1090119667
H      -2.8209053992     -0.1171478168     -0.1497209252
H      -2.2410625804     -1.9559892157     -0.2643615674
H       0.2939087079      2.4782541276     -0.0046674838
H      -1.2194267966      1.8494809645      0.9088422646
H      -1.4255770897      1.7390273047     -0.8618389257
12
Frame=8  time=4.500fs  energy=-306.17656246Ha  molecule=COOCCCHHHHHH
C       0.0499589417      0.3711391772      0.0303880658
O       1.3691109262      0.2612169744      0.0376963297
O       2.1892656770      1.3314733031     -0.0248273315
C      -0.6894389814     -0.8154513316     -0.0109754254
C      -2.0606564495     -0.9066630378     -0.0326259754
C      -0.6166337176      1.7697372202      0.0395351778
H      -0.1110131148     -1.7301721806     -0.1235271927
H      -2.8430674993     -0.1256303435     -0.1665931024
H      -2.2180926963     -1.9905394595     -0.2983695702
H       0.2795883684      2.4684380183     -0.0067964783
H      -1.2334323856      1.8500380128      0.9172553716
H      -1.4373362054      1.7303914137     -0.8398994162
12
Frame=9  time=5.000fs  energy=-306.17518259Ha  molecule=COOCCCHHHHHH
C       0.0502666741      0.3692004037      0.0335811677
O       1.3739621415      0.2626182805      0.0418680776
O       2.1938835276      1.3356930617     -0.0275920277
C      -0.6901871873     -0.8123459266     -0.0119681621
C      -2.0607799312     -0.9081930155     -0.0366348599
C      -0.6259842672      1.7686398012      0.0419104788
H      -0.1021954978     -1.7513036765     -0.1371877076
H      -2.8653045143     -0.1344585509     -0.1825452121
H      -2.1974397331     -2.0206654017     -0.3305795991
H       0.2617419691      2.4588887728     -0.0093044882
H      -1.2486328673      1.8527700637      0.9272959982
H      -1.4436800323      1.7254783100     -0.8146974563
12
Frame=10  time=5.500fs  energy=-306.17366652Ha  molecule=COOCCCHHHHHH
C       0.0512379502      0.3679136443      0.0367165534
O       1.3786481156      0.2640554086      0.0460233894
O       2.1985703814      1.3398467466     -0.0303478672
C      -0.6911746926     -0.8101761995     -0.0130091077
C      -2.0607006827     -0.9105151443     -0.0409907801
C      -0.6355643602      1.7671469610      0.0440471111
H      -0.0963288818     -1.7671980005     -0.1494751299
H      -2.8868151238     -0.1444378266     -0.1973770380
H      -2.1789958127     -2.0439034692     -0.3602041939
H       0.2412609111      2.4505587193     -0.0121670644
H      -1.2646540154      1.8576109590      0.9388018488
H      -1.4453432506      1.7242751903     -0.7873229333
12
Frame=11  time=6.000fs  energy=-306.17250043Ha  molecule=COOCCCHHHHHH
C       0.0528865912      0.3672852772      0.0397995385
O       1.3831317994      0.2655234778      0.0501565605
O       2.2033069112      1.3439253271     -0.0330908612
C      -0.6923264786     -0.8091225720     -0.0141233660
C      -2.0604742424     -0.9136568350     -0.0457561660
C      -0.6453935725      1.7651750751      0.0460872515
H      -0.0939831440     -1.7757754137     -0.1600346386
H      -2.9067556100     -0.1561563100     -0.2109299308
H      -2.1628116889     -2.0589126063     -0.3867221248
H       0.2193139685      2.4446116923     -0.0153668399
H      -1.2810055909      1.8643332019      0.9513222746
H      -1.4434766668      1.7266309867     -0.7590645219
12
Frame=12  time=6.500fs  energy=-306.17198366Ha  molecule=COOCCCHHHHHH
C       0.0552105464      0.3672921022      0.0428389669
O       1.3873847783      0.2670266486      0.0542620594
O       2.2080776297      1.3479208675     -0.0358175786
C      -0.6935970375     -0.8092620181     -0.0153259429
C      -2.0601508127     -0.9175968661     -0.0509740202
C      -0.6554682762      1.7626668069      0.0481913485
H      -0.0952573438     -1.7759907651     -0.1686344211
H      -2.9243770602     -0.1699570692     -0.2230741199
H      -2.1490414306     -2.0652118459     -0.4098283741
H       0.1969223958      2.4421490391     -0.0189223850
H      -1.2971513210      1.8725900950      0.9642476155
H      -1.4393995885      1.7322920000     -0.7312533534
12
Frame=13  time=7.000fs  energy=-306.17223743Ha  molecule=COOCCCHHHHHH
C       0.0581961916      0.3678928027      0.0458433281
O       1.3913860995      0.2685767723      0.0583343854
O       2.2128694695      1.3518245259     -0.0385248822
C      -0.6949496212     -0.8105961405     -0.0166268130
C      -2.0597701830     -0.9223037223     -0.0566771981
C      -0.6657327915      1.7596089279      0.0505251812
H      -0.1000507108     -1.7675051781     -0.1751047479
H      -2.9391459077     -0.1859628556     -0.2336948167
H      -2.1378938577     -2.0628299334     -0.4293397192
H       0.1746550129      2.4439146383     -0.0228888052
H      -1.3126321227      1.8819905382      0.9770184675
H      -1.4344903432      1.7409638366     -0.7052714173
12
Frame=14  time=7.500fs  energy=-306.17318583Ha  molecule=COOCCCHHHHHH
C       0.0618215146      0.3690343426      0.0488180377
O       1.3951172166      0.2701925264      0.0623679956
O       2.2176697635      1.3556271657     -0.0412097888
C      -0.6963494202     -0.8130514335     -0.0180303921
C      -2.0593666704     -0.9277509026     -0.0628931364
C      -0.6760777383      1.7560362700      0.0532566925
H      -0.1080809852     -1.7506420617     -0.1793308802
H      -2.9507558355     -0.2041439793     -0.2426782971
H      -2.1295961328     -2.0521200783     -0.4451412823
H       0.1527067907      2.4501367757     -0.0272974679
H      -1.3270816922      1.8921147299      0.9891447288
H      -1.4302231474      1.7523587050     -0.6825861939
12
Frame=15  time=8.000fs  energy=-306.17450406Ha  molecule=COOCCCHHHHHH
C       0.0660541871      0.3706522078      0.0517645446
O       1.3985580597      0.2718989038      0.0663578525
O       2.2224650878      1.3593213836     -0.0438696747
C      -0.6977752630     -0.8164457637     -0.0195283119
C      -2.0589771265     -0.9339075528     -0.0696408527
C      -0.6863620106      1.7520259805      0.0565457212
H      -0.1186534803     -1.7267303802     -0.1813254866
H      -2.9590725310     -0.2243798407     -0.2499094552
H      -2.1243692469     -2.0337961480     -0.4572104077
H       0.1311255894      2.4605049525     -0.0320744574
H      -1.3401778389      1.9024811717      1.0001144465
H      -1.4281537996      1.7662230496     -0.6646414915
12
Frame=16  time=8.500fs  energy=-306.17564872Ha  molecule=COOCCCHHHHHH
C       0.0708480308      0.3726709261      0.0546803647
O       1.4016860967      0.2737252408      0.0702999246
O       2.2272421224      1.3629029768     -0.0465024938
C      -0.6992430767     -0.8204569930     -0.0210885616
C      -2.0586398833     -0.9407133245     -0.0769194160
C      -0.6964464589      1.7476891548      0.0605166288
H      -0.1303809301     -1.6985030140     -0.1813475391
H      -2.9641076869     -0.2464863598     -0.2553002841
H      -2.1224096992     -2.0091282338     -0.4657195720
H       0.1099644128      2.4742461754     -0.0369990553
H      -1.3516287107      1.9125303503      1.0093736834
H      -1.4296984585      1.7823269756     -0.6525740176
12
Frame=17  time=9.000fs  energy=-306.17611673Ha  molecule=COOCCCHHHHHH
C       0.0761424709      0.3750096705      0.0575596214
O       1.4044780245      0.2757007769      0.0741910652
O       2.2319896927      1.3663714069     -0.0491067374
C      -0.7008221578     -0.8246446946     -0.0226494558
C      -2.0583791233     -0.9480551445     -0.0846933349
C      -0.7062227593      1.7431618916      0.0652258149
H      -0.1411780186     -1.6699301675     -0.1799660086
H      -2.9660913169     -0.2701521181     -0.2588388535
H      -2.1238421775     -1.9801757892     -0.4711718288
H       0.0893077145      2.4902551083     -0.0417205964
H      -1.3612077081      1.9216708303      1.0164247108
H      -1.4358065937      1.8003755609     -0.6469106665
12
Frame=18  time=9.500fs  energy=-306.17578073Ha  molecule=COOCCCHHHHHH
C       0.0818631980      0.3775890475      0.0603930019
O       1.4069141958      0.2778512329      0.0780284462
O       2.2366990394      1.3697286183     -0.0516809893
C      -0.7026090901     -0.8285460503     -0.0241316568
C      -2.0581926459     -0.9557671048     -0.0928864128
C      -0.7156264893      1.7385939999      0.0706427937
H      -0.1487892759     -1.6451617855     -0.1779284394
H      -2.9655362958     -0.2948425989     -0.2606125837
H      -2.1286545362     -1.9498030460     -0.4744594876
H       0.0692307056      2.5072437974     -0.0458077644
H      -1.3688025488      1.9293804988      1.0209610595
H      -1.4467270209      1.8198881616     -0.6474057470
12
Frame=19  time=10.000fs  energy=-306.17484254Ha  molecule=COOCCCHHHHHH
C       0.0879223666      0.3803344782      0.0631680953
O       1.4089823663      0.2801985548      0.0818088319
O       2.2413607354      1.3729759654     -0.0542231894
C      -0.7046737187     -0.8317840320     -0.0254640389
C      -2.0580589040     -0.9636391466     -0.1013892420
C      -0.7246439298      1.7341366656      0.0766532820
H      -0.1515333135     -1.6273803786     -0.1759045788
H      -2.9630741204     -0.3198987154     -0.2607599482
H      -2.1366533399     -1.9214062007     -0.4767921684
H       0.0497709209      2.5238972234     -0.0488077833
H      -1.3744249357      1.9352825336      1.0229303208
H      -1.4619260540      1.8401975669     -0.6530646942
12
Frame=20  time=10.500fs  energy=-306.17367622Ha  molecule=COOCCCHHHHHH
C       0.0942235633      0.3831768991      0.0658717245
O       1.4106775209      0.2827608223      0.0855286340
O       2.2459614825      1.3761124784     -0.0567304039
C      -0.7070411977     -0.8340990787     -0.0265971280
C      -2.0579383690     -0.9714256135     -0.1100756490
C      -0.7333047908      1.7299349650      0.0830847542
H      -0.1484935783     -1.6185903195     -0.1743636629
H      -2.9593506979     -0.3446306810     -0.2593982622
H      -2.1475304324     -1.8986772177     -0.4795586026
H       0.0309459609      2.5390289823     -0.0503054329
H      -1.3781975405      1.9391300905      1.0225006775
H      -1.4802550914      1.8605458223     -0.6623654234
12
Frame=21  time=11.000fs  energy=-306.17278246Ha  molecule=COOCCCHHHHHH
C       0.1006696924      0.3860509811      0.0684925146
O       1.4120016073      0.2855510057      0.0891847449
O       2.2504842756      1.3791360166     -0.0591993435
C      -0.7096742567     -0.8353568730     -0.0275037281
C      -2.0577693445     -0.9788966363     -0.1188281762
C      -0.7416601452      1.7261247808      0.0897415874
H      -0.1394848807     -1.6195163949     -0.1735403766
H      -2.9551806396     -0.3682650482     -0.2566320587
H      -2.1610762692     -1.8851107690     -0.4840649897
H       0.0127826238      2.5516976933     -0.0499723868
H      -1.3803437078      1.9407456421      1.0199704922
H      -1.5002723986      1.8801454236     -0.6735491737
12
Frame=22  time=11.500fs  energy=-306.17255455Ha  molecule=COOCCCHHHHHH
C       0.1071673001      0.3888980932      0.0710222736
O       1.4129646287      0.2885751742      0.0927743989
O       2.2549103194      1.3820450744     -0.0616265887
C      -0.7124593180     -0.8355593131     -0.0281810534
C      -2.0574812213     -0.9858987478     -0.1275626149
C      -0.7497706051      1.7228277455      0.0964396483
H      -0.1250932922     -1.6294395670     -0.1734103962
H      -2.9514994721     -0.3900317577     -0.2525820244
H      -2.1772801954     -1.8832421377     -0.4912214078
H      -0.0046561424      2.5612441757     -0.0475966268
H      -1.3811191741      1.9399772723      1.0156521951
H      -1.5204936191      1.8982243057     -0.6848891623
12
Frame=23  time=12.000fs  energy=-306.17302440Ha  molecule=COOCCCHHHHHH
C       0.1136292312      0.3916750601      0.0734561593
O       1.4135839663      0.2918326254      0.0962940897
O       2.2592208083      1.3848397631     -0.0640083039
C      -0.7152385722     -0.8348244471     -0.0286513324
C      -2.0570086971     -0.9924004747     -0.1362473507
C      -0.7576969091      1.7201410900      0.1030386579
H      -0.1065183154     -1.6465262024     -0.1737183432
H      -2.9491312167     -0.4092518072     -0.2473548477
H      -2.1961849344     -1.8939749722     -0.5012914995
H      -0.0212507731      2.5672601753     -0.0430770162
H      -1.3807182452      1.9366901422      1.0097956281
H      -1.5396514815      1.9141134722     -0.6950091709
12
Frame=24  time=12.500fs  energy=-306.17375174Ha  molecule=COOCCCHHHHHH
C       0.1199753371      0.3943581382      0.0757929452
O       1.4138804949      0.2953178975      0.0997390565
O       2.2633990824      1.3875218241     -0.0663402419
C      -0.7178342086     -0.8333752077     -0.0289623194
C      -2.0562944109     -0.9985068657     -0.1449090442
C      -0.7654826442      1.7181243955      0.1094499396
H      -0.0855561893     -1.6680173703     -0.1739973691
H      -2.9486959115     -0.4252716701     -0.2410045192
H      -2.2176259883     -1.9163905127     -0.5138122639
H      -0.0368265941      2.5695277065     -0.0363910917
H      -1.3792948470      1.9307794908      1.0026681095
H      -1.5569097746      1.9273448033     -0.7031086139
12
Frame=25  time=13.000fs  energy=-306.17418548Ha  molecule=COOCCCHHHHHH
C       0.1261340812      0.3969425312      0.0780354291
O       1.4138780812      0.2990227349      0.1031043424
O       2.2674319878      1.3900936177     -0.0686183467
C      -0.7200601102     -0.8315103866     -0.0291789734
C      -2.0553057514     -1.0044179145     -0.1536166806
C      -0.7731411683      1.7167937722      0.1156079819
H      -0.0644823375     -1.6905440483     -0.1736738275
H      -2.9506051958     -0.4374780494     -0.2335345893
H      -2.2410463656     -1.9482157616     -0.5277718382
H      -0.0511892699      2.5679810160     -0.0275650318
H      -1.3771166731      1.9222032584      0.9947571528
H      -1.5718299245      1.9376732656     -0.7088730309
12
Frame=26  time=13.500fs  energy=-306.17404752Ha  molecule=COOCCCHHHHHH
C       0.1320454621      0.3994391105      0.0801896253
O       1.4136054699      0.3029362608      0.1063859325
O       2.2713086297      1.3925563109     -0.0708392659
C      -0.7217528380     -0.8295225201     -0.0293628401
C      -2.0540691181     -1.0103745926     -0.1624631918
C      -0.7806575756      1.7161278359      0.1214369349
H      -0.0454455794     -1.7110046243     -0.1722722858
H      -2.9549378063     -0.4454951061     -0.2249109565
H      -2.2655072732     -1.9863670557     -0.5418638673
H      -0.0641481567      2.5627153833     -0.0166581853
H      -1.3746972261      1.9110287087      0.9869015778
H      -1.5841792797      1.9450120881     -0.7122142645
12
Frame=27  time=14.000fs  energy=-306.17338423Ha  molecule=COOCCCHHHHHH
C       0.1376575749      0.4018662554      0.0822625511
O       1.4130952390      0.3070458728      0.1095810065
O       2.2750192224      1.3949086692     -0.0730003805
C      -0.7227881972     -0.8276385892     -0.0295586525
C      -2.0526797261     -1.0166237684     -0.1715518048
C      -0.7880011562      1.7160745316      0.1268393861
H      -0.0300183069     -1.7270956585     -0.1694940516
H      -2.9612786422     -0.4493452938     -0.2150694190
H      -2.2899379112     -2.0273520144     -0.5547243741
H      -0.0754806040      2.5540457980     -0.0037646129
H      -1.3728006795      1.8974542175      0.9802586848
H      -1.5937843764      1.9493420312     -0.7130788991
12
Frame=28  time=14.500fs  energy=-306.17249139Ha  molecule=COOCCCHHHHHH
C       0.1429168905      0.4042391353      0.0842599299
O       1.4123819055      0.3113399554      0.1126879185
O       2.2785566693      1.3971480302     -0.0750996381
C      -0.7230871816     -0.8260066540     -0.0297939880
C      -2.0512707350     -1.0233777330     -0.1809714603
C      -0.7951369057      1.7165556754      0.1317091096
H      -0.0190949937     -1.7373693427     -0.1651842537
H      -2.9687572558     -0.4494640610     -0.2039641909
H      -2.3134388508     -2.0678191581     -0.5652085119
H      -0.0848766430      2.5425789980      0.0109757147
H      -1.3723261009      1.8817728579      0.9761417713
H      -1.6005006995      1.9506710690     -0.7114061156
12
Frame=29  time=15.000fs  energy=-306.17173383Ha  molecule=COOCCCHHHHHH
C       0.1477558302      0.4065571194      0.0861848753
O       1.4115011444      0.3158096093      0.1157058875
O       2.2819186160      1.3992725205     -0.0771353395
C      -0.7226122572     -0.8247071700     -0.0300853462
C      -2.0499670752     -1.0307672963     -0.1907693377
C      -0.8020375963      1.7174736716      0.1359543563
H      -0.0131175553     -1.7410888154     -0.1593055025
H      -2.9762654133     -0.4466012511     -0.1916403451
H      -2.3353532682     -2.1051422043     -0.5725885552
H      -0.0919199726      2.5292222456      0.0273776094
H      -1.3741205547      1.8642893244      0.9757796479
H      -1.6042272396      1.9490329551     -0.7071591158
12
Frame=30  time=15.500fs  energy=-306.17139172Ha  molecule=COOCCCHHHHHH
C       0.1520870602      0.4087956300      0.0880374043
O       1.4104898780      0.3204485302      0.1186347293
O       2.2851075834      1.4012824582     -0.0791060450
C      -0.7213601416     -0.8237776010     -0.0304460959
C      -2.0488638993     -1.0388298922     -0.2009444483
C      -0.8086957356      1.7187228328      0.1395218538
H      -0.0123491852     -1.7380364386     -0.1519279801
H      -2.9826656759     -0.4416622044     -0.1782668340
H      -2.3550589605     -2.1375228189     -0.5765018416
H      -0.0961263406      2.5150994090      0.0452309575
H      -1.3787799830      1.8452395608      0.9800576215
H      -1.6049286500      1.9444970769     -0.7003744150
12
Frame=31  time=16.000fs  energy=-306.17161910Ha  molecule=COOCCCHHHHHH
C       0.1558100122      0.4109078536      0.0898146493
O       1.4093858482      0.3252521289      0.1214749384
O       2.2881293902      1.4031803828     -0.0810106252
C      -0.7193547090     -0.8232281973     -0.0308897792
C      -2.0480316154     -1.0475358007     -0.2114598204
C      -0.8151297505      1.7202033691      0.1424156967
H      -0.0169129839     -1.7283980237     -0.1432069286
H      -2.9869160200     -0.4355696462     -0.1641185361
H      -2.3718598689     -2.1637561540     -0.5768056015
H      -0.0970361474      2.5014097850      0.0643314939
H      -1.3864827175      1.8247578368      0.9893035354
H      -1.6026511235      1.9371810517     -0.6912078266
12
Frame=32  time=16.500fs  energy=-306.17241053Ha  molecule=COOCCCHHHHHH
C       0.1588223114      0.4128334937      0.0915116890
O       1.4082259611      0.3302164805      0.1242277871
O       2.2909912387      1.4049703700     -0.0828482849
C      -0.7166444630     -0.8230379411     -0.0314280029
C      -2.0475249690     -1.0568222452     -0.2222581155
C      -0.8213807638      1.7218329463      0.1447039986
H      -0.0266326946     -1.7127845791     -0.1333584275
H      -2.9881406964     -0.4291797515     -0.1495386304
H      -2.3850768303     -2.1830120712     -0.5734859608
H      -0.0943427767      2.4892680897      0.0845093075
H      -1.3969092765      1.8028996531      1.0031887646
H      -1.5975117308      1.9272504392     -0.6799462334
12
Frame=33  time=17.000fs  energy=-306.17356816Ha  molecule=COOCCCHHHHHH
C       0.1610297392      0.4145104021      0.0931228724
O       1.4070438318      0.3353372337      0.1268950629
O       2.2936999926      1.4066569216     -0.0846184489
C      -0.7133114328     -0.8231397479     -0.0320667283
C      -2.0473861027     -1.0666150819     -0.2332725863
C      -0.8274984245      1.7235522948      0.1465100507
H      -0.0407986554     -1.6923775837     -0.1226540127
H      -2.9856736007     -0.4232308423     -0.1349029787
H      -2.3941581613     -2.1947312839     -0.5666236641
H      -0.0880202231      2.4795592805      0.1056421730
H      -1.4092953403      1.7797032083      1.0208042323
H      -1.5896767059      1.9149041356     -0.6669938846
12
Frame=34  time=17.500fs  energy=-306.17472702Ha  molecule=COOCCCHHHHHH
C       0.1623557804      0.4158869787      0.0946437835
O       1.4058674979      0.3406082054      0.1294783944
O       2.2962604167      1.4082434985     -0.0863205239
C      -0.7094894725     -0.8234056980     -0.0328031474
C      -2.0476417136     -1.0768379498     -0.2444332914
C      -0.8335123447      1.7253228991      0.1479949362
H      -0.0579582501     -1.6691059822     -0.1114303006
H      -2.9790721080     -0.4183134660     -0.1205904417
H      -2.3987406326     -2.1986148251     -0.5563884246
H      -0.0784144929      2.4728469098      0.1276413047
H      -1.4226326804      1.7552625699      1.0409156145
H      -1.5794095635      1.9003878221     -0.6529115739
12
Frame=35  time=18.000fs  energy=-306.17549986Ha  molecule=COOCCCHHHHHH
C       0.1627516900      0.4169322639      0.0960734694
O       1.4047187895      0.3460197829      0.1319784404
O       2.2986738168      1.4097314892     -0.0879536036
C      -0.7053816003     -0.8236415313     -0.0336257886
C      -2.0482916947     -1.0874149963     -0.2556691927
C      -0.8393918915      1.7271182999      0.1493456652
H      -0.0758814910     -1.6457151515     -0.1000898552
H      -2.9681281389     -0.4148586333     -0.1069573890
H      -2.3986676991     -2.1946709593     -0.5430438981
H      -0.0662843343      2.4693444269      0.1504057484
H      -1.4359562193      1.7297742177      1.0622871689
H      -1.5672446892      1.8840722201     -0.6385651947
12
Frame=36  time=18.500fs  energy=-306.17570688Ha  molecule=COOCCCHHHHHH
C       0.1621999341      0.4176418684      0.0974157938
O       1.4036139866      0.3515592480      0.1343943978
O       2.3009384319      1.4111205676     -0.0895162355
C      -0.7012435278     -0.8236232878     -0.0345235117
C      -2.0492863228     -1.0982583828     -0.2669040620
C      -0.8450233764      1.7289160044      0.1507751837
H      -0.0920382349     -1.6253648482     -0.0890419887
H      -2.9528913121     -0.4131390060     -0.0943154423
H      -2.3939938127     -2.1833632736     -0.5269682918
H      -0.0527757674      2.4689200212      0.1737672526
H      -1.4485221980      1.7035163881      1.0838406245
H      -1.5541275278      1.8665187879     -0.6252440980
12
Frame=37  time=19.000fs  energy=-306.17533302Ha  molecule=COOCCCHHHHHH
C       0.1607074670      0.4180408309      0.0986799103
O       1.4025596334      0.3572124428      0.1367239487
O       2.3030515197      1.4124097981     -0.0910065170
C      -0.6973230089     -0.8231759387     -0.0354987148
C      -2.0505050546     -1.1092200647     -0.2780453407
C      -0.8502334031      1.7306896580      0.1525252799
H      -0.1044171853     -1.6107727951     -0.0786051094
H      -2.9336239254     -0.4133088851     -0.0829279336
H      -2.3850705571     -2.1659859982     -0.5087141416
H      -0.0393194361      2.4711285163      0.1974647063
H      -1.4597305794      1.6767938925      1.1045304778
H      -1.5413184750      1.8484395377     -0.6145655085
12
Frame=38  time=19.500fs  energy=-306.17444192Ha  molecule=COOCCCHHHHHH
C       0.1583008387      0.4181780660      0.0998795599
O       1.4015465134      0.3629642052      0.1389637729
O       2.3050105390      1.4135984567     -0.0924224961
C      -0.6938284964     -0.8221969467     -0.0365674653
C      -2.0517595184     -1.1200460981     -0.2889795268
C      -0.8548295570      1.7324053603      0.1548593539
H      -0.1116438268     -1.6039780277     -0.0689877731
H      -2.9107727286     -0.4154608002     -0.0730219965
H      -2.3726648986     -2.1450313883     -0.4890461159
H      -0.0274710307      2.4753024060      0.2211585599
H      -1.4689812339      1.6499330561      1.1231927757
H      -1.5302061057      1.8306247496     -0.6082674322
12
Frame=39  time=20.000fs  energy=-306.17331965Ha  molecule=COOCCCHHHHHH
C       0.1550256835      0.4181104862      0.1010292881
O       1.4005524185      0.3687988548      0.1411106300
O       2.3068116093      1.4146858864     -0.0937623729
C      -0.6909088454     -0.8206509237     -0.0377513080
C      -2.0528180824     -1.1303998020     -0.2995875874
C      -0.8586347936      1.7340324649      0.1580259895
H      -0.1129059788     -1.6062868756     -0.0603015415
H      -2.8850561122     -0.4195631226     -0.0647664682
H      -2.3579081892     -2.1240852892     -0.4688592221
H      -0.0186886436      2.4807077979      0.2444614416
H      -1.4757276476      1.6232910400      1.1386548722
H      -1.5220671104      1.8138243098     -0.6078888380
12
Frame=40  time=20.500fs  energy=-306.17234308Ha  molecule=COOCCCHHHHHH
C       0.1509451069      0.4178953423      0.1021398559
O       1.3995464301      0.3746992543      0.1431617281
O       2.3084470644      1.4156706629     -0.0950241746
C      -0.6886169723     -0.8185963537     -0.0390738385
C      -2.0534294944     -1.1399084402     -0.3097620320
C      -0.8615312127      1.7355492536      0.1622059203
H      -0.1082601590     -1.6177623327     -0.0525649953
H      -2.8574467000     -0.4253522504     -0.0582467568
H      -2.3421559647     -2.1074670408     -0.4490444571
H      -0.0140956919      2.4866981864      0.2669748827
H      -1.4795958635      1.5972281008      1.1499345536
H      -1.5176752689      1.7985696531     -0.6143227044
12
Frame=41  time=21.000fs  energy=-306.17184770Ha  molecule=COOCCCHHHHHH
C       0.1461391711      0.4175978399      0.1032163919
O       1.3984896049      0.3806444191      0.1451143800
O       2.3099049421      1.4165505502     -0.0962053913
C      -0.6869080963     -0.8161956173     -0.0405589518
C      -2.0533446629     -1.1482134380     -0.3194215365
C      -0.8634954315      1.7369336050      0.1674754623
H      -0.0986140684     -1.6370831272     -0.0457296580
H      -2.8291199275     -0.4322727224     -0.0534503845
H      -2.3267902061     -2.0996148186     -0.4303224777
H      -0.0143513402      2.4927778223      0.2883335803
H      -1.4804143486      1.5720787252      1.1563247926
H      -1.5170043969      1.7851007324     -0.6274890529
12
Frame=42  time=21.500fs  energy=-306.17199191Ha  molecule=COOCCCHHHHHH
C       0.1407037992      0.4172915423      0.1042595615
O       1.3973368225      0.3866094430      0.1469661797
O       2.3111715278      1.4173236045     -0.0973033669
C      -0.6856702349     -0.8136862677     -0.0422264830
C      -2.0523513334     -1.1550802483     -0.3285304525
C      -0.8646039666      1.7381559319      0.1737904088
H      -0.0853903858     -1.6618647707     -0.0397133987
H      -2.8014493674     -0.4394419224     -0.0502302179
H      -2.3128212194     -2.1037868618     -0.4130551811
H      -0.0196753631      2.4985525951      0.3082500398
H      -1.4781877829      1.5481410850      1.1574183365
H      -1.5191845825      1.7734426028     -0.6462340613
12
Frame=43  time=22.000fs  energy=-306.17261342Ha  molecule=COOCCCHHHHHH
C       0.1347520626      0.4170481095      0.1052697175
O       1.3960416650      0.3925700333      0.1487161263
O       2.3122347304      1.4179894980     -0.0983163539
C      -0.6847603189     -0.8113487949     -0.0440892821
C      -2.0502971542     -1.1604706348     -0.3370983054
C      -0.8649990190      1.7391838956      0.1810021069
H      -0.0703393411     -1.6889977096     -0.0344355720
H      -2.7758564031     -0.4457720924     -0.0483055544
H      -2.3006663854     -2.1211804622     -0.3972558447
H      -0.0299401501      2.5036696354      0.3265453468
H      -1.4730850382      1.5256403123      1.1531492110
H      -1.5228300926      1.7635319922     -0.6686389216
12
Frame=44  time=22.500fs  energy=-306.17334053Ha  molecule=COOCCCHHHHHH
C       0.1284128318      0.4169330877      0.1062491930
O       1.3945608012      0.3985064002      0.1503653734
O       2.3130864289      1.4185509478     -0.0992441874
C      -0.6840450846     -0.8094696805     -0.0461523559
C      -2.0470974992     -1.1645425242     -0.3451610517
C      -0.8648378255      1.7399919013      0.1889052544
H      -0.0552714284     -1.7152072003     -0.0298461412
H      -2.7535763128     -0.4502243396     -0.0473277024
H      -2.2901995322     -2.1507799844     -0.3827497808
H      -0.0447026693      2.5078700829      0.3431612153
H      -1.4654536459      1.5046757009      1.1438613626
H      -1.5265585619      1.7552898645     -0.6926768489
12
Frame=45  time=23.000fs  energy=-306.17362881Ha  molecule=COOCCCHHHHHH
C       0.1218209234      0.4170115153      0.1071979625
O       1.3928559272      0.4044019728      0.1519159446
O       2.3137226844      1.4190134713     -0.1000877081
C      -0.6834351044     -0.8082817489     -0.0484107154
C      -2.0427480176     -1.1676270682     -0.3527609256
C      -0.8642772513      1.7405605453      0.1972603226
H      -0.0415355078     -1.7379102014     -0.0259226284
H      -2.7354632129     -0.4521145476     -0.0469992296
H      -2.2808686842     -2.1893647933     -0.3693294129
H      -0.0632224644      2.5110956005      0.3581718638
H      -1.4558286663      1.4852504908      1.1303142046
H      -1.5291086236      1.7486357227     -0.7164292905
12
Frame=46  time=23.500fs  energy=-306.17305975Ha  molecule=COOCCCHHHHHH
C       0.1151098013      0.4173559337      0.1081096195
O       1.3908934942      0.4102401541      0.1533686392
O       2.3141413198      1.4193824846     -0.1008475640
C      -0.6828787499     -0.8079459451     -0.0508505245
C      -2.0373199911     -1.1701591905     -0.3599253808
C      -0.8634743384      1.7408663760      0.2057890921
H      -0.0298917271     -1.7554641599     -0.0226596406
H      -2.7219138140     -0.4513036847     -0.0472017011
H      -2.2718891751     -2.2320971404     -0.3568787376
H      -0.0845709883      2.5135198856      0.3717993113
H      -1.4449383701      1.4673490592      1.1136021159
H      -1.5292261266      1.7434852624     -0.7379008953
12
Frame=47  time=24.000fs  energy=-306.17176065Ha  molecule=COOCCCHHHHHH
C       0.1084082076      0.4180470331      0.1089734163
O       1.3886419079      0.4160028529      0.1547223613
O       2.3143395574      1.4196606657     -0.1015235716
C      -0.6823360078     -0.8085655376     -0.0534534001
C      -2.0309257756     -1.1725440269     -0.3666562118
C      -0.8625628738      1.7408749565      0.2141952156
H      -0.0207215848     -1.7668598101     -0.0200711603
H      -2.7129157144     -0.4481362455     -0.0480377413
H      -2.2626076088     -2.2741705248     -0.3454345649
H      -0.1077730941      2.5155120489      0.3843911735
H      -1.4336903137      1.4509604135      1.0950646138
H      -1.5257951953      1.7397609194     -0.7551491073
12
Frame=48  time=24.500fs  energy=-306.17022601Ha  molecule=COOCCCHHHHHH
C       0.1018307212      0.4191620665      0.1097780648
O       1.3860703031      0.4216715076      0.1559751258
O       2.3143152006      1.4198481753     -0.1021151583
C      -0.6817633647     -0.8101924513     -0.0561980061
C      -2.0236936790     -1.1750794800     -0.3729384332
C      -0.8616298481      1.7405418979      0.2222023123
H      -0.0141908831     -1.7714898807     -0.0181922035
H      -2.7081228610     -0.4433203828     -0.0497786056
H      -2.2526714006     -2.3118705906     -0.3351261216
H      -0.1318564647      2.5176216784      0.3963667855
H      -1.4231238058      1.4360383602      1.0762358580
H      -1.5180751925      1.7374149508     -0.7666743507
12
Frame=49  time=25.000fs  energy=-306.16897247Ha  molecule=COOCCCHHHHHH
C       0.0954704319      0.4207629887      0.1105149789
O       1.3831490927      0.4272278746      0.1571251234
O       2.3140690600      1.4199443853     -0.1026222489
C      -0.6811116886     -0.8128394590     -0.0590613236
C      -2.0157511698     -1.1779425391     -0.3787536963
C      -0.8607140309      1.7398193183      0.2295730084
H      -0.0103634162     -1.7690098706     -0.0170719121
H      -2.7069527367     -0.4377782716     -0.0527632796
H      -2.2419790298     -2.3427767761     -0.3260919343
H      -0.1558320393      2.5205774113      0.4081735675
H      -1.4143800897      1.4224228121      1.0588354246
H      -1.5057912243      1.7364290598     -0.7716514447
12
Frame=50  time=25.500fs  energy=-306.16840689Ha  molecule=COOCCCHHHHHH
C       0.0893980843      0.4228928036      0.1111801165
O       1.3798511250      0.4326538901      0.1581710876
O       2.3136058517      1.4199492475     -0.1030457651
C      -0.6803280781     -0.8164947768     -0.0620214846
C      -2.0072126448     -1.1812105414     -0.3840844179
C      -0.8598163512      1.7386652904      0.2361105548
H      -0.0092688280     -1.7592445921     -0.0167650024
H      -2.7087103971     -0.4324803422     -0.0573284150
H      -2.2305882149     -2.3655412972     -0.3184520039
H      -0.1787308389      2.5252030426      0.4202526360
H      -1.4086603538      1.4097997313      1.0447010522
H      -1.4890616897      1.7367967589     -0.7698905508
12
Frame=51  time=26.000fs  energy=-306.16880283Ha  molecule=COOCCCHHHHHH
C       0.0836635823      0.4255764611      0.1117745430
O       1.3761534571      0.4379317600      0.1591120272
O       2.3129336357      1.4198636934     -0.1033875515
C      -0.6793609446     -0.8211201897     -0.0650595765
C      -1.9981785799     -1.1848957843     -0.3889122348
C      -0.8589138049      1.7370515411      0.2416698691
H      -0.0108769084     -1.7422553990     -0.0173240147
H      -2.7126840416     -0.4283378873     -0.0637819382
H      -2.2186230153     -2.3795272501     -0.3123163554
H      -0.1997442794      2.5322293393      0.4329939334
H      -1.4070574844      1.3977811829      1.0355022278
H      -1.4682702431      1.7385093759     -0.7616636247
12
Frame=52  time=26.500fs  energy=-306.17016337Ha  molecule=COOCCCHHHHHH
C       0.0782958518      0.4288204210      0.1123048603
O       1.3720403295      0.4430452967      0.1599465874
O       2.3120626509      1.4196891024     -0.1036499251
C      -0.6781751263     -0.8266248689     -0.0681595321
C      -1.9887423279     -1.1889743721     -0.3932181279
C      -0.8579726964      1.7349647862      0.2461869850
H      -0.0149172195     -1.7186493561     -0.0187858161
H      -2.7181878728     -0.4261411150     -0.0723855091
H      -2.2061934148     -2.3845293782     -0.3077959532
H      -0.2184007531      2.5420897843      0.4466786484
H      -1.4102801954      1.3860801460      1.0323091368
H      -1.4439912003      1.7415617401     -0.7475887942
12
Frame=53  time=27.000fs  energy=-306.17204338Ha  molecule=COOCCCHHHHHH
C       0.0733023943      0.4326124170      0.1127840730
O       1.3675069651      0.4479823615      0.1606726155
O       2.3110041622      1.4194263917     -0.1038351246
C      -0.6767797084     -0.8328254019     -0.0713080890
C      -1.9789973654     -1.1934040567     -0.3969865345
C      -0.8569544349      1.7324030078      0.2497165749
H      -0.0205620675     -1.6900338257     -0.0211461429
H      -2.7245537466     -0.4265315064     -0.0833372175
H      -2.1933546354     -2.3806413549     -0.3049990056
H      -0.2346646450      2.5547980843      0.4614246788
H      -1.4184225866      1.3746638872      1.0352655876
H      -1.4170367508      1.7459746692     -0.7287059820
12
Frame=54  time=27.500fs  energy=-306.17369579Ha  molecule=COOCCCHHHHHH
C       0.0686739586      0.4369276642      0.1132321775
O       1.3625617975      0.4527366743      0.1612876511
O       2.3097705171      1.4190762305     -0.1039451043
C      -0.6752540055     -0.8394307689     -0.0744969095
C      -1.9690389244     -1.1981353028     -0.4002103536
C      -0.8558115776      1.7293756988      0.2524621478
H      -0.0262280366     -1.6591998763     -0.0243333856
H      -2.7310991221     -0.4299795837     -0.0967632655
H      -2.1801092853     -2.3682221169     -0.3040180341
H      -0.2489006224      2.5699070643      0.4771352258
H      -1.4309088750      1.3637752059      1.0435036211
H      -1.3885863695      1.7517861693     -0.7066805894
12
Frame=55  time=28.000fs  energy=-306.17457869Ha  molecule=COOCCCHHHHHH
C       0.0643955622      0.4417378308      0.1136738254
O       1.3572234697      0.4573070291      0.1617904157
O       2.3083769583      1.4186410614     -0.1039820078
C      -0.6737349879     -0.8460958775     -0.0777251632
C      -1.9589561456     -1.2031115472     -0.4028915242
C      -0.8544905164      1.7259115760      0.2547629983
H      -0.0298721545     -1.6295671654     -0.0282171286
H      -2.7371471754     -0.4367464422     -0.1127200584
H      -2.1664310240     -2.3479538010     -0.3049231219
H      -0.2617172754      2.5865393942      0.4934630938
H      -1.4466640019      1.3538277211      1.0553385244
H      -1.3601563727      1.7590123395     -0.6837540321
12
Frame=56  time=28.500fs  energy=-306.17460263Ha  molecule=COOCCCHHHHHH
C       0.0604565005      0.4470157681      0.1141321337
O       1.3515133633      0.4616937761      0.1621817733
O       2.3068421061      1.4181264464     -0.1039486986
C      -0.6723695818     -0.8524921718     -0.0809969880
C      -1.9488217208     -1.2082489443     -0.4050402488
C      -0.8529472550      1.7220505253      0.2570235164
H      -0.0294969245     -1.6044378106     -0.0326488041
H      -2.7421206551     -0.4468849053     -0.1311955327
H      -2.1523084936     -2.3210585608     -0.3077540138
H      -0.2737319724      2.6035736922      0.5098734424
H      -1.4644532122      1.3453274743      1.0687396934
H      -1.3333648690      1.7676856564     -0.6623734612
12
Frame=57  time=29.000fs  energy=-306.17404717Ha  molecule=COOCCCHHHHHH
C       0.0568497311      0.4527398220      0.1146232907
O       1.3454508631      0.4658954609      0.1624640969
O       2.3051854449      1.4175404948     -0.1038486163
C      -0.6712791804     -0.8583335464     -0.0843155596
C      -1.9386838473     -1.2134038780     -0.4066804606
C      -0.8511482515      1.7178198753      0.2596524898
H      -0.0233940509     -1.5866588792     -0.0374848082
H      -2.7456205741     -0.4602952238     -0.1521003612
H      -2.1378434761     -2.2896577538     -0.3124827138
H      -0.2853777076      2.6199002701      0.5258171759
H      -1.4831507908      1.3388549589      1.0818019815
H      -1.3098219230      1.7779100117     -0.6450697727
12
Frame=58  time=29.500fs  energy=-306.17338214Ha  molecule=COOCCCHHHHHH
C       0.0535594899      0.4588917990      0.1151552354
O       1.3390567520      0.4699086400      0.1626401368
O       2.3034237284      1.4168921675     -0.1036851071
C      -0.6705130283     -0.8634092033     -0.0876760499
C      -1.9285601680     -1.2183635354     -0.4078594175
C      -0.8490712269      1.7132400531      0.2630165901
H      -0.0105529000     -1.5780914687     -0.0426196447
H      -2.7474675001     -0.4766922343     -0.1752414121
H      -2.1233887572     -2.2570127975     -0.3189663334
H      -0.2968615656      2.6345456740      0.5408621903
H      -1.5018227716      1.3349571513      1.0929424369
H      -1.2909680900      1.7897871286     -0.6342183596
12
Frame=59  time=30.000fs  energy=-306.17297405Ha  molecule=COOCCCHHHHHH
C       0.0505544379      0.4654422598      0.1157287391
O       1.3323600711      0.4737290938      0.1627127245
O       2.3015679465      1.4161891790     -0.1034608084
C      -0.6700032501     -0.8676144310     -0.0910618378
C      -1.9184420586     -1.2228710398     -0.4086496962
C      -0.8467317074      1.7083545319      0.2673657005
H       0.0089423614     -1.5790769354     -0.0480088242
H      -2.7477167396     -0.4955378499     -0.2003225156
H      -2.1096268304     -2.2273805763     -0.3269436827
H      -0.3082171859      2.6466952837      0.5547172773
H      -1.5197388827      1.3339912318      1.1009362297
H      -1.2776665810      1.8033030726     -0.6312282223
12
Frame=60  time=30.500fs  energy=-306.17301513Ha  molecule=COOCCCHHHHHH
C       0.0477927789      0.4723350739      0.1163376133
O       1.3254023125      0.4773525089      0.1626853657
O       2.2996232177      1.4154371726     -0.1031775091
C      -0.6695770850     -0.8709484169     -0.0944464524
C      -1.9083154543     -1.2266726481     -0.4091363461
C      -0.8442027040      1.7032529500      0.2727847522
H       0.0340831164     -1.5884911058     -0.0536474854
H      -2.7465994555     -0.5161626025     -0.2270180658
H      -2.0974660892     -2.2052413449     -0.3361019879
H      -0.3193724832      2.6556980841      0.5672121804
H      -1.5363689998      1.3360517034      1.1049261793
H      -1.2699694823      1.8182471826     -0.6359826992
12
Frame=61  time=31.000fs  energy=-306.17355837Ha  molecule=COOCCCHHHHHH
C       0.0452312405      0.4794823525      0.1169699400
O       1.3182354561      0.4807741587      0.1625626263
O       2.2975922162      1.4146405533     -0.1028366863
C      -0.6690160989     -0.8734833973     -0.0977974956
C      -1.8981879445     -1.2295851849     -0.4093973051
C      -0.8416091539      1.6980698496      0.2791991384
H       0.0635270339     -1.6043410371     -0.0595332494
H      -2.7444695077     -0.5379336645     -0.2550574289
H      -2.0877028765     -2.1940717791     -0.3461949887
H      -0.3301934173      2.6610872446      0.5782919911
H      -1.5513738721      1.3410055474      1.1044428925
H      -1.2672331266      1.8341973830     -0.6469520561
12
Frame=62  time=31.500fs  energy=-306.17436392Ha  molecule=COOCCCHHHHHH
C       0.0428334703      0.4867742266      0.1176125767
O       1.3109164719      0.4839879758      0.1623502166
O       2.2954780107      1.4138035419     -0.1024405655
C      -0.6680814604     -0.8753576471     -0.1010824721
C      -1.8880967919     -1.2315562567     -0.4094915537
C      -0.8391035637      1.6929629845      0.2864182798
H       0.0956260817     -1.6240499200     -0.0656599758
H      -2.7418372869     -0.5602111352     -0.2842283214
H      -2.0806298506     -2.1954884051     -0.3571198045
H      -0.3405062167      2.6625960804      0.5880141574
H      -1.5646211182      1.3485733981      1.0994166916
H      -1.2684170351      1.8505816365     -0.6617574510
12
Frame=63  time=32.000fs  energy=-306.17502187Ha  molecule=COOCCCHHHHHH
C       0.0405750104      0.4941032065      0.1182546993
O       1.3035055219      0.4869851516      0.1620554752
O       2.2932837138      1.4129308043     -0.1019929659
C      -0.6665203423     -0.8767689000     -0.1042764640
C      -1.8780985769     -1.2326977926     -0.4094631478
C      -0.8368318747      1.6880907174      0.2942036558
H       0.1281846977     -1.6446229256     -0.0720184760
H      -2.7394188971     -0.5822735181     -0.3143221145
H      -2.0758646545     -2.2090241366     -0.3688799948
H      -0.3501127163      2.6601703253      0.5965324626
H      -1.5762160675      1.3583860953      1.0901555159
H      -1.2723971018      1.8667895504     -0.6779313807
12
Frame=64  time=32.500fs  energy=-306.17526292Ha  molecule=COOCCCHHHHHH
C       0.0384436103      0.5013898492      0.1188890039
O       1.2960638112      0.4897508541      0.1616867697
O       2.2910114368      1.4120276422     -0.1014990621
C      -0.6641104397     -0.8779081371     -0.1073630864
C      -1.8682675173     -1.2332632298     -0.4093546031
C      -0.8349145073      1.6835914307      0.3023200526
H       0.1590356069     -1.6634123915     -0.0785730477
H      -2.7380978759     -0.6033987907     -0.3451241740
H      -2.0724916861     -2.2325615434     -0.3814890178
H      -0.3587637145      2.6540174248      0.6041102698
H      -1.5864695766      1.3700437286      1.0772752296
H      -1.2781651791      1.8822712673     -0.6934393176
12
Frame=65  time=33.000fs  energy=-306.17504197Ha  molecule=COOCCCHHHHHH
C       0.0364299762      0.5085852665      0.1195116700
O       1.2886512493      0.4922652932      0.1612516034
O       2.2886631309      1.4110994035     -0.1009642363
C      -0.6606905544     -0.8788992277     -0.1103290777
C      -1.8586919351     -1.2335731262     -0.4092085373
C      -0.8334506321      1.6795700155      0.3105397406
H       0.1866734026     -1.6786558787     -0.0852585686
H      -2.7387451313     -0.6230070816     -0.3764679576
H      -2.0694575892     -2.2632071269     -0.3949313900
H      -0.3661423105      2.6446234670      0.6111293275
H      -1.5958228575      1.3831450059      1.0615925764
H      -1.2848318326      1.8965640347     -0.7066515093
12
Frame=66  time=33.500fs  energy=-306.17444709Ha  molecule=COOCCCHHHHHH
C       0.0345122178      0.5156541688      0.1201211040
O       1.2813283708      0.4945125083      0.1607553853
O       2.2862428769      1.4101508120     -0.1003929019
C      -0.6561673832     -0.8797892712     -0.1131638691
C      -1.8494625143     -1.2339493780     -0.4090542083
C      -0.8325150123      1.6760946632      0.3186498964
H       0.2103647619     -1.6894599944     -0.0920004140
H      -2.7419418834     -0.6407633685     -0.4082881771
H      -2.0659064738     -2.2979083800     -0.4091934154
H      -0.3718993048      2.6326831121      0.6180312573
H      -1.6048184899      1.3972530115      1.0440271291
H      -1.2916501168      1.9093125664     -0.7163207797
12
Frame=67  time=34.000fs  energy=-306.17359457Ha  molecule=COOCCCHHHHHH
C       0.0326453221      0.5225606301      0.1207174774
O       1.2741587968      0.4964894238      0.1602014210
O       2.2837582160      1.4091856136     -0.0997877924
C      -0.6504979532     -0.8805777922     -0.1158612947
C      -1.8406703566     -1.2346873663     -0.4089021696
C      -0.8321444819      1.6731985305      0.3264768489
H       0.2298352977     -1.6954701249     -0.0987378965
H      -2.7477983140     -0.6565592791     -0.4406040775
H      -2.0612372041     -2.3336689314     -0.4242807650
H      -0.3756895387      2.6190115440      0.6252322616
H      -1.6140987505      1.4118647537      1.0255068706
H      -1.2981201960      1.9202818879     -0.7217163950
12
Frame=68  time=34.500fs  energy=-306.17263836Ha  molecule=COOCCCHHHHHH
C       0.0307595842      0.5292591903      0.1213016425
O       1.2672084811      0.4982084231      0.1595915093
O       2.2812195510      1.4082065469     -0.0991498057
C      -0.6436654610     -0.8812482384     -0.1184182258
C      -1.8324086221     -1.2360399960     -0.4087568803
C      -0.8323370484      1.6708847380      0.3338960912
H       0.2448985880     -1.6965244854     -0.1054316861
H      -2.7559158975     -0.6704694465     -0.4734297655
H      -2.0550274286     -2.3676933219     -0.4401762656
H      -0.3771811797      2.6044936641      0.6330803288
H      -1.6243627189      1.4264343401      1.0068783225
H      -1.3040045046      1.9293313455     -0.7226001956
12
Frame=69  time=35.000fs  energy=-306.17179867Ha  molecule=COOCCCHHHHHH
C       0.0287668930      0.5356893231      0.1218727489
O       1.2605417651      0.4996933786      0.1589265458
O       2.2786380069      1.4072154377     -0.0984782095
C      -0.6356727125     -0.8817834327     -0.1208331473
C      -1.8247653937     -1.2381873763     -0.4086323081
C      -0.8330671056      1.6691347076      0.3408234926
H       0.2553105728     -1.6925022235     -0.1120525606
H      -2.7654506092     -0.6827630757     -0.5066784056
H      -2.0469709892     -2.3976582578     -0.4567853572
H      -0.3760607660      2.5900420697      0.6418593306
H      -1.6362732391      1.4404355251      0.9888441409
H      -1.3092297565      1.9363759433     -0.7190341077
12
Frame=70  time=35.500fs  energy=-306.17130832Ha  molecule=COOCCCHHHHHH
C       0.0265710862      0.5417760735      0.1224265535
O       1.2542173631      0.5009734485      0.1582069975
O       2.2760231116      1.4062134775     -0.0977709627
C      -0.6265421401     -0.8821678710     -0.1231056144
C      -1.8178136985     -1.2412189556     -0.4085573819
C      -0.8343041830      1.6679185061      0.3472035206
H       0.2608118087     -1.6833298945     -0.1185685675
H      -2.7752787162     -0.6938613296     -0.5401225965
H      -2.0368627073     -2.4219406884     -0.4739341206
H      -0.3720604978      2.5765236341      0.6518048215
H      -1.6503445552      1.4534260687      0.9719301104
H      -1.3137818424      1.9413650103     -0.7112008154
12
Frame=71  time=36.000fs  energy=-306.17132880Ha  molecule=COOCCCHHHHHH
C       0.0240787137      0.5474354863      0.1229557510
O       1.2482864757      0.5020787134      0.1574332791
O       2.2733814570      1.4052017349     -0.0970250333
C      -0.6163170277     -0.8823820862     -0.1252362516
C      -1.8116047230     -1.2451515132     -0.4085726536
C      -0.8360260167      1.6672059636      0.3530031171
H       0.2612402551     -1.6690666192     -0.1249411446
H      -2.7841992680     -0.7042296357     -0.5734113886
H      -2.0245977191     -2.4395659914     -0.4914030516
H      -0.3650105247      2.5646492585      0.6631025948
H      -1.6668456658      1.4650865742      0.9564795599
H      -1.3176486996      1.9442904678     -0.6993215073
12
Frame=72  time=36.500fs  energy=-306.17188825Ha  molecule=COOCCCHHHHHH
C       0.0212079090      0.5525800970      0.1234516702
O       1.2427929302      0.5030390266      0.1566060065
O       2.2707162499      1.4041815562     -0.0962366218
C      -0.6050708902     -0.8823926191     -0.1272274764
C      -1.8061637270     -1.2499626090     -0.4087243988
C      -0.8382219494      1.6669776960      0.3582114897
H       0.2566852895     -1.6500408843     -0.1311281154
H      -2.7910939273     -0.7142837372     -0.6061144685
H      -2.0101591188     -2.4499817323     -0.5089543991
H      -0.3549061297      2.5548509159      0.6758632634
H      -1.6857479398      1.4752270325      0.9426782022
H      -1.3208092722      1.9452140503     -0.6836606577
12
Frame=73  time=37.000fs  energy=-306.17284678Ha  molecule=COOCCCHHHHHH
C       0.0178939350      0.5571223104      0.1239060289
O       1.2377747259      0.5038850969      0.1557261902
O       2.2680273399      1.4031546341     -0.0954012973
C      -0.5929247205     -0.8821398858     -0.1290842052
C      -1.8014905435     -1.2556147987     -0.4090604245
C      -0.8408866979      1.6672336464      0.3628435930
H       0.2476866361     -1.6270077068     -0.1370882184
H      -2.7950046110     -0.7243483037     -0.6377655814
H      -1.9936015503     -2.4528742827     -0.5263443401
H      -0.3419686420      2.5471923372      0.6900840411
H      -1.7067351512      1.4837663856      0.9306021653
H      -1.3232541144      1.9442931037     -0.6645805544
12
Frame=74  time=37.500fs  energy=-306.17392034Ha  molecule=COOCCCHHHHHH
C       0.0140915817      0.5609790676      0.1243119657
O       1.2332656517      0.5046490716      0.1547955441
O       2.2653116797      1.4021228933     -0.0945142579
C      -0.5800624209     -0.8815287289     -0.1308137642
C      -1.7975646552     -1.2620665557     -0.4096286959
C      -0.8440074370      1.6679947594      0.3669446491
H       0.2354250149     -1.6012409515     -0.1427827938
H      -2.7951537163     -0.7346473780     -0.6678923266
H      -1.9750522827     -2.4481171278     -0.5433332893
H      -0.3266592958      2.5413702624      0.7056174894
H      -1.7292926663      1.4906908730      0.9202761686
H      -1.3250227702      1.9417866164     -0.6426107989
12
Frame=75  time=38.000fs  energy=-306.17476261Ha  molecule=COOCCCHHHHHH
C       0.0097753373      0.5640826622      0.1246640167
O       1.2292953667      0.5053630168      0.1538173350
O       2.2625648219      1.4010888186     -0.0935710643
C      -0.5667409137     -0.8804235335     -0.1324251471
C      -1.7943443205     -1.2692718739     -0.4104752418
C      -0.8475492085      1.6692937717      0.3705930250
H       0.2218316390     -1.5745555571     -0.1481827919
H      -2.7909856846     -0.7452910947     -0.6960465830
H      -1.9547344159     -2.4358594057     -0.5597084435
H      -0.3096104066      2.5368306697      0.7221664034
H      -1.7528741137      1.4959989603      0.9117270355
H      -1.3262415408      1.9380283789     -0.6185063688
12
Frame=76  time=38.500fs  energy=-306.17511448Ha  molecule=COOCCCHHHHHH
C       0.0049372984      0.5663932446      0.1249572930
O       1.2258882848      0.5060599209      0.1527982429
O       2.2597843688      1.4000571786     -0.0925688340
C      -0.5532951682     -0.8786545463     -0.1339286131
C      -1.7917456249     -1.2771634477     -0.4116349571
C      -0.8514461135      1.6711572414      0.3738993743
H       0.2094466151     -1.5493127916     -0.1533065962
H      -2.7822759696     -0.7562518172     -0.7218606876
H      -1.9329637694     -2.4167178370     -0.5753189313
H      -0.2915115816      2.5329314302      0.7393068260
H      -1.7770580136      1.4996524729      0.9050094841
H      -1.3271400307      1.9333832323     -0.5932722273
12
Frame=77  time=39.000fs  energy=-306.17489446Ha  molecule=COOCCCHHHHHH
C      -0.0004170340      0.5678990278      0.1251872776
O       1.2230609139      0.5067797895      0.1517495471
O       2.2569746722      1.3990375717     -0.0915068957
C      -0.5400955414     -0.8760707014     -0.1353359512
C      -1.7896185217     -1.2856142996     -0.4131176712
C      -0.8556077272      1.6735874512      0.3770009061
H       0.2006225516     -1.5280141722     -0.1582663109
H      -2.7691718666     -0.7673664462     -0.7450902715
H      -1.9100964301     -2.3920265175     -0.5901227904
H      -0.2730507406      2.5290462829      0.7565245858
H      -1.8015418359      1.5015661672      0.9001835594
H      -1.3280309661      1.9282478156     -0.5681417578
12
Frame=78  time=39.500fs  energy=-306.17408988Ha  molecule=COOCCCHHHHHH
C      -0.0062684146      0.5686077045      0.1253514277
O       1.2208155188      0.5075692985      0.1506846864
O       2.2541480919      1.3980450458     -0.0903859598
C      -0.5274995975     -0.8725796925     -0.1366590624
C      -1.7877598217     -1.2943948123     -0.4149032534
C      -0.8599422659      1.6765513203      0.3800523330
H       0.1970515269     -1.5129151312     -0.1632581259
H      -2.7520163963     -0.7784227105     -0.7655662168
H      -1.8865156626     -2.3641147188     -0.6042644050
H      -0.2549038763      2.5246294626      0.7732711328
H      -1.8259748598      1.5016552562      0.8972651827
H      -1.3292704733      1.9231117465     -0.5445242991
12
Frame=79  time=40.000fs  energy=-306.17294278Ha  molecule=COOCCCHHHHHH
C      -0.0125768331      0.5685425744      0.1254503798
O       1.2191361243      0.5084737642      0.1496165522
O       2.2513201382      1.3970973996     -0.0892074224
C      -0.5158436114     -0.8681259402     -0.1379071486
C      -1.7859510782     -1.3031800431     -0.4169457261
C      -0.8643750702      1.6799830502      0.3832157355
H       0.2001505388     -1.5061249737     -0.1685155851
H      -2.7312391332     -0.7892677954     -0.7831677544
H      -1.8626569371     -2.3362722185     -0.6181423709
H      -0.2376689470      2.5193051807      0.7890455582
H      -1.8498778711      1.4999083268      0.8961995793
H      -1.3312467452      1.9185786524     -0.5239124919
12
Frame=80  time=40.500fs  energy=-306.17195106Ha  molecule=COOCCCHHHHHH
C      -0.0192754828      0.5677386207      0.1254873006
O       1.2179870979      0.5095285449      0.1485575979
O       2.2485046061      1.3962106596     -0.0879744822
C      -0.5053696462     -0.8627222269     -0.1390887767
C      -1.7839840426     -1.3116162837     -0.4191766048
C      -0.8688554990      1.6837989994      0.3866425954
H       0.2106064889     -1.5089480139     -0.1742432190
H      -2.7074396070     -0.7998682258     -0.7979002335
H      -1.8389587957     -2.3121274250     -0.6323827303
H      -0.2217672007      2.5129260699      0.8034683771
H      -1.8727325212      1.4964337265      0.8968695366
H      -1.3343556989      1.9152884000     -0.5076774683
12
Frame=81  time=41.000fs  energy=-306.17144262Ha  molecule=COOCCCHHHHHH
C      -0.0262675931      0.5662383961      0.1254674726
O       1.2173087744      0.5107522238      0.1475196697
O       2.2457108821      1.3953952461     -0.0866927702
C      -0.4961561671     -0.8564974134     -0.1402171681
C      -1.7816782552     -1.3193953125     -0.4215097456
C      -0.8733657878      1.6879128070      0.3904519282
H       0.2278086976     -1.5211221623     -0.1805494210
H      -2.6814650215     -0.8102513709     -0.8099757504
H      -1.8157281113     -2.2948464275     -0.6477045488
H      -0.2074323811      2.5055360622      0.8163147340
H      -1.8940000885      1.4914716022      0.8991040562
H      -1.3389197260      1.9138126116     -0.4968326282
12
Frame=82  time=41.500fs  energy=-306.17139839Ha  molecule=COOCCCHHHHHH
C      -0.0334248797      0.5640911185      0.1253973656
O       1.2170113244      0.5121431163      0.1465117333
O       2.2429410223      1.3946550471     -0.0853683327
C      -0.4881387867     -0.8496717716     -0.1413113387
C      -1.7789000661     -1.3263143127     -0.4238558056
C      -0.8779297253      1.6922381713      0.3947143846
H       0.2503238997     -1.5409718995     -0.1874004137
H      -2.6544062851     -0.8202938341     -0.8198117619
H      -1.7930560163     -2.2865717529     -0.6647219014
H      -0.1947601520      2.4973045568      0.8275184757
H      -1.9130243999      1.4853837971      0.9026729064
H      -1.3450959106      1.9145785871     -0.4918872108
12
Frame=83  time=42.000fs  energy=-306.17144055Ha  molecule=COOCCCHHHHHH
C      -0.0405993978      0.5613577877      0.1252830300
O       1.2169806610      0.5136835777      0.1455388070
O       2.2401922841      1.3939921964     -0.0840053895
C      -0.4811561633     -0.8425316241     -0.1423957558
C      -1.7755485276     -1.3323042812     -0.4261412708
C      -0.8826063085      1.6966750290      0.3994421664
H       0.2762313070     -1.5657140740     -0.1945880069
H      -2.6275849278     -0.8295124222     -0.8279519340
H      -1.7708879590     -2.2882258014     -0.6837659948
H      -0.1837648644      2.4884995736      0.8371610185
H      -1.9289995863      1.4786210893      0.9072815243
H      -1.3528190467      1.9178249497     -0.4927760250
12
Frame=84  time=42.500fs  energy=-306.17112869Ha  molecule=COOCCCHHHHHH
C      -0.0476463648      0.5581281438      0.1251316202
O       1.2171002489      0.5153495739      0.1446057506
O       2.2374650705      1.3934135932     -0.0826074523
C      -0.4749821897     -0.8354395793     -0.1435005760
C      -1.7715181456     -1.3374215035     -0.4283172624
C      -0.8874655729      1.7011028617      0.4045849768
H       0.3029374013     -1.5916066930     -0.2017560875
H      -2.6025578917     -0.8370850607     -0.8350318000
H      -1.7491841666     -2.2996093851     -0.7048193104
H      -0.1744390614      2.4794446222      0.8454328178
H      -1.9411065839      1.4716749448      0.9126076184
H      -1.3618038092      1.9236039075     -0.4988357276
12
Frame=85  time=43.000fs  energy=-306.17039370Ha  molecule=COOCCCHHHHHH
C      -0.0544327169      0.5545385660      0.1249549242
O       1.2172676403      0.5171161623      0.1437217809
O       2.2347659187      1.3929325885     -0.0811797714
C      -0.4694158469     -0.8287753683     -0.1446559409
C      -1.7666962539     -1.3418314233     -0.4303673007
C      -0.8925697875      1.7054009662      0.4100402768
H       0.3278714242     -1.6149804041     -0.2085425896
H      -2.5809094533     -0.8421095580     -0.8417242882
H      -1.7279828722     -2.3194307121     -0.7275006583
H      -0.1667951547      2.4704104238      0.8525593105
H      -1.9486638702      1.4650090461      0.9183553515
H      -1.3715852644      1.9318114367     -0.5088849812
12
Frame=86  time=43.500fs  energy=-306.16937087Ha  molecule=COOCCCHHHHHH
C      -0.0608350563      0.5507613474      0.1247695230
O       1.2173979665      0.5189595759      0.1429011908
O       2.2321054072      1.3925662982     -0.0797299040
C      -0.4643430087     -0.8228556625     -0.1458855617
C      -1.7609902253     -1.3457890825     -0.4323223665
C      -0.8979688966      1.7094752221      0.4156747384
H       0.3492391486     -1.6332347555     -0.2146965339
H      -2.5639030604     -0.8438216435     -0.8485650904
H      -1.7073697513     -2.3453341628     -0.7510430218
H      -0.1608940773      2.4615269996      0.8587268252
H      -1.9512014892      1.4589860514      0.9242798823
H      -1.3815889334      1.9422212992     -0.5214115618
12
Frame=87  time=44.000fs  energy=-306.16823371Ha  molecule=COOCCCHHHHHH
C      -0.0667465408      0.5469734912      0.1245925934
O       1.2174272869      0.5208610801      0.1421613664
O       2.2294941596      1.3923321325     -0.0782662323
C      -0.4597096222     -0.8179284423     -0.1472084495
C      -1.7543468733     -1.3495914637     -0.4342687369
C      -0.9036948643      1.7132673359      0.4213459038
H       0.3659169139     -1.6447537997     -0.2200523694
H      -2.5522266805     -0.8417292166     -0.8557603920
H      -1.6875212166     -2.3742222612     -0.7743528038
H      -0.1568412279      2.4527850892      0.8640503508
H      -1.9485407355      1.4538257396      0.9302045107
H      -1.3912239639      1.9545178780     -0.5348020922
12
Frame=88  time=44.500fs  energy=-306.16722146Ha  molecule=COOCCCHHHHHH
C      -0.0720847359      0.5433318705      0.1244370308
O       1.2173149167      0.5228068759      0.1415193683
O       2.2269390396      1.3922455063     -0.0767959333
C      -0.4554941848     -0.8141810681     -0.1486403235
C      -1.7467609795     -1.3535027785     -0.4363356434
C      -0.9097542721      1.7167500561      0.4269208469
H       0.3772868735     -1.6486142375     -0.2244745492
H      -2.5458523799     -0.8357766607     -0.8630859660
H      -1.6687609578     -2.4029210474     -0.7962456014
H      -0.1547344231      2.4441148347      0.8685854998
H      -1.9408620705      1.4496024916      0.9360415566
H      -1.3999839457      1.9683546067     -0.5475679369
12
Frame=89  time=45.000fs  energy=-306.16657826Ha  molecule=COOCCCHHHHHH
C      -0.0767912154      0.5399573538      0.1243095121
O       1.2170395828      0.5247862333      0.1409889458
O       2.2244423850      1.3923188798     -0.0753239243
C      -0.4516877360     -0.8117429923     -0.1501923489
C      -1.7382765299     -1.3576935834     -0.4386654542
C      -0.9161290388      1.7199195946      0.4322878046
H       0.3830728759     -1.6443736756     -0.2278447373
H      -2.5440614046     -0.8264436589     -0.8699480918
H      -1.6515336077     -2.4288607871     -0.8157483446
H      -0.1545868676      2.4354979637      0.8723720750
H      -1.9286956359      1.4462723701      0.9417957122
H      -1.4075172582      1.9834136327     -0.5584970984
12
Frame=90  time=45.500fs  energy=-306.16646653Ha  molecule=COOCCCHHHHHH
C      -0.0808246695      0.5369266303      0.1242113569
O       1.2165920273      0.5267926138      0.1405795644
O       2.2220037816      1.3925614090     -0.0738530635
C      -0.4482825157     -0.8106950564     -0.1518716218
C      -1.7289701093     -1.3622284962     -0.4413835632
C      -0.9227853802      1.7227892609      0.4373586646
H       0.3831502211     -1.6319516134     -0.2300855502
H      -2.5457095436     -0.8146330204     -0.8755879593
H      -1.6362876718     -2.4503473374     -0.8322390617
H      -0.1562777483      2.4270566853      0.8754864807
H      -1.9128325664      1.4437226822      0.9475492973
H      -1.4136457641      1.9994329517     -0.5666982897
12
Frame=91  time=46.000fs  energy=-306.16691570Ha  molecule=COOCCCHHHHHH
C      -0.0841536590      0.5342710252      0.1241397642
O       1.2159689140      0.5288273948      0.1402973484
O       2.2196222031      1.3929783827     -0.0723850838
C      -0.4452751757     -0.8110779441     -0.1536825625
C      -1.7189264667     -1.3670889410     -0.4445821634
C      -0.9296813052      1.7253872994      0.4420646262
H       0.3774777832     -1.6116780831     -0.2311998363
H      -2.5495674450     -0.8014432245     -0.8792878019
H      -1.6233458721     -2.4664423158     -0.8454031434
H      -0.1595739049      2.4190719040      0.8780727651
H      -1.8942297569      1.4418214959      0.9534522884
H      -1.4183470096      2.0162014936     -0.5715602512
12
Frame=92  time=46.500fs  energy=-306.16775523Ha  molecule=COOCCCHHHHHH
C      -0.0867534623      0.5319779528      0.1240883369
O       1.2151693811      0.5309043763      0.1401471742
O       2.2172978073      1.3935701276     -0.0709219393
C      -0.4426844450     -0.8128786486     -0.1556253362
C      -1.7082298201     -1.3722015228     -0.4483196232
C      -0.9367649392      1.7277588931      0.4463492281
H       0.3662877978     -1.5845580749     -0.2313180482
H      -2.5544941515     -0.7880060638     -0.8804619715
H      -1.6128270347     -2.4767124594     -0.8551299030
H      -0.1642101895      2.4119238817      0.8803371480
H      -1.8739749318      1.4404324088      0.9597311582
H      -1.4217276069      2.0335366514     -0.5726813904
12
Frame=93  time=47.000fs  energy=-306.16860178Ha  molecule=COOCCCHHHHHH
C      -0.0886059683      0.5299918233      0.1240472278
O       1.2141915602      0.5330529504      0.1401352577
O       2.2150340756      1.3943311988     -0.0694673848
C      -0.4405794841     -0.8159938289     -0.1576912186
C      -1.6969763969     -1.3774634167     -0.4526278620
C      -0.9439701480      1.7299663492      0.4501653309
H       0.3505205052     -1.5525823946     -0.2307296922
H      -2.5594234678     -0.7753908061     -0.8786498641
H      -1.6046328796     -2.4810456740     -0.8614383356
H      -0.1699815567      2.4059856336      0.8825113853
H      -1.8532356020      1.4393930596      0.9666879615
H      -1.4239884796      2.0512588370     -0.5698312071
12
Frame=94  time=47.500fs  energy=-306.16902797Ha  molecule=COOCCCHHHHHH
C      -0.0896980609      0.5282195973      0.1240040840
O       1.2130291734      0.5353149792      0.1402701781
O       2.2128402547      1.3952527341     -0.0680275714
C      -0.4391149541     -0.8202008654     -0.1598597221
C      -1.6852884613     -1.3827642732     -0.4575191286
C      -0.9512201711      1.7320807452      0.4534774606
H       0.3322416132     -1.5187523506     -0.2298664741
H      -2.5632705452     -0.7645339371     -0.8734802470
H      -1.5984973556     -2.4795997309     -0.8644551155
H      -0.1768409396      2.4015127139      0.8847964671
H      -1.8330880681      1.4385023655      0.9746941449
H      -1.4253351824      2.0691792553     -0.5629617896
12
Frame=95  time=48.000fs  energy=-306.16891842Ha  molecule=COOCCCHHHHHH
C      -0.0900239634      0.5265599413      0.1239484671
O       1.2116757371      0.5377327815      0.1405590555
O       2.2107316025      1.3963303947     -0.0666083411
C      -0.4385492676     -0.8251822195     -0.1621030227
C      -1.6732965448     -1.3879979884     -0.4629856814
C      -0.9584271032      1.7341648527      0.4562570345
H       0.3145532813     -1.4867360821     -0.2292512380
H      -2.5649318118     -0.7562121961     -0.8646820705
H      -1.5940723257     -2.4727697823     -0.8644006813
H      -0.1849994803      2.3985775102      0.8873029170
H      -1.8144233240      1.4375188183      0.9842719854
H      -1.4258402642      2.0871154339     -0.5522128110
12
Frame=96  time=48.500fs  energy=-306.16860565Ha  molecule=COOCCCHHHHHH
C      -0.0895981151      0.5249609421      0.1238810720
O       1.2101297824      0.5403349647      0.1410019171
O       2.2087283473      1.3975723777     -0.0652113002
C      -0.4391847360     -0.8306226047     -0.1643978022
C      -1.6611122145     -1.3930618869     -0.4690003890
C      -0.9654765473      1.7362531760      0.4584689273
H       0.3008271184     -1.4601951677     -0.2293919141
H      -2.5634143477     -0.7510102043     -0.8520937793
H      -1.5910395219     -2.4611343688     -0.8615601861
H      -0.1949019915      2.3970889919      0.8900200862
H      -1.7981125369      1.4361377089      0.9961646662
H      -1.4254275091      2.1049305169     -0.5378511044
12
Frame=97  time=49.000fs  energy=-306.16874568Ha  molecule=COOCCCHHHHHH
C      -0.0884599052      0.5234453860      0.1238171834
O       1.2083933362      0.5431293051      0.1415913462
O       2.2068529401      1.3989980723     -0.0638336423
C      -0.4413254204     -0.8362404223     -0.1667263909
C      -1.6488330155     -1.3978438625     -0.4755183114
C      -0.9722347824      1.7383433003      0.4600768622
H       0.2946067844     -1.4426236918     -0.2307184839
H      -2.5579463675     -0.7492896750     -0.8356483972
H      -1.5891690971     -2.4456421100     -0.8563454761
H      -0.2069893946      2.3968954622      0.8928502293
H      -1.7850612939      1.4340197282      1.0111617407
H      -1.4240226404      2.1225544327     -0.5202163815
12
Frame=98  time=49.500fs  energy=-306.17002606Ha  molecule=COOCCCHHHHHH
C      -0.0866706324      0.5220553503      0.1237727200
O       1.2064746942      0.5461055030      0.1423171088
O       2.2051220144      1.4006268881     -0.0624715366
C      -0.4451802055     -0.8418071695     -0.1690714144
C      -1.6365496577     -1.4022133023     -0.4824642917
C      -0.9785958844      1.7404136552      0.4610777000
H       0.2988538291     -1.4365952681     -0.2335239407
H      -2.5481593167     -0.7511614798     -0.8154802118
H      -1.5882707411     -2.4278836260     -0.8494178003
H      -0.2214462510      2.3978904489      0.8957034808
H      -1.7758931823      1.4308962185      1.0297539420
H      -1.4216953083      2.1399690903     -0.4997742617
12
Frame=99  time=50.000fs  energy=-306.17224241Ha  molecule=COOCCCHHHHHH
C      -0.0843147635      0.5207823629      0.1237454670
O       1.2043969747      0.5492418137      0.1431716406
O       2.2035407910      1.4024676781     -0.0611241311
C      -0.4506816026     -0.8472224724     -0.1714169128
C      -1.6243418817     -1.4060322836     -0.4897282872
C      -0.9845196052      1.7424446568      0.4615323919
H       0.3139810794     -1.4422434731     -0.2378346424
H      -2.5342605640     -0.7564713207     -0.7920173063
H      -1.5881523571     -2.4100782453     -0.8416996130
H      -0.2381500147      2.4000600561      0.8985912137
H      -1.7706313789      1.4266713232      1.0518797180
H      -1.4187193409      2.1571821678     -0.4771925518
12
Frame=100  time=50.500fs  energy=-306.17441609Ha  molecule=COOCCCHHHHHH
C      -0.0815017201      0.5195656561      0.1237136160
O       1.2021963485      0.5525078846      0.1441519388
O       2.2021037976      1.4045169061     -0.0597944891
C      -0.4574702983     -0.8525001919     -0.1737458822
C      -1.6122780203     -1.4091733833     -0.4971812525
C      -0.9900254737      1.7444128260      0.4615627097
H       0.3377449428     -1.4573098717     -0.2433876632
H      -2.5169528612     -0.7648409773     -0.7659003861
H      -1.5887508263     -2.3949158024     -0.8343161014
H      -0.2567379045      2.4034833089      0.9016536494
H      -1.7687000505      1.4214616195      1.0769132358
H      -1.4155682170      2.1742398249     -0.4533179631
12
Frame=101  time=51.000fs  energy=-306.17587507Ha  molecule=COOCCCHHHHHH
C      -0.0783528152      0.5183586560      0.1236513648
O       1.1999070677      0.5558621043      0.1452555228
O       2.2008002752      1.4067671152     -0.0584854793
C      -0.4650884400     -0.8576761551     -0.1760373743
C      -1.6004319199     -1.4115352807     -0.5047081332
C      -0.9951569059      1.7462696015      0.4613136637
H       0.3673254086     -1.4788474626     -0.2497660864
H      -2.4970147138     -0.7758014861     -0.7377258283
H      -1.5902573645     -2.3851664546     -0.8284175655
H      -0.2766869589      2.4082946886      0.9051129174
H      -1.7692380582      1.4155203210      1.1039089827
H      -1.4128222001      2.1912406404     -0.4290536402
12
Frame=102  time=51.500fs  energy=-306.17617210Ha  molecule=COOCCCHHHHHH
C      -0.0749914901      0.5171809210      0.1235414100
O       1.1975570044      0.5592517937      0.1464739606
O       2.1996200604      1.4092186156     -0.0571941702
C      -0.4730266578     -0.8628375202     -0.1782747843
C      -1.5889062730     -1.4130751739     -0.5122366271
C      -0.9999596059      1.7479368876      0.4609257598
H       0.3995955133     -1.5036441052     -0.2564409562
H      -2.4751214712     -0.7887854226     -0.7079067860
H      -1.5929468929     -2.3829756015     -0.8248594326
H      -0.2973469357      2.4146029413      0.9092159614
H      -1.7713675581      1.4090773622      1.1318406487
H      -1.4110437541      2.2082691383     -0.4053208531
12
Frame=103  time=52.000fs  energy=-306.17519099Ha  molecule=COOCCCHHHHHH
C      -0.0715495118      0.5160905646      0.1233732618
O       1.1951781893      0.5626195854      0.1477931334
O       2.1985570007      1.4118816197     -0.0559131858
C      -0.4807018651     -0.8681354357     -0.1804395968
C      -1.5778216364     -1.4138710882     -0.5197430923
C      -1.0044974780      1.7493286388      0.4605551515
H       0.4307509641     -1.5280891440     -0.2628302323
H      -2.4522524891     -0.8029231286     -0.6768449009
H      -1.5969068877     -2.3891888050     -0.8239751980
H      -0.3179106535      2.4224003785      0.9142218856
H      -1.7740822601      1.4023121815      1.1595319137
H      -1.4107659806      2.2253310760     -0.3831804134
12
Frame=104  time=52.500fs  energy=-306.17331270Ha  molecule=COOCCCHHHHHH
C      -0.0681550123      0.5151422256      0.1231402711
O       1.1928068604      0.5659122088      0.1491991669
O       2.1976107893      1.4147699338     -0.0546361826
C      -0.4875918205     -0.8736637367     -0.1824873628
C      -1.5673089452     -1.4141469515     -0.5272592346
C      -1.0088558321      1.7503684948      0.4603872299
H       0.4578362897     -1.5492756813     -0.2684960730
H      -2.4298509386     -0.8170716855     -0.6449866503
H      -1.6019584479     -2.4032191236     -0.8255828890
H      -0.3374982634      2.4315421147      0.9203777267
H      -1.7761812146      1.3954404705      1.1855995978
H      -1.4125397668      2.2423907372     -0.3638317862
12
Frame=105  time=53.000fs  energy=-306.17110636Ha  molecule=COOCCCHHHHHH
C      -0.0649211108      0.5143748674      0.1228406122
O       1.1904795719      0.5690905251      0.1506814004
O       2.1967857556      1.4178948574     -0.0533595298
C      -0.4932784580     -0.8794274335     -0.1843480538
C      -1.5575011447     -1.4142279871     -0.5348660323
C      -1.0131074329      1.7510055998      0.4605969107
H       0.4791891556     -1.5654152982     -0.2731953674
H      -2.4096698006     -0.8299587602     -0.6127156007
H      -1.6077860633     -2.4235233722     -0.8291829832
H      -0.3553996416      2.4417721150      0.9278520235
H      -1.7766063834      1.3886906844      1.2087577734
H      -1.4168649626      2.2593905532     -0.3483371912
12
Frame=106  time=53.500fs  energy=-306.16909412Ha  molecule=COOCCCHHHHHH
C      -0.0619464054      0.5138104283      0.1224758914
O       1.1882346181      0.5721346615      0.1522315231
O       2.1960880496      1.4212622265     -0.0520813914
C      -0.4974490335     -0.8853748397     -0.1859439681
C      -1.5485070131     -1.4144701335     -0.5426703345
C      -1.0172882116      1.7512297067      0.4613034660
H       0.4941012719     -1.5757000888     -0.2768476021
H      -2.3935048153     -0.8403886819     -0.5802744768
H      -1.6140826473     -2.4480719117     -0.8341513785
H      -0.3712397202      2.4527670292      0.9366926879
H      -1.7747651615      1.3822164216      1.2281429251
H      -1.4240451909      2.2761761425     -0.3373332443
12
Frame=107  time=54.000fs  energy=-306.16763357Ha  molecule=COOCCCHHHHHH
C      -0.0593179240      0.5134572774      0.1220492005
O       1.1861114570      0.5750405162      0.1538420249
O       2.1955231568      1.4248716456     -0.0508009274
C      -0.4998886610     -0.8914389061     -0.1872083426
C      -1.5404030756     -1.4152001167     -0.5507818171
C      -1.0214044047      1.7510724994      0.4625633571
H       0.5023959715     -1.5799337498     -0.2794636914
H      -2.3828444709     -0.8475103497     -0.5477524725
H      -1.6206093247     -2.4746016239     -0.8398467981
H      -0.3849720045      2.4641627484      0.9468219508
H      -1.7704982683      1.3760862911      1.2433086561
H      -1.4341107199      2.2924209854     -0.3309293626
12
Frame=108  time=54.500fs  energy=-306.16691387Ha  molecule=COOCCCHHHHHH
C      -0.0571133278      0.5133122851      0.1215644648
O       1.1841488727      0.5778121671      0.1555050223
O       2.1950936297      1.4287169005     -0.0495177667
C      -0.5004627875     -0.8975570701     -0.1880948621
C      -1.5332526056     -1.4166731264     -0.5592948961
C      -1.0254484078      1.7505987409      0.4643850686
H       0.5041144211     -1.5781746949     -0.2810810317
H      -2.3785329291     -0.8510229454     -0.5151369501
H      -1.6271803531     -2.5008706850     -0.8456840958
H      -0.3967951149      2.4755555701      0.9580386528
H      -1.7638990550      1.3703229489      1.2540685088
H      -1.4468230306      2.3076167825     -0.3287537705
12
Frame=109  time=55.000fs  energy=-306.16696101Ha  molecule=COOCCCHHHHHH
C      -0.0554020489      0.5133594911      0.1210264824
O       1.1823834313      0.5804554110      0.1572115425
O       2.1947976580      1.4327868265     -0.0482316465
C      -0.4991006378     -0.9036683469     -0.1885776236
C      -1.5271316032     -1.4190476402     -0.5682750468
C      -1.0294068503      1.7498924567      0.4667449255
H       0.4993817979     -1.5705490477     -0.2817357953
H      -2.3805474719     -0.8512519326     -0.4824107844
H      -1.6336310080     -2.5249261758     -0.8511857495
H      -0.4070646179      2.4865098264      0.9700259939
H      -1.7551973500      1.3649229786      1.2603966950
H      -1.4617307148      2.3211371607     -0.3300875941
12
Frame=110  time=55.500fs  energy=-306.16764243Ha  molecule=COOCCCHHHHHH
C      -0.0542440512      0.5135686174      0.1204411723
O       1.1808475551      0.5829749674      0.1589513648
O       2.1946287819      1.4370663169     -0.0469421424
C      -0.4957884180     -0.9097017356     -0.1886466964
C      -1.5221401825     -1.4223835631     -0.5777500431
C      -1.0332612523      1.7490418876      0.4695978243
H       0.4884565454     -1.5572582990     -0.2814709690
H      -2.3880061075     -0.8490641180     -0.4496596936
H      -1.6397952265     -2.5452437479     -0.8559951377
H      -0.4162165586      2.4965883188      0.9823792677
H      -1.7447302184      1.3598451395      1.2624155354
H      -1.4782563008      2.3323464521     -0.3340413070
12
Frame=111  time=56.000fs  energy=-306.16869169Ha  molecule=COOCCCHHHHHH
C      -0.0536861072      0.5138966358      0.1198163013
O       1.1795673781      0.5853755380      0.1607133625
O       2.1945765466      1.4415376796     -0.0456483027
C      -0.4905770496     -0.9155642681     -0.1883032115
C      -1.5183918310     -1.4266643056     -0.5877077809
C      -1.0369869217      1.7481281477      0.4728811081
H       0.4719352222     -1.5387485202     -0.2803718010
H      -2.3994138590     -0.8456353000     -0.4171356893
H      -1.6454970956     -2.5607027200     -0.8598606447
H      -0.4246988849      2.5053934976      0.9946599690
H      -1.7329549990      1.3549892858      1.2604253638
H      -1.4957885396      2.3406903615     -0.3397062538
12
Frame=112  time=56.500fs  energy=-306.16972255Ha  molecule=COOCCCHHHHHH
C      -0.0537562213      0.5142956789      0.1191633631
O       1.1785618737      0.5876641995      0.1624858479
O       2.1946277927      1.4461827798     -0.0443480982
C      -0.4836116683     -0.9211333146     -0.1875568584
C      -1.5159823875     -1.4318306778     -0.5981000643
C      -1.0405534732      1.7472208828      0.4765130785
H       0.4510803873     -1.5159678154     -0.2786153836
H      -2.4130471101     -0.8421402083     -0.3852385582
H      -1.6505533157     -2.5704911042     -0.8626195843
H      -0.4329079431      2.5125969362      1.0064608438
H      -1.7204667302      1.3501895418      1.2549317342
H      -1.5137546395      2.3457234089     -0.3462354960
12
Frame=113  time=57.000fs  energy=-306.17022665Ha  molecule=COOCCCHHHHHH
C      -0.0544583114      0.5147281330      0.1184997999
O       1.1778452803      0.5898505141      0.1642566532
O       2.1947678825      1.4509862487     -0.0430378967
C      -0.4751853530     -0.9262526256     -0.1864261119
C      -1.5149552254     -1.4377983981     -0.6088467005
C      -1.0439273315      1.7463799972      0.4803926782
H       0.4282686715     -1.4906534586     -0.2765197097
H      -2.4272675003     -0.8395324556     -0.3544456499
H      -1.6547902797     -2.5741235024     -0.8642156895
H      -0.4411378769      2.5179484677      1.0174486935
H      -1.7079958994      1.3452192039      1.2466372435
H      -1.5316563456      2.3470882387     -0.3528629523
12
Frame=114  time=57.500fs  energy=-306.16983383Ha  molecule=COOCCCHHHHHH
C      -0.0557711134      0.5151793593      0.1178477505
O       1.1774325978      0.5919456501      0.1660143153
O       2.1949818331      1.4559390844     -0.0417126707
C      -0.4657829748     -0.9307336740     -0.1849393705
C      -1.5152814278     -1.4444475605     -0.6198369792
C      -1.0470754483      1.7456602822      0.4844049027
H       0.4073076621     -1.4655319373     -0.2745705309
H      -2.4406424746     -0.8385543593     -0.3252617904
H      -1.6580817164     -2.5715668040     -0.8647261287
H      -0.4495627646      2.5212866940      1.0273694814
H      -1.6963818430      1.3397801138      1.2363987627
H      -1.5490608004      2.3444918323     -0.3588957801
12
Frame=115  time=58.000fs  energy=-306.16881443Ha  molecule=COOCCCHHHHHH
C      -0.0576488699      0.5156565509      0.1172297140
O       1.1773364199      0.5939633043      0.1677501525
O       2.1952567812      1.4610396920     -0.0403671535
C      -0.4559974160     -0.9344057585     -0.1831415354
C      -1.5168601287     -1.4516124396     -0.6309351190
C      -1.0499677130      1.7451137167      0.4884285095
H       0.3924971983     -1.4437713680     -0.2733361840
H      -2.4519827514     -0.8398493955     -0.2981901327
H      -1.6603688962     -2.5632549864     -0.8643359185
H      -0.4582574931      2.5225684201      1.0360444282
H      -1.6865348748      1.3334878472      1.2251817780
H      -1.5655674002      2.3377011805     -0.3637162825
12
Frame=116  time=58.500fs  energy=-306.16781732Ha  molecule=COOCCCHHHHHH
C      -0.0600176488      0.5161827523      0.1166688542
O       1.1775483124      0.5959135659      0.1694553542
O       2.1955833476      1.4662904811     -0.0389959193
C      -0.4463545171     -0.9371768890     -0.1810962500
C      -1.5195440422     -1.4590849958     -0.6419895950
C      -1.0525775928      1.7447813666      0.4923427274
H       0.3870117919     -1.4279366493     -0.2733221375
H      -2.4603156380     -0.8440166694     -0.2737297548
H      -1.6616495189     -2.5500754582     -0.8633083291
H      -0.4672117744      2.5218979428      1.0433772670
H      -1.6793891640      1.3259038867      1.2140146035
H      -1.5808051879      2.3265642899     -0.3668190576
12
Frame=117  time=59.000fs  energy=-306.16741369Ha  molecule=COOCCCHHHHHH
C      -0.0627795039      0.5167909996      0.1161903242
O       1.1780325516      0.5977976982      0.1711171751
O       2.1959525810      1.4716919962     -0.0375929156
C      -0.4372742902     -0.9390240064     -0.1788751105
C      -1.5231585239     -1.4666160263     -0.6528401092
C      -1.0548854127      1.7446821860      0.4960364764
H       0.3928538782     -1.4197792536     -0.2749430670
H      -2.4648789205     -0.8515831748     -0.2523722187
H      -1.6620003379     -2.5334516315     -0.8619974710
H      -0.4763289502      2.5195312160      1.0493604186
H      -1.6758011836      1.3165939277      1.2038955235
H      -1.5944708482      2.3110687821     -0.3678613035
12
Frame=118  time=59.500fs  energy=-306.16787629Ha  molecule=COOCCCHHHHHH
C      -0.0658321183      0.5175137298      0.1158201212
O       1.1787388389      0.5996137705      0.1727208551
O       2.1963519206      1.4772368526     -0.0361525291
C      -0.4290371269     -0.9399921987     -0.1765556454
C      -1.5275155036     -1.4739237482     -0.6633267102
C      -1.0568878232      1.7448061772      0.4994227534
H       0.4108190137     -1.4200721712     -0.2784405488
H      -2.4652230697     -0.8628698858     -0.2345348196
H      -1.6616021028     -2.5153988047     -0.8608647198
H      -0.4854408702      2.5158347093      1.0540697363
H      -1.6763687406      1.3051915776      1.1956002605
H      -1.6063603129      2.2913837662     -0.3666843658
12
Frame=119  time=60.000fs  energy=-306.16892083Ha  molecule=COOCCCHHHHHH
C      -0.0690790691      0.5183715696      0.1155831185
O       1.1796117818      0.6013618172      0.1742524851
O       2.1967647754      1.4829083302     -0.0346706582
C      -0.4217224559     -0.9402099976     -0.1742274074
C      -1.5324267200     -1.4807001101     -0.6732932387
C      -1.0586075948      1.7451103120      0.5024526814
H       0.4399007764     -1.4282795316     -0.2837710493
H      -2.4612233360     -0.8779138483     -0.2205231620
H      -1.6607265184     -2.4985638015     -0.8604916725
H      -0.4943359967      2.5112348861      1.0576510221
H      -1.6812785919      1.2914737293      1.1894952813
H      -1.6163769565      2.2678464489     -0.3633088504
12
Frame=120  time=60.500fs  energy=-306.16993242Ha  molecule=COOCCCHHHHHH
C      -0.0724228876      0.5193666469      0.1155002769
O       1.1805898047      0.6030431898      0.1757008236
O       2.1971755560      1.4886853993     -0.0331454761
C      -0.4152237782     -0.9398798058     -0.1719896478
C      -1.5377120964     -1.4866278613     -0.6825915977
C      -1.0600949215      1.7455179068      0.5051236304
H       0.4772965662     -1.4426126333     -0.2906125180
H      -2.4529900786     -0.8964984560     -0.2105443612
H      -1.6596746664     -2.4860374973     -0.8615399559
H      -0.5028049923      2.5061852445      1.0603018166
H      -1.6902596560      1.2754371697      1.1854622957
H      -1.6245406123      2.2409243328     -0.3579183748
12
Frame=121  time=61.000fs  energy=-306.17043259Ha  molecule=COOCCCHHHHHH
C      -0.0757604249      0.5204886334      0.1155887100
O       1.1816012829      0.6046579460      0.1770595360
O       2.1975763388      1.4945486599     -0.0315784466
C      -0.4093161415     -0.9392504483     -0.1699478349
C      -1.5432096322     -1.4914393348     -0.6910974267
C      -1.0614186828      1.7459246454      0.5074777488
H       0.5190703928     -1.4604883138     -0.2984352980
H      -2.4408433895     -0.9181873050     -0.2046867346
H      -1.6586311640     -2.4806461231     -0.8646067664
H      -0.5106938242      2.5011244703      1.0622454671
H      -1.7026286368      1.2573372038      1.1829463549
H      -1.6310046921      2.2111787250     -0.3508330127
12
Frame=122  time=61.500fs  energy=-306.17034896Ha  molecule=COOCCCHHHHHH
C      -0.0789907203      0.5217335656      0.1158620373
O       1.1825713664      0.6062059672      0.1783285778
O       2.1979669651      1.5004833071     -0.0299737653
C      -0.4037160317     -0.9386083764     -0.1682138400
C      -1.5487745305     -1.4949817218     -0.6987298746
C      -1.0626541758      1.7462149071      0.5095883571
H       0.5607813205     -1.4790260209     -0.3065585643
H      -2.4253823205     -0.9423273024     -0.2028349108
H      -1.6575455454     -2.4841253772     -0.8700703592
H      -0.5179189856      2.4964256967      1.0637064490
H      -1.7174159421      1.2376330371      1.1811189193
H      -1.6360518879      2.1792337718     -0.3424657035
12
Frame=123  time=62.000fs  energy=-306.16998570Ha  molecule=COOCCCHHHHHH
C      -0.0820181433      0.5231149136      0.1163292091
O       1.1834383957      0.6076889993      0.1795109743
O       2.1983485901      1.5064801130     -0.0283356820
C      -0.3982145099     -0.9382114449     -0.1668784825
C      -1.5542787963     -1.4972546541     -0.7054665608
C      -1.0638718412      1.7462727987      0.5115384811
H       0.5990481879     -1.4959356387     -0.3143780253
H      -2.4075196928     -0.9681139194     -0.2046344275
H      -1.6561939342     -2.4966995421     -0.8780466186
H      -0.5244289900      2.4924176718      1.0649032210
H      -1.7335946917      1.2168787844      1.1791392423
H      -1.6400452884      2.1457438291     -0.3332980683
12
Frame=124  time=62.500fs  energy=-306.16941752Ha  molecule=COOCCCHHHHHH
C      -0.0847511183      0.5246521344      0.1169963990
O       1.1841571680      0.6091083158      0.1806082118
O       2.1987197664      1.5125332083     -0.0266666995
C      -0.3927308964     -0.9382208584     -0.1659896325
C      -1.5596112694     -1.4984236798     -0.7113457368
C      -1.0651311209      1.7459819615      0.5134087178
H       0.6322834694     -1.5099108295     -0.3215402916
H      -2.3884615800     -0.9945996924     -0.2094993181
H      -1.6542681302     -2.5170491386     -0.8884186093
H      -0.5301729480      2.4894183816      1.0660408033
H      -1.7502512408      1.1956509885      1.1763321922
H      -1.6433925078      2.1113624662     -0.3239078843
12
Frame=125  time=63.000fs  energy=-306.16842307Ha  molecule=COOCCCHHHHHH
C      -0.0871065115      0.5263565322      0.1178686587
O       1.1846993345      0.6104663747      0.1816190393
O       2.1990757417      1.5186379978     -0.0249668075
C      -0.3872571596     -0.9387192052     -0.1655650118
C      -1.5646512170     -1.4987996287     -0.7164601958
C      -1.0664785940      1.7452274120      0.5152778002
H       0.6599077703     -1.5202556286     -0.3278816118
H      -2.3697696282     -1.0206144546     -0.2165623353
H      -1.6514318289     -2.5425673837     -0.9008638387
H      -0.5351102586      2.4877059980      1.0672916536
H      -1.7666049167      1.1745141791      1.1722187045
H      -1.6465546736      2.0767315951     -0.3150038155
12
Frame=126  time=63.500fs  energy=-306.16689417Ha  molecule=COOCCCHHHHHH
C      -0.0890143939      0.5282292538      0.1189511349
O       1.1850530011      0.6117695793      0.1825399125
O       2.1994085166      1.5247901298     -0.0232333919
C      -0.3818171438     -0.9397445661     -0.1656086727
C      -1.5692400136     -1.4987751477     -0.7209505623
C      -1.0679448209      1.7439023251      0.5172245149
H       0.6817324949     -1.5266016636     -0.3333391862
H      -2.3534308066     -1.0447288687     -0.2246095126
H      -1.6473998377     -2.5700336097     -0.9149147387
H      -0.5392466173      2.4874737467      1.0687674758
H      -1.7819941722      1.1539951646      1.1665066668
H      -1.6500567354      2.0424722523     -0.3074111830
12
Frame=127  time=64.000fs  energy=-306.16510581Ha  molecule=COOCCCHHHHHH
C      -0.0904206288      0.5302652009      0.1202505862
O       1.1852182484      0.6130286737      0.1833653797
O       2.1997072357      1.5309847686     -0.0214616031
C      -0.3764406119     -0.9413095691     -0.1661188163
C      -1.5731846937     -1.4987355582     -0.7249868329
C      -1.0695424927      1.7419171425      0.5193236751
H       0.6976865259     -1.5287777553     -0.3378954022
H      -2.3416938473     -1.0653982885     -0.2321676020
H      -1.6420273604     -2.5964895442     -0.9300743302
H      -0.5426732406      2.4887978607      1.0704910454
H      -1.7958765102      1.1345548731      1.1590747963
H      -1.6544425571      2.0091494875     -0.3019774888
12
Frame=128  time=64.500fs  energy=-306.16359960Ha  molecule=COOCCCHHHHHH
C      -0.0912879974      0.5324562535      0.1217760777
O       1.1852022110      0.6142571792      0.1840885206
O       2.1999591221      1.5372164474     -0.0196449627
C      -0.3711503891     -0.9434086429     -0.1670901581
C      -1.5763034265     -1.4989899502     -0.7287328987
C      -1.0712719105      1.7392062960      0.5216367914
H       0.7077417430     -1.5267439822     -0.3415508005
H      -2.3365585226     -1.0813201096     -0.2378485072
H      -1.6353224260     -2.6196976439     -0.9458931182
H      -0.5455879118      2.4916181615      1.0723812698
H      -1.8078097002      1.1165822555      1.1499345295
H      -1.6601658009      1.9772215468     -0.2994141095
12
Frame=129  time=65.000fs  energy=-306.16285912Ha  molecule=COOCCCHHHHHH
C      -0.0915957855      0.5347922973      0.1235382746
O       1.1850155706      0.6154697018      0.1847017750
O       2.2001505894      1.5434790563     -0.0177762743
C      -0.3659587536     -0.9460217263     -0.1685151769
C      -1.5784749066     -1.4997426374     -0.7323105606
C      -1.0731317182      1.7357290298      0.5242022278
H       0.7119126802     -1.5205622176     -0.3443165633
H      -2.3393087747     -1.0917192245     -0.2407208606
H      -1.6273725558     -2.6381672900     -0.9620000883
H      -0.5482848755      2.4957409938      1.0742601334
H      -1.8174109717      1.1004162200      1.1391777018
H      -1.6674741635      1.9470062770     -0.3001427343
12
Frame=130  time=65.500fs  energy=-306.16308119Ha  molecule=COOCCCHHHHHH
C      -0.0913387112      0.5372591721      0.1255476931
O       1.1846707714      0.6166814051      0.1851980610
O       2.2002679771      1.5497650867     -0.0158488092
C      -0.3608692442     -0.9491143243     -0.1703848774
C      -1.5796620263     -1.5010981856     -0.7357793651
C      -1.0751278333      1.7314658346      0.5270285384
H       0.7102912657     -1.5104080563     -0.3462191629
H      -2.3503470618     -1.0964112857     -0.2405015009
H      -1.6182648359     -2.6509877784     -0.9781074305
H      -0.5511161296      2.5008714373      1.0758778093
H      -1.8243264369      1.0863643884      1.1269384576
H      -1.6763450630      1.9186862250     -0.3042114378
12
Frame=131  time=66.000fs  energy=-306.16411402Ha  molecule=COOCCCHHHHHH
C      -0.0905267094      0.5398355226      0.1278126756
O       1.1841822653      0.6179084340      0.1855718928
O       2.2002975901      1.5560649314     -0.0138571729
C      -0.3558850110     -0.9526333533     -0.1726876932
C      -1.5799182905     -1.5030753534     -0.7391310449
C      -1.0772763373      1.7264135181      0.5300933680
H       0.7031241376     -1.4966255191     -0.3473158535
H      -2.3691445858     -1.0957959149     -0.2376140829
H      -1.6080569436     -2.6576431558     -0.9939911030
H      -0.5544409013      2.5066619177      1.0769463433
H      -1.8282270421      1.0746975275      1.1133800365
H      -1.6864929518      1.8923455965     -0.3113065541
12
Frame=132  time=66.500fs  energy=-306.16553983Ha  molecule=COOCCCHHHHHH
C      -0.0891854004      0.5424921344      0.1303384265
O       1.1835683715      0.6191688999      0.1858203553
O       2.2002252270      1.5623679176     -0.0117972716
C      -0.3510219941     -0.9565027074     -0.1754073606
C      -1.5793819247     -1.5056192259     -0.7422965855
C      -1.0796003194      1.7205806564      0.5333477574
H       0.6909059391     -1.4798036547     -0.3477190198
H      -2.3942254592     -1.0908381432     -0.2331393696
H      -1.5968008230     -2.6578879360     -1.0094634106
H      -0.5585850811      2.5127579698      1.0771736449
H      -1.8288340581      1.0656164330      1.0987058864
H      -1.6974370790      1.8680132288     -0.3208475053
12
Frame=133  time=67.000fs  energy=-306.16690803Ha  molecule=COOCCCHHHHHH
C      -0.0873550386      0.5451953691      0.1331276045
O       1.1828535263      0.6204841025      0.1859436723
O       2.2000359153      1.5686640507     -0.0096658174
C      -0.3463204278     -0.9606229620     -0.1785216348
C      -1.5782394177     -1.5086214279     -0.7451730700
C      -1.0821219938      1.7139864965      0.5367207170
H       0.6744114479     -1.4608391094     -0.3476221578
H      -2.4234477014     -1.0828778851     -0.2285263596
H      -1.5845870363     -2.6517124230     -1.0243619913
H      -0.5638260278      2.5188270867      1.0762920163
H      -1.8259873235      1.0591916106      1.0832075799
H      -1.7085905398      1.8456938126     -0.3321109913
12
Frame=134  time=67.500fs  energy=-306.16790232Ha  molecule=COOCCCHHHHHH
C      -0.0850854876      0.5479129659      0.1361811883
O       1.1820693864      0.6218787274      0.1859448544
O       2.1997142522      1.5749447676     -0.0074598732
C      -0.3418500083     -0.9648727232     -0.1820015880
C      -1.5766622066     -1.5119495233     -0.7476620464
C      -1.0848509358      1.7066655218      0.5401194877
H       0.6546556134     -1.4409645557     -0.3473270642
H      -2.4546575585     -1.0732656303     -0.2251308999
H      -1.5715638837     -2.6393941948     -1.0385680880
H      -0.5704044411      2.5245620294      1.0740775335
H      -1.8197650659      1.0552897802      1.0673573466
H      -1.7193310776      1.8253814701     -0.3443250544
12
Frame=135  time=68.000fs  energy=-306.16826018Ha  molecule=COOCCCHHHHHH
C      -0.0824289539      0.5506192504      0.1394981111
O       1.1812548803      0.6233776998      0.1858284971
O       2.1992452660      1.5812029939     -0.0051766076
C      -0.3377272101     -0.9691043752     -0.1858093218
C      -1.5747743082     -1.5154593716     -0.7496839699
C      -1.0877718210      1.6986743886      0.5434270387
H       0.6330401357     -1.4217845778     -0.3472848712
H      -2.4860830954     -1.0631924571     -0.2240177103
H      -1.5579177144     -2.6215672231     -1.0520344869
H      -0.5785471675      2.5296699166      1.0703643533
H      -1.8106174305      1.0535154281      1.0519097998
H      -1.7290439622      1.8070650163     -0.3567199158
12
Frame=136  time=68.500fs  energy=-306.16780112Ha  molecule=COOCCCHHHHHH
C      -0.0794362771      0.5532976249      0.1430734635
O       1.1804570430      0.6250019568      0.1856002854
O       2.1986160475      1.5874335526     -0.0028135759
C      -0.3341519422     -0.9731401834     -0.1898933951
C      -1.5726709025     -1.5189870879     -0.7511679387
C      -1.0908388998      1.6900970856      0.5465016867
H       0.6118004245     -1.4053151112     -0.3481350962
H      -2.5161852107     -1.0537934968     -0.2260784906
H      -1.5438583167     -2.5992330275     -1.0647970520
H      -0.5884745972      2.5338785233      1.0650640843
H      -1.7994357770      1.0531763757      1.0379356126
H      -1.7371467972      1.7907373550     -0.3685508512
12
Frame=137  time=69.000fs  energy=-306.16673480Ha  molecule=COOCCCHHHHHH
C      -0.0761575635      0.5559395843      0.1468962310
O       1.1797300876      0.6267688356      0.1852677881
O       2.1978176391      1.5936337835     -0.0003691247
C      -0.3313869129     -0.9767994291     -0.1941917945
C      -1.5704426322     -1.5223485841     -0.7520467248
C      -1.0939817285      1.6810469187      0.5491838835
H       0.5938555014     -1.3937421693     -0.3506292495
H      -2.5434525506     -1.0462085780     -0.2321101803
H      -1.5296277954     -2.5736769773     -1.0769732894
H      -0.6003720610      2.5369667768      1.0581850302
H      -1.7875022814      1.0532798721      1.0267304422
H      -1.7431103665      1.7763945276     -0.3791098472
12
Frame=138  time=69.500fs  energy=-306.16567262Ha  molecule=COOCCCHHHHHH
C      -0.0726429367      0.5585416433      0.1509493238
O       1.1791288645      0.6286925080      0.1848397051
O       2.1968460321      1.5998031938      0.0021576895
C      -0.3296608656     -0.9799448323     -0.1986482984
C      -1.5681726584     -1.5253501809     -0.7522598503
C      -1.0971174283      1.6716587787      0.5513117239
H       0.5817267685     -1.3888962970     -0.3554266114
H      -2.5664657427     -1.0414447717     -0.2427300771
H      -1.5154629872     -2.5464159782     -1.0887936692
H      -0.6143370988      2.5388122123      1.0498385574
H      -1.7763403952      1.0526052525      1.0196467926
H      -1.7464981747      1.7640073423     -0.3877644543
12
Frame=139  time=70.000fs  energy=-306.16526354Ha  molecule=COOCCCHHHHHH
C      -0.0689429119      0.5611020336      0.1552119149
O       1.1787032682      0.6307807701      0.1843231883
O       2.1957016297      1.6059420230      0.0047674319
C      -0.3291081140     -0.9825038064     -0.2032265550
C      -1.5659255113     -1.5277922672     -0.7517508875
C      -1.1001660365      1.6620648459      0.5527426792
H       0.5768043985     -1.3918580194     -0.3629319949
H      -2.5840658884     -1.0401870410     -0.2582842688
H      -1.5015050861     -2.5192938706     -1.1006872162
H      -0.6303384075      2.5394409294      1.0402314852
H      -1.7674606221      1.0499038370      1.0178902160
H      -1.7470186839      1.7534825133     -0.3940286056
12
Frame=140  time=70.500fs  energy=-306.16588391Ha  molecule=COOCCCHHHHHH
C      -0.0651097104      0.5636157794      0.1596602185
O       1.1784960356      0.6330324592      0.1837223449
O       2.1943873674      1.6120486399      0.0074601566
C      -0.3297544482     -0.9844699232     -0.2079146472
C      -1.5637491797     -1.5294748932     -0.7504635009
C      -1.1030702952      1.6523641680      0.5533764724
H       0.5791914780     -1.4027088329     -0.3731991393
H      -2.5954307108     -1.0427228357     -0.2788384731
H      -1.4877393409     -2.4944875565     -1.1133266455
H      -0.6481979236      2.5390421818      1.0296513015
H      -1.7620098613      1.0441830335      1.0222750557
H      -1.7445489670      1.7446332930     -0.3976129544
12
Frame=141  time=71.000fs  energy=-306.16751482Ha  molecule=COOCCCHHHHHH
C      -0.0611986592      0.5660685524      0.1642662520
O       1.1785393159      0.6354345266      0.1830382400
O       2.1929075172      1.6181177454      0.0102346790
C      -0.3315179388     -0.9858910008     -0.2127213279
C      -1.5616811407     -1.5302243252     -0.7483479608
C      -1.1058132843      1.6426027415      0.5531733793
H       0.5878177343     -1.4204596357     -0.3859021516
H      -2.6000787100     -1.0490169377     -0.3042292807
H      -1.4740209580     -2.4741585677     -1.1275198042
H      -0.6676036295      2.5379365012      1.0184485512
H      -1.7604632279      1.0349597949      1.0330132995
H      -1.7391320982      1.7371728130     -0.3984410633
12
Frame=142  time=71.500fs  energy=-306.16977435Ha  molecule=COOCCCHHHHHH
C      -0.0572669706      0.5684323829      0.1689976107
O       1.1788512358      0.6379597080      0.1822696510
O       2.1912683002      1.6241420725      0.0130880228
C      -0.3342253480     -0.9868496660     -0.2176681386
C      -1.5597425484     -1.5299332809     -0.7453791898
C      -1.1084249719      1.6327701139      0.5521642879
H       0.6007377929     -1.4432158642     -0.4003898067
H      -2.5979148119     -1.0588252763     -0.3341102336
H      -1.4601729983     -2.4599056110     -1.1439792324
H      -0.6881553705      2.5365100036      1.0070063948
H      -1.7624956391      1.0223893477      1.0496051767
H      -1.7309798357      1.7307319686     -0.3966388821
12
Frame=143  time=72.000fs  energy=-306.17209812Ha  molecule=COOCCCHHHHHH
C      -0.0533705568      0.5706686500      0.1738206964
O       1.1794392301      0.6405714583      0.1814153664
O       2.1894792953      1.6301166211      0.0160154379
C      -0.3376448777     -0.9874504341     -0.2227842445
C      -1.5579175240     -1.5285915419     -0.7415762255
C      -1.1109721811      1.6228109382      0.5504470361
H       0.6154962659     -1.4685438759     -0.4158039190
H      -2.5893618431     -1.0717315480     -0.3679545981
H      -1.4461081673     -2.4523778991     -1.1631021840
H      -0.7094325353      2.5351372051      0.9956903936
H      -1.7671112770      1.0072045059      1.0708993935
H      -1.7204766062      1.7249055747     -0.3925048148
12
Frame=144  time=72.500fs  energy=-306.17401602Ha  molecule=COOCCCHHHHHH
C      -0.0495623851      0.5727416252      0.1787069065
O       1.1803113261      0.6432359283      0.1804771742
O       2.1875537374      1.6360421026      0.0190110108
C      -0.3415482361     -0.9878030663     -0.2280996242
C      -1.5561308487     -1.5262993705     -0.7370143235
C      -1.1135335824      1.6126469478      0.5481654471
H       0.6297237848     -1.4941028538     -0.4312994816
H      -2.5754539299     -1.0871330434     -0.4050664792
H      -1.4319346999     -2.4511307733     -1.1848177078
H      -0.7310714835      2.5341110063      0.9847861059
H      -1.7730169246      0.9904701099      1.0953921172
H      -1.7081531288      1.7193348370     -0.3864859574
12
Frame=145  time=73.000fs  energy=-306.17522942Ha  molecule=COOCCCHHHHHH
C      -0.0458906692      0.5746327776      0.1836368134
O       1.1814850909      0.6459280466      0.1794597367
O       2.1855060988      1.6419246756      0.0220689243
C      -0.3457680129     -0.9879954714     -0.2336333232
C      -1.5542458212     -1.5232593893     -0.7318243874
C      -1.1161740372      1.6022014403      0.5454820688
H       0.6417297343     -1.5182213286     -0.4462672574
H      -2.5577418602     -1.1042613474     -0.4446533005
H      -1.4179912053     -2.4547279647     -1.2085397761
H      -0.7528158443      2.5335880125      0.9744515977
H      -1.7790441756      0.9732835483      1.1216366234
H      -1.6946391922      1.7137867256     -0.3791817885
12
Frame=146  time=73.500fs  energy=-306.17554258Ha  molecule=COOCCCHHHHHH
C      -0.0423922460      0.5763427309      0.1885981780
O       1.1829861130      0.6486272313      0.1783673248
O       2.1833482711      1.6477725617      0.0251846996
C      -0.3501904687     -0.9880850775     -0.2393859700
C      -1.5520835008     -1.5197438741     -0.7261817596
C      -1.1189343030      1.5914157045      0.5425634134
H       0.6504819697     -1.5398711669     -0.4603429445
H      -2.5381648639     -1.1222015176     -0.4858844455
H      -1.4047617714     -2.4611558192     -1.2332937100
H      -0.7745028649      2.5335721192      0.9647228203
H      -1.7843476334      0.9565954570      1.1484540410
H      -1.6806454518      1.7081672490     -0.3713571241
12
Frame=147  time=74.000fs  energy=-306.17490134Ha  molecule=COOCCCHHHHHH
C      -0.0390846284      0.5778830419      0.1935814270
O       1.1848400465      0.6513130238      0.1772017054
O       2.1810880029      1.6535930128      0.0283554577
C      -0.3547178475     -0.9881086003     -0.2453394256
C      -1.5494426919     -1.5160595394     -0.7202921196
C      -1.1218347289      1.5802523809      0.5395789017
H       0.6552787296     -1.5583285493     -0.4732868312
H      -2.5190572325     -1.1398650996     -0.5279092996
H      -1.3927296233     -2.4682851474     -1.2579120761
H      -0.7960126674      2.5339478267      0.9555703394
H      -1.7883580649      0.9411942548      1.1748894222
H      -1.6669831818      1.7024715701     -0.3639376911
12
Frame=148  time=74.500fs  energy=-306.17354150Ha  molecule=COOCCCHHHHHH
C      -0.0359670014      0.5792667422      0.1985768807
O       1.1870673217      0.6539670068      0.1759629733
O       2.1787305960      1.6593916766      0.0315794287
C      -0.3592512765     -0.9880927204     -0.2514632059
C      -1.5460977702     -1.5125233859     -0.7143740153
C      -1.1248809944      1.5686954693      0.5367008145
H       0.6555563867     -1.5730096905     -0.4849080529
H      -2.5032678883     -1.1559443960     -0.5698912220
H      -1.3822873170     -2.4741366492     -1.2811706280
H      -0.8172331093      2.5345148690      0.9469594896
H      -1.7906830508      0.9277317256      1.2001094204
H      -1.6545691446      1.6967108954     -0.3579772169
12
Frame=149  time=75.000fs  energy=-306.17209878Ha  molecule=COOCCCHHHHHH
C      -0.0330300362      0.5805034346      0.2035740983
O       1.1896833972      0.6565764752      0.1746509920
O       2.1762806692      1.6651731314      0.0348556766
C      -0.3637019693     -0.9880624319     -0.2577255157
C      -1.5418151746     -1.5094175811     -0.7086213797
C      -1.1280689493      1.5567555719      0.5340969750
H       0.6508920050     -1.5834725761     -0.4950433951
H      -2.4938602200     -1.1690789368     -0.6111631970
H      -1.3737105989     -2.4771365450     -1.3019610864
H      -0.8380514570      2.5349860234      0.9388695720
H      -1.7910528632      0.9166997381      1.2233522581
H      -1.6443442642      1.6908528004     -0.3545580419
12
Frame=150  time=75.500fs  energy=-306.17127553Ha  molecule=COOCCCHHHHHH
C      -0.0302629011      0.5815973063      0.2085615993
O       1.1926992221      0.6591341533      0.1732655075
O       2.1737417668      1.6709406500      0.0381841790
C      -0.3680018056     -0.9880405115     -0.2640989264
C      -1.5364475232     -1.5069293886     -0.7031668986
C      -1.1313915831      1.5444738833      0.5319134766
H       0.6410590383     -1.5894043698     -0.5035446002
H      -2.4929280720     -1.1783490464     -0.6514345025
H      -1.3671601680     -2.4762908466     -1.3194474596
H      -0.8583544705      2.5349838433      0.9312769899
H      -1.7893057900      0.9083906235      1.2439367634
H      -1.6371130683      1.6847815643     -0.3545957963
12
Frame=151  time=76.000fs  energy=-306.17134960Ha  molecule=COOCCCHHHHHH
C      -0.0276524195      0.5825433817      0.2135254094
O       1.1961188672      0.6616357406      0.1718059645
O       2.1711155542      1.6766953902      0.0415656529
C      -0.3720903260     -0.9880363142     -0.2705553390
C      -1.5300143451     -1.5051399095     -0.6980924396
C      -1.1348465472      1.5319195028      0.5302545702
H       0.6259984107     -1.5905684632     -0.5102648038
H      -2.5007575039     -1.1835484665     -0.6907123660
H      -1.3626860438     -2.4711200767     -1.3330665786
H      -0.8780286999      2.5340757104      0.9241420987
H      -1.7853936413      0.9028908047      1.2612984858
H      -1.6334058471      1.6782847174     -0.3586268039
12
Frame=152  time=76.500fs  energy=-306.17208870Ha  molecule=COOCCCHHHHHH
C      -0.0251790194      0.5833252081      0.2184480106
O       1.1999359798      0.6640791957      0.1702720891
O       2.1684021260      1.6824360216      0.0450011403
C      -0.3759010756     -0.9880349613     -0.2770592198
C      -1.5227153377     -1.5040512192     -0.6934637928
C      -1.1384411408      1.5191830439      0.5291698166
H       0.6057804257     -1.5868041058     -0.5150654057
H      -2.5157951381     -1.1851070670     -0.7290269721
H      -1.3602223794     -2.4615297564     -1.3424668757
H      -0.8969636054      2.5318263906      0.9174120808
H      -1.7793775886      0.9001156209      1.2750200675
H      -1.6334206313      1.6710740132     -0.3666743454
12
Frame=153  time=77.000fs  energy=-306.17300797Ha  molecule=COOCCCHHHHHH
C      -0.0228161245      0.5839158863      0.2233089273
O       1.2041313385      0.6664663252      0.1686646818
O       2.1656011107      1.6881590985      0.0484918048
C      -0.3793639338     -0.9879891997     -0.2835658107
C      -1.5148923772     -1.5036181051     -0.6893521196
C      -1.1421931745      1.5063695278      0.5286521565
H       0.5806673898     -1.5781433785     -0.5178593250
H      -2.5351375342     -1.1838315565     -0.7662019748
H      -1.3595612648     -2.4477491761     -1.3474916113
H      -0.9150553966      2.5278376462      0.9110302880
H      -1.7714122173      0.8998528366      1.2848452511
H      -1.6370354073      1.6628212332     -0.3782341170
12
Frame=154  time=77.500fs  energy=-306.17367066Ha  molecule=COOCCCHHHHHH
C      -0.0205344172      0.5842826758      0.2280864288
O       1.2086730235      0.6688051031      0.1669860221
O       2.1627132482      1.6938601706      0.0520388807
C      -0.3824157561     -0.9878161233     -0.2900219841
C      -1.5069520162     -1.5037753580     -0.6858340303
C      -1.1461282693      1.4935914529      0.5286461263
H       0.5512880703     -1.5650045948     -0.5186808365
H      -2.5554944078     -1.1805545778     -0.8017967164
H      -1.3603201404     -2.4303043840     -1.3481817101
H      -0.9322039005      2.5217742401      0.9049511399
H      -1.7617357091      0.9017830668      1.2906743155
H      -1.6438707191      1.6531866507     -0.3923823376
12
Frame=155  time=78.000fs  energy=-306.17378526Ha  molecule=COOCCCHHHHHH
C      -0.0183059750      0.5843963769      0.2327596695
O       1.2135194074      0.6711096962      0.1652396972
O       2.1597414321      1.6995351182      0.0556435346
C      -0.3850121982     -0.9874041215     -0.2963658154
C      -1.4993036923     -1.5044484691     -0.6829812484
C      -1.1502745353      1.4809634007      0.5290600714
H       0.5188261291     -1.5483227592     -0.5177486465
H      -2.5739462342     -1.1759567978     -0.8352130377
H      -1.3619583803     -2.4099602454     -1.3447496700
H      -0.9483031228      2.5133897074      0.8991585505
H      -1.7506813396      0.9054695165      1.2925743178
H      -1.6533754529      1.6418392714     -0.4079550328
12
Frame=156  time=78.500fs  energy=-306.17319728Ha  molecule=COOCCCHHHHHH
C      -0.0161044014      0.5842399864      0.2373101749
O       1.2186241520      0.6733963700      0.1634296975
O       2.1566904770      1.7051811952      0.0593067217
C      -0.3871461154     -0.9866236570     -0.3025249690
C      -1.4923223362     -1.5055535247     -0.6808496540
C      -1.1546555837      1.4685989712      0.5297745299
H       0.4850914314     -1.5295083582     -0.5154876208
H      -2.5882162477     -1.1705818359     -0.8658394379
H      -1.3638604420     -2.3876733201     -1.3375692745
H      -0.9632326701      2.5025663832      0.8936819411
H      -1.7387117493      0.9103244468      1.2908382260
H      -1.6649009431      1.6284859210     -0.4237183260
12
Frame=157  time=79.000fs  energy=-306.17188961Ha  molecule=COOCCCHHHHHH
C      -0.0139012548      0.5838074336      0.2417220174
O       1.2239415414      0.6756781368      0.1615591178
O       2.1535663907      1.7107981839      0.0630293708
C      -0.3888734867     -0.9853328930     -0.3084178103
C      -1.4863169206     -1.5069905522     -0.6794659505
C      -1.1592833439      1.4566061997      0.5306453858
H       0.4524357716     -1.5102483629     -0.5124828976
H      -2.5966561678     -1.1649250636     -0.8931518364
H      -1.3654565451     -2.3646644151     -1.3272616860
H      -0.9768558368      2.4893813910      0.8886136132
H      -1.7264475384      0.9155890282      1.2860590587
H      -1.6777507290      1.6129118282     -0.4384866267
12
Frame=158  time=79.500fs  energy=-306.16999067Ha  molecule=COOCCCHHHHHH
C      -0.0116621542      0.5830997224      0.2459824756
O       1.2294296432      0.6779619749      0.1596291444
O       2.1503751005      1.7163893109      0.0668130877
C      -0.3903208619     -0.9833854425     -0.3139606463
C      -1.4815118686     -1.5086327931     -0.6788141001
C      -1.1641544414      1.4450773989      0.5315071241
H       0.4235534958     -1.4922635484     -0.5093657184
H      -2.5981381893     -1.1594988599     -0.9167536675
H      -1.3663499553     -2.3425890649     -1.3148561672
H      -0.9890242045      2.4741733972      0.8841208900
H      -1.7146545800      0.9203815530      1.2791398002
H      -1.6912223093      1.5950198350     -0.4511751245
12
Frame=159  time=80.000fs  energy=-306.16783355Ha  molecule=COOCCCHHHHHH
C      -0.0093452882      0.5821292184      0.2500844446
O       1.2350489920      0.6802495992      0.1576392822
O       2.1471209980      1.7219615204      0.0706609284
C      -0.3916844938     -0.9806270261     -0.3190695060
C      -1.4780518991     -1.5103269819     -0.6788379773
C      -1.1692504595      1.4340774743      0.5321788565
H       0.4015529365     -1.4773824770     -0.5067809656
H      -2.5919929928     -1.1547837843     -0.9363414665
H      -1.3663592398     -2.3235922119     -1.3018312224
H      -0.9995746437      2.4575692197      0.8804320061
H      -1.7042060847      0.9237721699      1.2712287406
H      -1.7046625191      1.5748439768     -0.4608103103
12
Frame=160  time=80.500fs  energy=-306.16621980Ha  molecule=COOCCCHHHHHH
C      -0.0069054320      0.5809163046      0.2540256503
O       1.2407586353      0.6825421020      0.1555899133
O       2.1438074922      1.7275247281      0.0745769313
C      -0.3932222940     -0.9768793180     -0.3236545521
C      -1.4760138856     -1.5119134835     -0.6794640475
C      -1.1745390432      1.4236430656      0.5324758386
H       0.3900549515     -1.4677804027     -0.5054372771
H      -2.5780215284     -1.1511178547     -0.9516459338
H      -1.3654558986     -2.3100809125     -1.2899013405
H      -1.0083369745      2.4404312047      0.8777893464
H      -1.6960193217      0.9247987555      1.2636333229
H      -1.7175117915      1.5525228584     -0.4665765683
12
Frame=161  time=81.000fs  energy=-306.16615282Ha  molecule=COOCCCHHHHHH
C      -0.0043079427      0.5794762107      0.2578036310
O       1.2465142300      0.6848408710      0.1534840422
O       2.1404390626      1.7330879128      0.0785637126
C      -0.3951159210     -0.9719981628     -0.3276443637
C      -1.4754126403     -1.5132571386     -0.6806198402
C      -1.1799776414      1.4137859763      0.5322346598
H       0.3916918064     -1.4651459450     -0.5058247426
H      -2.5565720972     -1.1486367877     -0.9624799812
H      -1.3636404238     -2.3042654115     -1.2806438626
H      -1.0151786517      2.4237071938      0.8764012274
H      -1.6909083457      0.9225377848      1.2576298943
H      -1.7293179883      1.5282516326     -0.4679055086
12
Frame=162  time=81.500fs  energy=-306.16771726Ha  molecule=COOCCCHHHHHH
C      -0.0015434191      0.5778115780      0.2614107704
O       1.2522684019      0.6871440747      0.1513272107
O       2.1370230545      1.7386537867      0.0826195803
C      -0.3972880702     -0.9659843958     -0.3310292870
C      -1.4761879468     -1.5142812418     -0.6822452534
C      -1.1855218675      1.4044907560      0.5313429431
H       0.4058646208     -1.4692855215     -0.5077902724
H      -2.5286397717     -1.1472601641     -0.9688677783
H      -1.3608351693     -2.3075478247     -1.2750399311
H      -1.0200507121      2.4082568784      0.8764111770
H      -1.6894021647      0.9162825908      1.2541849121
H      -1.7397290861      1.5022399544     -0.4645173478
12
Frame=163  time=82.000fs  energy=-306.17002632Ha  molecule=COOCCCHHHHHH
C       0.0013768659      0.5759140060      0.2648339043
O       1.2579715445      0.6894487186      0.1491287456
O       2.1335702173      1.7442194961      0.0867382845
C      -0.3994409432     -0.9589822881     -0.3338576121
C      -1.4781775684     -1.5150000514     -0.6843036899
C      -1.1911344933      1.3957155914      0.5297566301
H       0.4290618791     -1.4783120966     -0.5106697960
H      -2.4960218635     -1.1466097378     -0.9711426692
H      -1.3569435147     -2.3201155189     -1.2731818246
H      -1.0230020706      2.3947323380      0.8778769272
H      -1.6916461829      0.9056794036      1.2537954550
H      -1.7485130349      1.4746918875     -0.4564329632
12
Frame=164  time=82.500fs  energy=-306.17216675Ha  molecule=COOCCCHHHHHH
C       0.0044424358      0.5737662505      0.2680566378
O       1.2635744286      0.6917560438      0.1469028571
O       2.1300935034      1.7497827429      0.0909118814
C      -0.4012641288     -0.9511773618     -0.3361948784
C      -1.4811227081     -1.5155252591     -0.6867831046
C      -1.1967934419      1.3874001867      0.5275038766
H       0.4574218197     -1.4900575991     -0.5137637641
H      -2.4613255545     -1.1458950665     -0.9699353138
H      -1.3519932452     -2.3410707739     -1.2743802331
H      -1.0241548440      2.3835033944      0.8807425478
H      -1.6974086447      0.8907593041      1.2565100005
H      -1.7556280615      1.4458327856     -0.4440052563
12
Frame=165  time=83.000fs  energy=-306.17349293Ha  molecule=COOCCCHHHHHH
C       0.0076548760      0.5713419286      0.2710600170
O       1.2690358375      0.6940731209      0.1446666263
O       2.1266053797      1.7553449199      0.0951337361
C      -0.4025296732     -0.9427594305     -0.3381082124
C      -1.4847008547     -1.5160399501     -0.6896856249
C      -1.2024921609      1.3794713383      0.5246890143
H       0.4879242446     -1.5026045007     -0.5164844381
H      -2.4276888427     -1.1439627666     -0.9660866480
H      -1.3461829654     -2.3687935771     -1.2774565381
H      -1.0236905334      2.3746053778      0.8848053397
H      -1.7061209324      0.8719453274      1.2620056775
H      -1.7613046603      1.4160093382     -0.4279920278
12
Frame=166  time=83.500fs  energy=-306.17371622Ha  molecule=COOCCCHHHHHH
C       0.0110213725      0.5686143835      0.2738266547
O       1.2743304055      0.6964104015      0.1424361459
O       2.1231154149      1.7609101519      0.0993997384
C      -0.4031034719     -0.9339283618     -0.3396679156
C      -1.4885406049     -1.5167612532     -0.6930100840
C      -1.2082272680      1.3718479421      0.5214960901
H       0.5182414571     -1.5143046878     -0.5183835088
H      -2.3984092687     -1.1395064696     -0.9605807959
H      -1.3398363120     -2.4012372329     -1.2810178556
H      -1.0218851605      2.3677320326      0.8897103234
H      -1.7169250138      0.8500496884      1.2696325569
H      -1.7660749849      1.3857362437     -0.4095977858
12
Frame=167  time=84.000fs  energy=-306.17301499Ha  molecule=COOCCCHHHHHH
C       0.0145461105      0.5655720185      0.2763463360
O       1.2794453690      0.6987747241      0.1402231324
O       2.1196296762      1.7664833576      0.1037080257
C      -0.4029450997     -0.9248784488     -0.3409461337
C      -1.4922576049     -1.5179109463     -0.6967484627
C      -1.2139820266      1.3644522507      0.5181702461
H       0.5466077872     -1.5239065170     -0.5191956087
H      -2.3764304261     -1.1312602906     -0.9543750795
H      -1.3333077843     -2.4361526944     -1.2836655428
H      -1.0191258378      2.3623347597      0.8949753441
H      -1.7288130764      0.8261234242      1.2784970150
H      -1.7707008229      1.3555805871     -0.3903451720
12
Frame=168  time=84.500fs  energy=-306.17190354Ha  molecule=COOCCCHHHHHH
C       0.0182272929      0.5622196997      0.2786133322
O       1.2843708035      0.7011649469      0.1380345691
O       2.1161512811      1.7720689341      0.1080582313
C      -0.4020643727     -0.9157738505     -0.3420083886
C      -1.4955324485     -1.5196958393     -0.7009027693
C      -1.2197150083      1.3572219600      0.5149845572
H       0.5717579954     -1.5305284164     -0.5187774886
H      -2.3637987282     -1.1182131461     -0.9481546308
H      -1.3269618135     -2.4712976823     -1.2841524183
H      -1.0158801537      2.3577866110      0.9000425352
H      -1.7408215886      0.8012247916      1.2876047949
H      -1.7760554421      1.3260295191     -0.3718734711
12
Frame=169  time=85.000fs  energy=-306.17092229Ha  molecule=COOCCCHHHHHH
C       0.0220551125      0.5585691962      0.2806206058
O       1.2890938506      0.7035732894      0.1358744048
O       2.1126814563      1.7776703413      0.1124507088
C      -0.4004801375     -0.9067342031     -0.3429042699
C      -1.4981668548     -1.5222768730     -0.7054907312
C      -1.2253576348      1.3501182809      0.5122126233
H       0.5928740891     -1.5335837081     -0.5170531852
H      -2.3613674874     -1.0999038627     -0.9422372957
H      -1.3211945280     -2.5046820982     -1.2815370664
H      -1.0126507984      2.3534827443      0.9043442278
H      -1.7521431449      0.7762930663      1.2959861013
H      -1.7830300408      1.2974446783     -0.3557873322
12
Frame=170  time=85.500fs  energy=-306.17037999Ha  molecule=COOCCCHHHHHH
C       0.0260097419      0.5546318186      0.2823582659
O       1.2935974326      0.7059880345      0.1337448690
O       2.1092207111      1.7832898164      0.1168857815
C      -0.3982060700     -0.8978378554     -0.3436667221
C      -1.5000905168     -1.5257379840     -0.7105374210
C      -1.2308263188      1.3431244709      0.5100962844
H       0.6094611279     -1.5327300083     -0.5140034474
H      -2.3687665254     -1.0766545020     -0.9366313508
H      -1.3164127901     -2.5346780882     -1.2752289698
H      -1.0099239077      2.3488815441      0.9073686248
H      -1.7621541120      0.7521164200      1.3027972157
H      -1.7924021297      1.2700803899     -0.3434458882
12
Frame=171  time=86.000fs  energy=-306.17027033Ha  molecule=COOCCCHHHHHH
C       0.0300630612      0.5504144729      0.2838136548
O       1.2978609596      0.7083958826      0.1316474575
O       2.1057696185      1.7889278097      0.1213631173
C      -0.3952504305     -0.8891359921     -0.3443173603
C      -1.5013408481     -1.5300721751     -0.7160647716
C      -1.2360461572      1.3362338282      0.5088098443
H       0.6212330254     -1.5278104144     -0.5096522285
H      -2.3845606828     -1.0496582662     -0.9311502119
H      -1.3129995950     -2.5599714613     -1.2649298396
H      -1.0081211134      2.3435459470      0.9087099516
H      -1.7704080028      0.7293223324      1.3074120015
H      -1.8046581324      1.2441964254     -0.3357039276
12
Frame=172  time=86.500fs  energy=-306.17036284Ha  molecule=COOCCCHHHHHH
C       0.0341805050      0.5459159650      0.2849701721
O       1.3018630711      0.7107849718      0.1295841649
O       2.1023294312      1.7945831098      0.1258815448
C      -0.3916239967     -0.8806688777     -0.3448729534
C      -1.5020345218     -1.5351809482     -0.7220834190
C      -1.2409736859      1.3294354615      0.5084384451
H       0.6280552906     -1.5188046202     -0.5040480273
H      -2.4064685732     -1.0209458472     -0.9255169314
H      -1.3112987448     -2.5794747170     -1.2505498969
H      -1.0075802482      2.3371633377      0.9080857584
H      -1.7765966353      0.7083806048      1.3094713669
H      -1.8198396074      1.2202160757     -0.3327413960
12
Frame=173  time=87.000fs  energy=-306.17044948Ha  molecule=COOCCCHHHHHH
C       0.0383196052      0.5411243966      0.2858064181
O       1.3055862201      0.7131496042      0.1275590923
O       2.0989034493      1.8002544692      0.1304393309
C      -0.3873471145     -0.8724795761     -0.3453494661
C      -1.5023295277     -1.5408884713     -0.7285827474
C      -1.2456104005      1.3227033998      0.5089766273
H       0.6298977278     -1.5058129435     -0.4972737083
H      -2.4317689253     -0.9930990978     -0.9194758108
H      -1.3115734616     -2.5923380456     -1.2321626425
H      -1.0085501210      2.3295587079      0.9053371973
H      -1.7804956168      0.6896308321      1.3088739266
H      -1.8374748488      1.1987865105     -0.3340511836
12
Frame=174  time=87.500fs  energy=-306.17047114Ha  molecule=COOCCCHHHHHH
C       0.0424300525      0.5360181763      0.2862967899
O       1.3090204031      0.7154951340      0.1255802962
O       2.0954986160      1.8059423301      0.1350342907
C      -0.3824515727     -0.8646209291     -0.3457637968
C      -1.5023827469     -1.5469671385     -0.7355163782
C      -1.2500032547      1.3159931338      0.5103456890
H       0.6267855626     -1.4890558335     -0.4894699553
H      -2.4579109944     -0.9686975797     -0.9129043869
H      -1.3139056596     -2.5981593861     -1.2100590959
H      -1.0111677075      2.3207473893      0.9004428781
H      -1.7819271215      0.6733133876      1.3057372754
H      -1.8566428967      1.1806630933     -0.3386218145
12
Frame=175  time=88.000fs  energy=-306.17041698Ha  molecule=COOCCCHHHHHH
C       0.0464593771      0.5305691265      0.2864117559
O       1.3121636086      0.7178399252      0.1236610928
O       2.0921257042      1.8116486698      0.1396633315
C      -0.3769884537     -0.8571556579     -0.3461353057
C      -1.5023443055     -1.5531444134     -0.7427988570
C      -1.2542351140      1.3092468250      0.5124185878
H       0.6188070635     -1.4688668629     -0.4808315025
H      -2.4826602116     -0.9500239551     -0.9058002734
H      -1.3181066719     -2.5972078181     -1.1848155056
H      -1.0154274501      2.3109772347      0.8935410800
H      -1.7807472091      0.6595787002      1.3003833273
H      -1.8761334438      1.1665347361     -0.3452289701
12
Frame=176  time=88.500fs  energy=-306.17032897Ha  molecule=COOCCCHHHHHH
C       0.0503611429      0.5247442932      0.2861169202
O       1.3150194351      0.7202133346      0.1218199692
O       2.0887976119      1.8173753105      0.1443220809
C      -0.3710344948     -0.8501456613     -0.3464815740
C      -1.5023705457     -1.5591066141     -0.7503163774
C      -1.2584102517      1.3024047478      0.5150406356
H       0.6062037341     -1.4456805173     -0.4715887929
H      -2.5039428935     -0.9390687251     -0.8982134765
H      -1.3237432692     -2.5904926892     -1.1572842341
H      -1.0211818240      2.3006787108      0.8849225193
H      -1.7768591237      0.6484738514      1.2933306191
H      -1.8946276516      1.1569673956     -0.3526665942
12
Frame=177  time=89.000fs  energy=-306.17031975Ha  molecule=COOCCCHHHHHH
C       0.0541022748      0.5185108243      0.2853739308
O       1.3175930017      0.7226490759      0.1200780766
O       2.0855259100      1.8231221860      0.1490055528
C      -0.3647023065     -0.8436294346     -0.3468100195
C      -1.5025970496     -1.5645411557     -0.7579446147
C      -1.2626358889      1.2954166388      0.5180449813
H       0.5895756942     -1.4200805556     -0.4620001344
H      -2.5200020458     -0.9373454662     -0.8902096165
H      -1.3303074422     -2.5795909706     -1.1284589078
H      -1.0281924587      2.2903383172      0.8749768607
H      -1.7702409253      0.6399103203      1.2852431749
H      -1.9108865005      1.1524275856     -0.3598752340
12
Frame=178  time=89.500fs  energy=-306.17037093Ha  molecule=COOCCCHHHHHH
C       0.0576650690      0.5118565401      0.2841476713
O       1.3198865350      0.7251741008      0.1184540041
O       2.0823163062      1.8288865523      0.1537099907
C      -0.3581609975     -0.8376004922     -0.3471150675
C      -1.5030943499     -1.5691724649     -0.7655590268
C      -1.2669952327      1.2882477606      0.5212668916
H       0.5701839302     -1.3930138199     -0.4523819991
H      -2.5296786911     -0.9455809970     -0.8818385802
H      -1.3373731325     -2.5665048493     -1.0993537243
H      -1.0362066499      2.2804064416      0.8641439933
H      -1.7609987304      0.6336384126      1.2768359739
H      -1.9239703830      1.1532041731     -0.3660336770
12
Frame=179  time=90.000fs  energy=-306.17023589Ha  molecule=COOCCCHHHHHH
C       0.0610431838      0.5048230581      0.2824188678
O       1.3218976331      0.7277985561      0.1169582525
O       2.0791655323      1.8346636987      0.1584347227
C      -0.3516480470     -0.8320018867     -0.3473853902
C      -1.5038554023     -1.5727449858     -0.7730303205
C      -1.2715171221      1.2808798252      0.5245521863
H       0.5500858445     -1.3661028884     -0.4431751562
H      -2.5324835005     -0.9636343170     -0.8731152535
H      -1.3445565730     -2.5538078155     -1.0710150524
H      -1.0450059051      2.2713140735      0.8529242238
H      -1.7494825228      0.6292468593      1.2688219337
H      -1.9334231294      1.1592443026     -0.3706178901
12
Frame=180  time=90.500fs  energy=-306.16971548Ha  molecule=COOCCCHHHHHH
C       0.0642373083      0.4975211107      0.2801925578
O       1.3236233969      0.7305159770      0.1155913466
O       2.0760620365      1.8404485797      0.1631824807
C      -0.3454558425     -0.8267359087     -0.3476113650
C      -1.5048061300     -1.5750022685     -0.7802213136
C      -1.2761621534      1.2733109155      0.5277550565
H       0.5319073003     -1.3417872359     -0.4349959247
H      -2.5286271655     -0.9905917720     -0.8640411395
H      -1.3513356505     -2.5447418764     -1.0445236467
H      -1.0543925983      2.2635325332      0.8419149485
H      -1.7364109180      0.6261699266      1.2619464130
H      -1.9393079439      1.1700759448     -0.3733956317
12
Frame=181  time=91.000fs  energy=-306.16903838Ha  molecule=COOCCCHHHHHH
C       0.0672547774      0.4901123730      0.2774957438
O       1.3250669823      0.7333137137      0.1143473217
O       2.0729901448      1.8462370218      0.1679576667
C      -0.3399033938     -0.8216762309     -0.3477838486
C      -1.5058106809     -1.5757299294     -0.7870052431
C      -1.2808382332      1.2655585968      0.5307335814
H       0.5184636567     -1.3231432514     -0.4286216240
H      -2.5191257952     -1.0248992770     -0.8546374763
H      -1.3570155082     -2.5426789041     -1.0208072700
H      -1.0641360694      2.2575398465      0.8317952828
H      -1.7228642946      0.6236946051      1.2570440144
H      -1.9420727666      1.1848993448     -0.3743796031
12
Frame=182  time=91.500fs  energy=-306.16886399Ha  molecule=COOCCCHHHHHH
C       0.0701102504      0.4827666627      0.2743635810
O       1.3262395251      0.7361822716      0.1132196068
O       2.0699355250      1.8520265328      0.1727637609
C      -0.3352932652     -0.8166896377     -0.3478927499
C      -1.5066778777     -1.5748418000     -0.7932961246
C      -1.2854364986      1.2576684623      0.5333546981
H       0.5122874484     -1.3132691679     -0.4248422509
H      -2.5056368244     -1.0647177589     -0.8449565767
H      -1.3610215150     -2.5499105627     -1.0003501522
H      -1.0739473406      2.2536486572      0.8232358139
H      -1.7100895788      0.6210038672      1.2550275486
H      -1.9423032454      1.2027787984     -0.3737557680
12
Frame=183  time=92.000fs  energy=-306.16953561Ha  molecule=COOCCCHHHHHH
C       0.0728174604      0.4756100332      0.2708163835
O       1.3271577296      0.7391135986      0.1122040978
O       2.0668878552      1.8578157455      0.1776017221
C      -0.3318233595     -0.8116917619     -0.3479355146
C      -1.5071704388     -1.5724455973     -0.7990610862
C      -1.2898649394      1.2497253384      0.5355128301
H       0.5147771979     -1.3141319141     -0.4241650872
H      -2.4902128943     -1.1082091027     -0.8350807030
H      -1.3632017700     -2.5665733942     -0.9830637815
H      -1.0835134860      2.2518385467      0.8168027629
H      -1.6992250896      0.6173072285      1.2567428853
H      -1.9405024143      1.2227053976     -0.3717913915
12
Frame=184  time=92.500fs  energy=-306.17049282Ha  molecule=COOCCCHHHHHH
C       0.0753805710      0.4687043365      0.2668495683
O       1.3278406014      0.7420928841      0.1112978539
O       2.0638397833      1.8636025836      0.1824702780
C      -0.3295083411     -0.8067074235     -0.3479294244
C      -1.5070034387     -1.5688593141     -0.8043100954
C      -1.2940641202      1.2418504185      0.5371528572
H       0.5255617488     -1.3256445493     -0.4265930633
H      -2.4755636849     -1.1533403770     -0.8251090485
H      -1.3637441312     -2.5905351094     -0.9684290031
H      -1.0925500681      2.2517352403      0.8129175674
H      -1.6910896142      0.6120496330      1.2627476999
H      -1.9370306033      1.2435282036     -0.3687795861
12
Frame=185  time=93.000fs  energy=-306.17093766Ha  molecule=COOCCCHHHHHH
C       0.0777994582      0.4620754644      0.2624503759
O       1.3283060238      0.7450983418      0.1104965990
O       2.0607856474      1.8693835674      0.1873676061
C      -0.3281895929     -0.8018767531     -0.3479119773
C      -1.5058614450     -1.5645341233     -0.8090762603
C      -1.2980058059      1.2341747172      0.5382822778
H       0.5427231102     -1.3458883767     -0.4317075886
H      -2.4652813364     -1.1978748547     -0.8151292877
H      -1.3628618640     -2.6183995434     -0.9558205127
H      -1.1008320537      2.2527032563      0.8118512193
H      -1.6860871553      0.6050765658      1.2731255118
H      -1.9321633804      1.2640631159     -0.3650302176
12
Frame=186  time=93.500fs  energy=-306.17067757Ha  molecule=COOCCCHHHHHH
C       0.0800771954      0.4557600068      0.2576219218
O       1.3285692780      0.7481085618      0.1097937132
O       2.0577203848      1.8751540402      0.1922928804
C      -0.3275976560     -0.7974178710     -0.3479309020
C      -1.5034517497     -1.5599157314     -0.8133970364
C      -1.3016827483      1.2268027556      0.5389646651
H       0.5633051753     -1.3720838471     -0.4389621601
H      -2.4632193391     -1.2398854273     -0.8051737166
H      -1.3606078032     -2.6467597792     -0.9447690003
H      -1.1082015554      2.2539707409      0.8137282329
H      -1.6842350527      0.5966575126      1.2874288194
H      -1.9261630475      1.2833415608     -0.3608652261
12
Frame=187  time=94.000fs  energy=-306.17002021Ha  molecule=COOCCCHHHHHH
C       0.0822195971      0.4498260097      0.2523914245
O       1.3286456730      0.7511074100      0.1091805165
O       2.0546376601      1.8809087890      0.1972469965
C      -0.3274085296     -0.7935944867     -0.3480414177
C      -1.4995984027     -1.5553414976     -0.8173043406
C      -1.3050975533      1.2197923727      0.5393039623
H       0.5836989291     -1.4012675549     -0.4478541380
H      -2.4720004573     -1.2783331727     -0.7951953626
H      -1.3569317629     -2.6727771322     -0.9350029743
H      -1.1145577446      2.2547627268      0.8185500821
H      -1.6852828348      0.5873896371      1.3047661534
H      -1.9193375925      1.3007016463     -0.3566167861
12
Frame=188  time=94.500fs  energy=-306.16919875Ha  molecule=COOCCCHHHHHH
C       0.0842370456      0.4443609176      0.2468040862
O       1.3285481063      0.7540807830      0.1086461254
O       2.0515293108      1.8866422968      0.2022324737
C      -0.3273178288     -0.7906796714     -0.3483112115
C      -1.4943289405     -1.5510183089     -0.8208184944
C      -1.3082541605      1.2131612256      0.5394346430
H       0.6004557450     -1.4305856297     -0.4578926398
H      -2.4917172742     -1.3131447477     -0.7851172475
H      -1.3518027722     -2.6942945196     -0.9263994407
H      -1.1198325334      2.2543964691      0.8262204360
H      -1.6888363137      0.5780586010      1.3239416887
H      -1.9120900199      1.3157345273     -0.3526431710
12
Frame=189  time=95.000fs  energy=-306.16815538Ha  molecule=COOCCCHHHHHH
C       0.0861441588      0.4394526192      0.2409118977
O       1.3282789835      0.7570125465      0.1081783309
O       2.0483875344      1.8923486403      0.2072525018
C      -0.3271043819     -0.7889094894     -0.3488146823
C      -1.4878887745     -1.5470646469     -0.8239427241
C      -1.3111520400      1.2069049529      0.5395147874
H       0.6110904907     -1.4575673854     -0.4685845382
H      -2.5196667963     -1.3447699139     -0.7749149029
H      -1.3452646555     -2.7097709815     -0.9189609213
H      -1.1239584814      2.2523039327      0.8365596313
H      -1.6944397521      0.5695078216      1.3435755359
H      -1.9049235314      1.3281826189     -0.3493350217
12
Frame=190  time=95.500fs  energy=-306.16687791Ha  molecule=COOCCCHHHHHH
C       0.0879509992      0.4351731441      0.2347617990
O       1.3278305074      0.7598866372      0.1077659093
O       2.0452077318      1.8980227962      0.2123099628
C      -0.3266485543     -0.7884457834     -0.3496146312
C      -1.4806554546     -1.5435556495     -0.8266627777
C      -1.3137859579      1.2010093758      0.5397118824
H       0.6143671060     -1.4803948288     -0.4795016759
H      -2.5514474261     -1.3736231910     -0.7646638886
H      -1.3374088355     -2.7182834294     -0.9128086763
H      -1.1268505294      2.2480242416      0.8493249656
H      -1.7016242859      0.5625390273      1.3622118724
H      -1.8983782603      1.3378477912     -0.3470694000
12
Frame=191  time=96.000fs  energy=-306.16565333Ha  molecule=COOCCCHHHHHH
C       0.0896575570      0.4315701394      0.2283916031
O       1.3271936696      0.7626907834      0.1073993606
O       2.0419894821      1.9036625148      0.2174071453
C      -0.3258986841     -0.7893747625     -0.3507515305
C      -1.4730048028     -1.5405485745     -0.8289556351
C      -1.3161507865      1.1954560433      0.5401806303
H       0.6100465055     -1.4978788837     -0.4903047800
H      -2.5827877532     -1.3998121730     -0.7545294655
H      -1.3283513423     -2.7194941801     -0.9081543515
H      -1.1284171986      2.2412209561      0.8642327862
H      -1.7099577434      0.5578296148      1.3784928668
H      -1.8929426533      1.3445621175     -0.3461388441
12
Frame=192  time=96.500fs  energy=-306.16488964Ha  molecule=COOCCCHHHHHH
C       0.0912529265      0.4286674238      0.2218332892
O       1.3263655758      0.7654176001      0.1070699000
O       2.0387352995      1.9092682777      0.2225456828
C      -0.3248207897     -0.7917318252     -0.3522455167
C      -1.4652412535     -1.5380870270     -0.8307983450
C      -1.3182477896      1.1902243243      0.5410412823
H       0.5984417845     -1.5092366838     -0.5007158079
H      -2.6105688139     -1.4232713945     -0.7447417876
H      -1.3182387875     -2.7134338065     -0.9052427903
H      -1.1285876536      2.2317167279      0.8809637398
H      -1.7190753004      0.5558511503      1.3913444459
H      -1.8889639486      1.3482266483     -0.3466870347
12
Frame=193  time=97.000fs  energy=-306.16487784Ha  molecule=COOCCCHHHHHH
C       0.0927144992      0.4264648020      0.2151149994
O       1.3253514255      0.7680635276      0.1067691160
O       2.0354493442      1.9148416751      0.2277260878
C      -0.3233820407     -0.7955237349     -0.3541047593
C      -1.4575999268     -1.5361913939     -0.8321685061
C      -1.3200903924      1.1852909075      0.5423684840
H       0.5801243501     -1.5139391099     -0.5104983147
H      -2.6327097532     -1.4438980560     -0.7355471984
H      -1.3072062658     -2.7003366511     -0.9043051436
H      -1.1273350856      2.2195068352      0.8991542515
H      -1.7286785387      0.5568288971      1.4000522725
H      -1.8865931523      1.3488581757     -0.3486640832
12
Frame=194  time=97.500fs  energy=-306.16570672Ha  molecule=COOCCCHHHHHH
C       0.0940095810      0.4249337953      0.2082602309
O       1.3241634021      0.7706280367      0.1064895860
O       2.0321372217      1.9203839568      0.2329471019
C      -0.3215692733     -0.8007292226     -0.3563303150
C      -1.4502646633     -1.5348485766     -0.8330419208
C      -1.3217066357      1.1806321308      0.5441911094
H       0.5558844231     -1.5117671398     -0.5194833272
H      -2.6477555841     -1.4615612602     -0.7271637584
H      -1.2952812796     -2.6806337015     -0.9055350756
H      -1.1246827111      2.2047486684      0.9183979660
H      -1.7385321826      0.5607504521      1.4042505131
H      -1.8857848021      1.3465931332     -0.3518170861
12
Frame=195  time=98.000fs  energy=-306.16717547Ha  molecule=COOCCCHHHHHH
C       0.0950996109      0.4240130049      0.2012863805
O       1.3228188135      0.7731140958      0.1062254584
O       2.0288057955      1.9258952411      0.2382055037
C      -0.3194259892     -0.8072713729     -0.3589115999
C      -1.4433689576     -1.5340027050     -0.8333951695
C      -1.3231373542      1.1762290304      0.5464972305
H       0.5269824759     -1.5031316415     -0.5276523382
H      -2.6547696567     -1.4761111396     -0.7197463789
H      -1.2822924014     -2.6550428800     -0.9090735673
H      -1.1206850815      2.1877423449      0.9382666946
H      -1.7484770961      0.5673861669      1.4038970431
H      -1.8863404370      1.3416662925     -0.3557246971
12
Frame=196  time=98.500fs  energy=-306.16877454Ha  molecule=COOCCCHHHHHH
C       0.0959443227      0.4236133554      0.1942070189
O       1.3213386597      0.7755296529      0.1059726143
O       2.0254620231      1.9313740366      0.2434966900
C      -0.3170876374     -0.8149818537     -0.3618182870
C      -1.4369906746     -1.5335492622     -0.8332120143
C      -1.3244265990      1.1720712523      0.5492413649
H       0.4954494987     -1.4894650450     -0.5352474590
H      -2.6533493091     -1.4874234952     -0.7133601973
H      -1.2678436236     -2.6247138934     -0.9150080087
H      -1.1153926579      2.1689045178      0.9583495191
H      -1.7584589602      0.5763077453      1.3992539179
H      -1.8879906542      1.3343782091     -0.3598795786
12
Frame=197  time=99.000fs  energy=-306.16988513Ha  molecule=COOCCCHHHHHH
C       0.0965043246      0.4236430355      0.1870412864
O       1.3197461893      0.7778856432      0.1057275178
O       2.0221108120      1.9368172978      0.2488160494
C      -0.3147764923     -0.8236010776     -0.3650007321
C      -1.4311574677     -1.5333340295     -0.8324870922
C      -1.3256021026      1.1681568270      0.5523529127
H       0.4640176210     -1.4731837272     -0.5427960109
H      -2.6435379014     -1.4954555078     -0.7079841252
H      -1.2514249810     -2.5914437381     -0.9234141903
H      -1.1088320759      2.1487534952      0.9782982920
H      -1.7685583365      0.5868987642      1.3908568148
H      -1.8904958041      1.3250587783     -0.3638001957
12
Frame=198  time=99.500fs  energy=-306.17006100Ha  molecule=COOCCCHHHHHH
C       0.0967456133      0.4240395882      0.1798248284
O       1.3180647095      0.7801863840      0.1054837081
O       2.0187525778      1.9422221018      0.2541610543
C      -0.3127780808     -0.8328051138     -0.3683918632
C      -1.4258717963     -1.5331650225     -0.8312293507
C      -1.3266575253      1.1644888919      0.5557442295
H       0.4361585055     -1.4572688213     -0.5510399697
H      -2.6257187850     -1.5002710749     -0.7035333294
H      -1.2326535145     -2.5577986110     -0.9344204570
H      -1.1010274642      2.1279430353      0.9978455630
H      -1.7789949776      0.5983257370      1.3794558845
H      -1.8936984136      1.3140358548     -0.3671140750
12
Frame=199  time=100.000fs  energy=-306.16942973Ha  molecule=COOCCCHHHHHH
C       0.0966494710      0.4247826807      0.1726126608
O       1.3163151482      0.7824238293      0.1052298974
O       2.0153825224      1.9475875877      0.2595323214
C      -0.3114340037     -0.8422131424     -0.3718964678
C      -1.4211419912     -1.5328593038     -0.8294707363
C      -1.3275557172      1.1610738570      0.5593187102
H       0.4164190813     -1.4450700809     -0.5609349527
H      -2.6006205934     -1.5020121523     -0.6998763948
H      -1.2114079056     -2.5267655115     -0.9482233325
H      -1.0920262144      2.1072776172      1.0167705360
H      -1.7900880284      0.6095326169      1.3659344063
H      -1.8974773168      1.3016290536     -0.3695519085
12
Frame=200  time=100.500fs  energy=-306.16902708Ha  molecule=COOCCCHHHHHH
C       0.0962173092      0.4258716701      0.1654668700
O       1.3145110835      0.7845810872      0.1049520883
O       2.0119923807      1.9529142577      0.2649320378
C      -0.3110891137     -0.8514094820     -0.3753912081
C      -1.4169868805     -1.5322853678     -0.8272655237
C      -1.3282491548      1.1579253930      0.5629812450
H       0.4099851567     -1.4399431584     -0.5735812189
H      -2.5693817235     -1.5008451805     -0.6968581707
H      -1.1877660088     -2.5013202405     -0.9651010772
H      -1.0818972733      2.0876149106      1.0348689122
H      -1.8022120396      0.6193838336      1.3512638793
H      -1.9016922773      1.2881985870     -0.3708995223
12
Frame=201  time=101.000fs  energy=-306.16975482Ha  molecule=COOCCCHHHHHH
C       0.0954612761      0.4272868826      0.1584366671
O       1.3126573132      0.7866393493      0.1046372661
O       2.0085725529      1.9582003883      0.2703607252
C      -0.3118469053     -0.8600990198     -0.3787786811
C      -1.4134064712     -1.5313780442     -0.8246882592
C      -1.3286903091      1.1550673411      0.5666465685
H       0.4198434309     -1.4431963547     -0.5894747187
H      -2.5339180135     -1.4969690828     -0.6942836633
H      -1.1618535102     -2.4841406671     -0.9854272986
H      -1.0707286502      2.0697527193      1.0519798474
H      -1.8157693795      0.6268340639      1.3364637295
H      -1.9061996376      1.2741600383     -0.3709853660
12
Frame=202  time=101.500fs  energy=-306.17096634Ha  molecule=COOCCCHHHHHH
C       0.0944011255      0.4289819990      0.1515533164
O       1.3107553500      0.7885867776      0.1042772103
O       2.0051144846      1.9634400230      0.2758147703
C      -0.3133639507     -0.8682178082     -0.3820375992
C      -1.4103413762     -1.5302043688     -0.8218667016
C      -1.3288303036      1.1525302183      0.5702443967
H       0.4445591842     -1.4526679652     -0.6077298056
H      -2.4975202288     -1.4908023737     -0.6918602394
H      -1.1340423532     -2.4767232337     -1.0094986707
H      -1.0586501027      2.0543657532      1.0680260888
H      -1.8311339928      0.6310269019      1.3225484691
H      -1.9109044163      1.2599559142     -0.3697067404
12
Frame=203  time=102.000fs  energy=-306.17186286Ha  molecule=COOCCCHHHHHH
C       0.0930686863      0.4309092103      0.1448361399
O       1.3088099444      0.7904314720      0.1038733177
O       2.0016147264      1.9686287099      0.2812874001
C      -0.3150518616     -0.8758189790     -0.3851867910
C      -1.4077020066     -1.5290094589     -0.8189951372
C      -1.3286276321      1.1503390380      0.5737239364
H       0.4803465405     -1.4647542270     -0.6266422219
H      -2.4638288642     -1.4830784929     -0.6892720714
H      -1.1054949214     -2.4785725226     -1.0372896230
H      -1.0458565513      2.0419453774      1.0830066112
H      -1.8485458908      0.6313976042      1.3104816378
H      -1.9157565116      1.2460616357     -0.3670719006
12
Frame=204  time=102.500fs  energy=-306.17229696Ha  molecule=COOCCCHHHHHH
C       0.0914962920      0.4330325489      0.1382914892
O       1.3068235717      0.7921906658      0.1034327243
O       1.9980743876      1.9737684061      0.2867724234
C      -0.3164460101     -0.8829728815     -0.3882493577
C      -1.4054097245     -1.5280912443     -0.8162318953
C      -1.3280759346      1.1484919800      0.5770567525
H       0.5240995344     -1.4767991318     -0.6448504546
H      -2.4347741412     -1.4743763819     -0.6863650064
H      -1.0779682948     -2.4877875348     -1.0685270488
H      -1.0325831025      2.0327130967      1.0968711332
H      -1.8680533343      0.6277018508      1.3010618253
H      -1.9206710326      1.2330561971     -0.3632077712
12
Frame=205  time=103.000fs  energy=-306.17199642Ha  molecule=COOCCCHHHHHH
C       0.0897039206      0.4353135598      0.1319109345
O       1.3047878660      0.7938713454      0.1029590791
O       1.9944927344      1.9788633124      0.2922666362
C      -0.3172255983     -0.8898435070     -0.3912917674
C      -1.4032599808     -1.5276795599     -0.8136316169
C      -1.3272061348      1.1469463087      0.5802512247
H       0.5723515035     -1.4864469757     -0.6613308371
H      -2.4114027271     -1.4646720145     -0.6830602784
H      -1.0530166602     -2.5019053955     -1.1027919377
H      -1.0190884474      2.0266224645      1.1094145407
H      -1.8894644771      0.6199934519      1.2946427582
H      -1.9254989807      1.2215725357     -0.3583476911
12
Frame=206  time=103.500fs  energy=-306.17098641Ha  molecule=COOCCCHHHHHH
C       0.0877052513      0.4377268980      0.1256865550
O       1.3026864916      0.7954728998      0.1024517213
O       1.9908651510      1.9839135104      0.2977686730
C      -0.3171894521     -0.8966575008     -0.3944130274
C      -1.4008710238     -1.5279484393     -0.8112058803
C      -1.3260641809      1.1456336195      0.5833693047
H       0.6209475303     -1.4917611751     -0.6753822762
H      -2.3950783427     -1.4535270462     -0.6792030288
H      -1.0316710593     -2.5180974252     -1.1393564459
H      -1.0056804618      2.0234715219      1.1203358993
H      -1.9122757664      0.6086459127      1.2909508006
H      -1.9301156341      1.2121357018     -0.3527947955
12
Frame=207  time=104.000fs  energy=-306.16976926Ha  molecule=COOCCCHHHHHH
C       0.0855178923      0.4402651711      0.1196192048
O       1.3005042622      0.7969972499      0.1019087910
O       1.9871834627      1.9889109991      0.3032769906
C      -0.3162535140     -0.9035980216     -0.3976916327
C      -1.3978677745     -1.5290680790     -0.8090009035
C      -1.3247032474      1.1444906861      0.5865153886
H       0.6666383908     -1.4916965241     -0.6866690626
H      -2.3869647498     -1.4405302395     -0.6746043606
H      -1.0147209581     -2.5334206655     -1.1771372644
H      -0.9927282954      2.0229639006      1.1293232950
H      -1.9356641461      0.5943179660      1.2892441969
H      -1.9344490594      1.2051326727     -0.3468173881
12
Frame=208  time=104.500fs  energy=-306.16885292Ha  molecule=COOCCCHHHHHH
C       0.0831626624      0.4429132917      0.1137120760
O       1.2982302451      0.7984482749      0.1013274264
O       1.9834356171      1.9938402804      0.3087890560
C      -0.3144009581     -0.9107356642     -0.4011548174
C      -1.3940628271     -1.5311927596     -0.8070971498
C      -1.3231774048      1.1434713876      0.5898058064
H       0.7079082596     -1.4859594659     -0.6951117896
H      -2.3872112930     -1.4255664665     -0.6692071040
H      -1.0028194983     -2.5454419856     -1.2149634526
H      -0.9806635587      2.0247282872      1.1360958969
H      -1.9586053122      0.5778427277      1.2886071486
H      -1.9384462615      1.2008533400     -0.3405816324
12
Frame=209  time=105.000fs  energy=-306.16839117Ha  molecule=COOCCCHHHHHH
C       0.0806552639      0.4456402115      0.1079681236
O       1.2958567501      0.7998285520      0.1007038397
O       1.9796074336      1.9986817563      0.3143010821
C      -0.3116264008     -0.9180390993     -0.4047879244
C      -1.3894726263     -1.5344150887     -0.8055691925
C      -1.3215294627      1.1425449979      0.5933415574
H       0.7443214584     -1.4747474477     -0.7008093651
H      -2.3948201685     -1.4088563879     -0.6631651046
H      -0.9963094453     -2.5526336006     -1.2518387303
H      -0.9699472300      2.0283593831      1.1404217920
H      -1.9801021041      0.5600625885      1.2881794773
H      -1.9420607977      1.1994874531     -0.3341434979
12
Frame=210  time=105.500fs  energy=-306.16831061Ha  molecule=COOCCCHHHHHH
C       0.0780025538      0.4484069146      0.1023910014
O       1.2933785933      0.8011413626      0.1000348120
O       1.9756854901      2.0034143192      0.3198079619
C      -0.3079118120     -0.9254278840     -0.4085595150
C      -1.3842345061     -1.5387597203     -0.8044692713
C      -1.3197846492      1.1416936989      0.5971914649
H       0.7756230631     -1.4584850812     -0.7039623618
H      -2.4079509891     -1.3908872445     -0.6568008706
H      -0.9952495538     -2.5541504865     -1.2869423703
H      -0.9610064876      2.0334469538      1.1421344068
H      -1.9993859174      0.5417086833      1.2873054695
H      -1.9452248849      1.2010763411     -0.3274619851
12
Frame=211  time=106.000fs  energy=-306.16856943Ha  molecule=COOCCCHHHHHH
C       0.0751998783      0.4511741318      0.0969859572
O       1.2907916328      0.8023930622      0.0993187022
O       1.9716598387      2.0080175759      0.3253038241
C      -0.3032286199     -0.9328093178     -0.4124389488
C      -1.3785038909     -1.5442136884     -0.8038358900
C      -1.3179571512      1.1409044182      0.6013862105
H       0.8014208510     -1.4376670822     -0.7048081497
H      -2.4246100706     -1.3722125943     -0.6504572867
H      -0.9995789358     -2.5494544850     -1.3195309785
H      -0.9541796180      2.0395720582      1.1411603424
H      -2.0159480121      0.5234039411      1.2855661279
H      -1.9478115379      1.2055135143     -0.3204230349
12
Frame=212  time=106.500fs  energy=-306.16916205Ha  molecule=COOCCCHHHHHH
C       0.0722249078      0.4539039587      0.0917608569
O       1.2880909249      0.8035928713      0.0985551249
O       1.9675259511      2.0124748255      0.3307832506
C      -0.2975282910     -0.9400893292     -0.4164034651
C      -1.3724107606     -1.5507485418     -0.8036997047
C      -1.3160637795      1.1401550117      0.6059234906
H       0.8211476098     -1.4128594387     -0.7035965477
H      -2.4431523433     -1.3533093644     -0.6444060094
H      -1.0091307699     -2.5381724912     -1.3489071840
H      -0.9496944829      2.0463092094      1.1375514492
H      -2.0293995006      0.5057634145      1.2827030048
H      -1.9496391599      1.2126534916     -0.3128760285
12
Frame=213  time=107.000fs  energy=-306.17001426Ha  molecule=COOCCCHHHHHH
C       0.0690365297      0.4565563691      0.0867260004
O       1.2852705219      0.8047520889      0.0977442658
O       1.9632849967      2.0167753895      0.3362423305
C      -0.2907316180     -0.9471724347     -0.4204379259
C      -1.3661159279     -1.5583064661     -0.8040729075
C      -1.3141322913      1.1394079539      0.6107772510
H       0.8340578649     -1.3847594432     -0.7005962417
H      -2.4618337185     -1.3346794910     -0.6389304042
H      -1.0235098530     -2.5202203731     -1.3744917953
H      -0.9476690317      2.0532745472      1.1315041450
H      -2.0393440863      0.4894594036      1.2785471427
H      -1.9505109431      1.2224104558     -0.3046638028
12
Frame=214  time=107.500fs  energy=-306.17100175Ha  molecule=COOCCCHHHHHH
C       0.0655847685      0.4590856728      0.0818919008
O       1.2823245661      0.8058829738      0.0968862682
O       1.9589418904      2.0209139940      0.3416787230
C      -0.2827431738     -0.9539635019     -0.4245327267
C      -1.3598633806     -1.5667626975     -0.8049302902
C      -1.3122000239      1.1386177534      0.6159028103
H       0.8393759374     -1.3541677576     -0.6960834944
H      -2.4783587274     -1.3169442227     -0.6343791623
H      -1.0419642962     -2.4961626547     -1.3960426887
H      -0.9481182055      2.0601861807      1.1233565879
H      -2.0453917734      0.4751711202      1.2730108057
H      -1.9502478990      1.2347288336     -0.2956267480
12
Frame=215  time=108.000fs  energy=-306.17199292Ha  molecule=COOCCCHHHHHH
C       0.0618252282      0.4614389357      0.0772665417
O       1.2792468478      0.8069974010      0.0959808048
O       1.9545024469      2.0248875651      0.3470909003
C      -0.2734896429     -0.9603688849     -0.4286822583
C      -1.3539487869     -1.5758960284     -0.8061908010
C      -1.3103061719      1.1377437677      0.6212389576
H       0.8366080627     -1.3219368964     -0.6903389984
H      -2.4901835730     -1.3007679418     -0.6310984336
H      -1.0633821689     -2.4675398545     -1.4139237246
H      -0.9509750526      2.0668751743      1.1135585055
H      -2.0472570347      0.4634773100      1.2661036851
H      -1.9487124613      1.2494797151     -0.2856025455
12
Frame=216  time=108.500fs  energy=-306.17284036Ha  molecule=COOCCCHHHHHH
C       0.0577308634      0.4635557104      0.0728541568
O       1.2760280576      0.8081086759      0.0950278789
O       1.9499714376      2.0286920731      0.3524774419
C      -0.2629725314     -0.9662891791     -0.4328802387
C      -1.3486294122     -1.5854032503     -0.8077158631
C      -1.3084811129      1.1367595497      0.6267130369
H       0.8259404155     -1.2890516912     -0.6837174798
H      -2.4951518210     -1.2867214586     -0.6293476107
H      -1.0865391936     -2.4367413442     -1.4291584495
H      -0.9561261066      2.0732447622      1.1026172355
H      -2.0448410527      0.4547760909      1.2579366460
H      -1.9458438750      1.2663973063     -0.2744600841
12
Frame=217  time=109.000fs  energy=-306.17331517Ha  molecule=COOCCCHHHHHH
C       0.0533001410      0.4653772960      0.0686580019
O       1.2726538347      0.8092367626      0.0940297946
O       1.9453508515      2.0323204772      0.3578367683
C      -0.2513171910     -0.9716119948     -0.4371096168
C      -1.3440453639     -1.5949459083     -0.8093264929
C      -1.3067344274      1.1356578094      0.6322496140
H       0.8086143456     -1.2568187336     -0.6767852406
H      -2.4919933192     -1.2751668396     -0.6292408449
H      -1.1103923973     -2.4066014090     -1.4432993289
H      -0.9634319179      2.0792258787      1.0910471316
H      -2.0382796571      0.4492431802      1.2487097207
H      -1.9417081120      1.2850866955     -0.2621682490
12
Frame=218  time=109.500fs  energy=-306.17316963Ha  molecule=COOCCCHHHHHH
C       0.0485605580      0.4668703604      0.0646869611
O       1.2691074409      0.8104107036      0.0929918675
O       1.9406369374      2.0357609663      0.3631670021
C      -0.2387822314     -0.9762231689     -0.4413336880
C      -1.3402048818     -1.6041878004     -0.8108212091
C      -1.3050450932      1.1344530561      0.6377775818
H       0.7870032493     -1.2269225742     -0.6704109937
H      -2.4805093419     -1.2662062423     -0.6307121783
H      -1.1341282624     -2.3801532408     -1.4583505882
H      -0.9727076340      2.0847678410      1.0793527637
H      -2.0279830565      0.4468101304      1.2387014083
H      -1.9365385176      1.3050709854     -0.2488545445
12
Frame=219  time=110.000fs  energy=-306.17231077Ha  molecule=COOCCCHHHHHH
C       0.0435673953      0.4680456020      0.0609578681
O       1.2653778845      0.8116660060      0.0919215124
O       1.9358172021      2.0389956494      0.3684656577
C      -0.2257416553     -0.9800238274     -0.4454886129
C      -1.3370157118     -1.6128373835     -0.8120037533
C      -1.3033608869      1.1331816067      0.6432314822
H       0.7645354753     -1.2012710507     -0.6657743608
H      -2.4614976478     -1.2597090374     -0.6335292159
H      -1.1571001680     -2.3602879453     -1.4765577233
H      -0.9836796261      2.0898626991      1.0680422027
H      -2.0146576997      0.4471680587      1.2282852843
H      -1.9307303487      1.3258430853     -0.2348061383
12
Frame=220  time=110.500fs  energy=-306.17098649Ha  molecule=COOCCCHHHHHH
C       0.0383985341      0.4689523399      0.0574892932
O       1.2614685963      0.8130467130      0.0908298125
O       1.9308710183      2.0420024432      0.3737297563
C      -0.2127063891     -0.9829283313     -0.4494713898
C      -1.3343033341     -1.6207123318     -0.8127340124
C      -1.3016106783      1.1318943042      0.6485474482
H       0.7459766240     -1.1819578822     -0.6644539676
H      -2.4365324836     -1.2553392299     -0.6373509354
H      -1.1789249837     -2.3490242563     -1.4997904873
H      -0.9959640825      2.0945608218      1.0576256150
H      -1.9992650718      0.4498150277      1.2179622067
H      -1.9247743816      1.3468957096     -0.2204126108
12
Frame=221  time=111.000fs  energy=-306.16996489Ha  molecule=COOCCCHHHHHH
C       0.0331456238      0.4696518099      0.0542937388
O       1.2573948905      0.8146100941      0.0897346736
O       1.9257758202      2.0447609573      0.3789566225
C      -0.2002646882     -0.9848734319     -0.4531559155
C      -1.3318131425     -1.6277692062     -0.8129689015
C      -1.2997273802      1.1306408104      0.6536589261
H       0.7366082650     -1.1711299094     -0.6682984744
H      -2.4075935303     -1.2525652358     -0.6417996790
H      -1.1996272686     -2.3469281882     -1.5288624810
H      -1.0090948556      2.0989357713      1.0485819280
H      -1.9828596666      0.4541528192      1.2083598878
H      -1.9191601701      1.3677565772     -0.2061097684
12
Frame=222  time=111.500fs  energy=-306.17012968Ha  molecule=COOCCCHHHHHH
C       0.0278994277      0.4701847110      0.0513752521
O       1.2531651517      0.8164114502      0.0886571587
O       1.9205152226      2.0472580381      0.3841441140
C      -0.1889177858     -0.9858255180     -0.4564339077
C      -1.3292634052     -1.6340786768     -0.8127772963
C      -1.2976667513      1.1294667295      0.6584993984
H       0.7406283750     -1.1705833505     -0.6789809787
H      -2.3765533581     -1.2507684343     -0.6465106658
H      -1.2195518621     -2.3530825503     -1.5631446661
H      -1.0225779078      2.1030370086      1.0413496055
H      -1.9663786311      0.4595406572      1.2001638231
H      -1.9142912844      1.3880215920     -0.1923677820
12
Frame=223  time=112.000fs  energy=-306.17152565Ha  molecule=COOCCCHHHHHH
C       0.0227284879      0.4705594715      0.0487349019
O       1.2487662770      0.8184713700      0.0876106953
O       1.9150848994      2.0494911043      0.3892901086
C      -0.1788792052     -0.9858012643     -0.4592768324
C      -1.3264357052     -1.6397887476     -0.8123397465
C      -1.2954066053      1.1284261954      0.6630091495
H       0.7593611008     -1.1809676298     -0.6972057587
H      -2.3447332163     -1.2494046521     -0.6511145580
H      -1.2390832284     -2.3654363856     -1.6005500792
H      -1.0359544986      2.1069085461      1.0363508384
H      -1.9505111010      0.4652722929      1.1940227229
H      -1.9104185751      1.4073383130     -0.1796786852
12
Frame=224  time=112.500fs  energy=-306.17287936Ha  molecule=COOCCCHHHHHH
C       0.0176725048      0.4707605558      0.0463725020
O       1.2441638974      0.8207596721      0.0865945366
O       1.9094950187      2.0514695916      0.3943922723
C      -0.1699735208     -0.9849245033     -0.4617920188
C      -1.3232049920     -1.6450796566     -0.8119194063
C      -1.2929386469      1.1275836621      0.6671348845
H       0.7901053331     -1.2010750247     -0.7220324141
H      -2.3130802626     -1.2480758899     -0.6551916284
H      -1.2582625329     -2.3812261576     -1.6378791115
H      -1.0488350678      2.1106213529      1.0340225392
H      -1.9356472597      0.4706043669      1.1905357258
H      -1.9076203793      1.4253796549     -0.1685372471
12
Frame=225  time=113.000fs  energy=-306.17296272Ha  molecule=COOCCCHHHHHH
C       0.0127484189      0.4707637511      0.0442782840
O       1.2393218474      0.8232238673      0.0856013068
O       1.9037650506      2.0532116515      0.3994484855
C      -0.1617756217     -0.9834118585     -0.4641765677
C      -1.3194721268     -1.6501246377     -0.8117820697
C      -1.2902613965      1.1270038035      0.6708239658
H       0.8274699724     -1.2284668070     -0.7513590999
H      -2.2829616553     -1.2463042907     -0.6582382269
H      -1.2766800032     -2.3977015053     -1.6718777493
H      -1.0608591524      2.1142455329      1.0347776344
H      -1.9220164822      0.4748067091      1.1902449229
H      -1.9058809483      1.4418473254     -0.1593475857
12
Frame=226  time=113.500fs  energy=-306.17172195Ha  molecule=COOCCCHHHHHH
C       0.0079515844      0.4705487550      0.0424270287
O       1.2342292531      0.8258264726      0.0846275041
O       1.8979128664      2.0547352712      0.4044569268
C      -0.1537755903     -0.9814926887     -0.4666300626
C      -1.3151291245     -1.6550867230     -0.8121229786
C      -1.2873803364      1.1267516398      0.6740323789
H       0.8652682962     -1.2604651413     -0.7827644765
H      -2.2561693604     -1.2433577457     -0.6597677818
H      -1.2938971640     -2.4128383907     -1.7003059948
H      -1.0716813997      2.1177570912      1.0388882487
H      -1.9098477229      0.4772296641      1.1935032732
H      -1.9051300193      1.4564334535     -0.1522682877
12
Frame=227  time=114.000fs  energy=-306.16997207Ha  molecule=COOCCCHHHHHH
C       0.0032722880      0.4701079126      0.0407888804
O       1.2289028159      0.8285505609      0.0836740888
O       1.8919484254      2.0560511440      0.4094153092
C      -0.1455816431     -0.9793571021     -0.4693000821
C      -1.3101030937     -1.6601068235     -0.8130569725
C      -1.2843128664      1.1268927658      0.6767353639
H       0.8988658824     -1.2946748887     -0.8142157221
H      -2.2341847008     -1.2384894135     -0.6594397624
H      -1.3096723047     -2.4254228774     -1.7219925975
H      -1.0810080823      2.1209710802      1.0464604158
H      -1.8993266784      0.4774225835      1.2003955710
H      -1.9052389226      1.4687707799     -0.1472358365
12
Frame=228  time=114.500fs  energy=-306.16849439Ha  molecule=COOCCCHHHHHH
C      -0.0012920937      0.4694590392      0.0393507204
O       1.2233715699      0.8313884961      0.0827417554
O       1.8858723906      2.0571605167      0.4143202387
C      -0.1369828932     -0.9771504430     -0.4722803943
C      -1.3043705785     -1.6652758864     -0.8146366872
C      -1.2810864352      1.1274762216      0.6789226416
H       0.9257198855     -1.3292539583     -0.8443528738
H      -2.2178531502     -1.2311942179     -0.6570800173
H      -1.3238403633     -2.4348383911     -1.7364483403
H      -1.0886081015      2.1235924639      1.0574944530
H      -1.8905129935      0.4752071410      1.2108329034
H      -1.9060614045      1.4784894140     -0.1441186931
12
Frame=229  time=115.000fs  energy=-306.16768959Ha  molecule=COOCCCHHHHHH
C      -0.0057353411      0.4686387646      0.0381174898
O       1.2176667483      0.8343367799      0.0818298122
O       1.8796786805      2.0580580072      0.4191675434
C      -0.1278969025     -0.9749868481     -0.4756311349
C      -1.2979542867     -1.6706268023     -0.8168736116
C      -1.2777399490      1.1285204685      0.6805978993
H       0.9446446818     -1.3628754375     -0.8723457963
H      -2.2073549082     -1.2213138496     -0.6526594850
H      -1.3362099944     -2.4408053297     -1.7435213912
H      -1.0943010341      2.1252948745      1.0718956531
H      -1.8832810451      0.4706755762      1.2245895839
H      -1.9074505285      1.4852951645     -0.1427796057
12
Frame=230  time=115.500fs  energy=-306.16761329Ha  molecule=COOCCCHHHHHH
C      -0.0100408407      0.4676822579      0.0370981956
O       1.2118198680      0.8373959837      0.0809375953
O       1.8733593158      2.0587367868      0.4239530675
C      -0.1183225142     -0.9729597803     -0.4793907899
C      -1.2909252578     -1.6761381582     -0.8197517567
C      -1.2743312664      1.1300111373      0.6817870511
H       0.9552413481     -1.3945367489     -0.8976767873
H      -2.2022333576     -1.2090941316     -0.6463019432
H      -1.3465577456     -2.4432080830     -1.7432053308
H      -1.0979559913      2.1257589001      1.0894419898
H      -1.8772633482      0.4641703904      1.2412482997
H      -1.9092351853      1.4890026126     -0.1430511281
12
Frame=231  time=116.000fs  energy=-306.16810553Ha  molecule=COOCCCHHHHHH
C      -0.0141832443      0.4666149631      0.0362983937
O       1.2058627263      0.8405686497      0.0800646480
O       1.8669078841      2.0591923055      0.4286732554
C      -0.1083062860     -0.9711494852     -0.4835839867
C      -1.2833970731     -1.6817383348     -0.8232298302
C      -1.2709383250      1.1319050818      0.6825420751
H       0.9575511838     -1.4234144072     -0.9199896186
H      -2.2015142973     -1.1951671103     -0.6382835821
H      -1.3546506137     -2.4420794549     -1.7356288708
H      -1.0994991203      2.1246913364      1.1097683942
H      -1.8718595405      0.4562446785      1.2601715917
H      -1.9112060761      1.4895388413     -0.1447025491
12
Frame=232  time=116.500fs  energy=-306.16891178Ha  molecule=COOCCCHHHHHH
C      -0.0181329422      0.4654547510      0.0357209989
O       1.1998272590      0.8438555873      0.0792095842
O       1.8603205667      2.0594236450      0.4333254181
C      -0.0979216996     -0.9696284346     -0.4882287832
C      -1.2755079125     -1.6873086712     -0.8272345237
C      -1.2676524315      1.1341362946      0.6829365457
H       0.9518604324     -1.4487854645     -0.9390082979
H      -2.2038962468     -1.1804308065     -0.6289958719
H      -1.3602718589     -2.4376975202     -1.7211709680
H      -1.0989172921      2.1218482452      1.1323804995
H      -1.8663199550      0.4475941949      1.2805288543
H      -1.9131193151      1.4869301244     -0.1474196441
12
Frame=233  time=117.000fs  energy=-306.16975821Ha  molecule=COOCCCHHHHHH
C      -0.0218598355      0.4642155783      0.0353692018
O       1.1937455823      0.8472537082      0.0783692241
O       1.8535958453      2.0594335271      0.4379078257
C      -0.0872586794     -0.9684635778     -0.4933416984
C      -1.2674000628     -1.6926864739     -0.8316500640
C      -1.2645708611      1.1366199721      0.6830586605
H       0.9386258969     -1.4699995487     -0.9545080966
H      -2.2079307240     -1.1658853149     -0.6188922200
H      -1.3632665760     -2.4307168884     -1.7006198740
H      -1.0962559777      2.1170665829      1.1566820536
H      -1.8598433331      0.4389911971      1.3013330072
H      -1.9147089412      1.4812807023     -0.1507959856
12
Frame=234  time=117.500fs  energy=-306.17041063Ha  molecule=COOCCCHHHHHH
C      -0.0253350706      0.4629093359      0.0352474813
O       1.1876498190      0.8507560919      0.0775387777
O       1.8467339977      2.0592279315      0.4424197505
C      -0.0764172362     -0.9677146560     -0.4989383080
C      -1.2592068380     -1.6976729385     -0.8363128554
C      -1.2617884373      1.1392564546      0.6830037059
H       0.9184890240     -1.4864882189     -0.9663231007
H      -2.2121410914     -1.1524854187     -0.6084399040
H      -1.3636073469     -2.4222389223     -1.6752713539
H      -1.0916171372      2.1102987420      1.1820108982
H      -1.8516788948      0.4312066202      1.3214947774
H      -1.9157170646      1.4727586506     -0.1543481331
12
Frame=235  time=118.000fs  energy=-306.17072345Ha  molecule=COOCCCHHHHHH
C      -0.0285315006      0.4615444182      0.0353596611
O       1.1815704619      0.8543533812      0.0767128110
O       1.8397367156      2.0588155999      0.4468615055
C      -0.0655030620     -0.9674286715     -0.5050297433
C      -1.2510447009     -1.7020484829     -0.8410168738
C      -1.2593831799      1.1419406006      0.6828634450
H       0.8923205597     -1.4977940911     -0.9743698242
H      -2.2151174725     -1.1410225230     -0.5980773823
H      -1.3614446156     -2.4137809031     -1.6469102177
H      -1.0851551617      2.1016233721      1.2076818952
H      -1.8412572521      0.4248824383      1.3399552467
H      -1.9159462189      1.4616007616     -0.1575724335
12
Frame=236  time=118.500fs  energy=-306.17065126Ha  molecule=COOCCCHHHHHH
C      -0.0314236006      0.4601204045      0.0357054208
O       1.1755332743      0.8580356770      0.0758862885
O       1.8326067066      2.0582073337      0.4512344727
C      -0.0546303698     -0.9676314789     -0.5116165871
C      -1.2430042175     -1.7055823849     -0.8455221145
C      -1.2574009045      1.1445747799      0.6827173534
H       0.8612547623     -1.5036211616     -0.9786819292
H      -2.2156177962     -1.1320746663     -0.5881855732
H      -1.3571045444     -2.4072339651     -1.6177565107
H      -1.0770602082      2.0912040504      1.2330157346
H      -1.8282887322      0.4204180290      1.3558514495
H      -1.9153159855      1.4481300573     -0.1600302744
12
Frame=237  time=119.000fs  energy=-306.17028206Ha  molecule=COOCCCHHHHHH
C      -0.0339875392      0.4586217919      0.0362776577
O       1.1695570938      0.8617943291      0.0750552805
O       1.8253472557      2.0574151103      0.4555410762
C      -0.0439367017     -0.9683181661     -0.5186806842
C      -1.2351416539     -1.7080350499     -0.8495683806
C      -1.2558487239      1.1470776680      0.6826331606
H       0.8267342834     -1.5039259033     -0.9794755815
H      -2.2126470509     -1.1260546988     -0.5790863764
H      -1.3510172966     -2.4047776550     -1.5903233596
H      -1.0675286844      2.0792107105      1.2573362523
H      -1.8127527510      0.4179647210      1.3685896289
H      -1.9138989240      1.4327615328     -0.1614160542
12
Frame=238  time=119.500fs  energy=-306.16981082Ha  molecule=COOCCCHHHHHH
C      -0.0362031979      0.4570164609      0.0370628715
O       1.1636549624      0.8656227892      0.0742171530
O       1.8179617134      2.0564512389      0.4597846655
C      -0.0336054529     -0.9694398121     -0.5261722076
C      -1.2274820985     -1.7091857514     -0.8529226346
C      -1.2546995684      1.1493860931      0.6826734156
H       0.7906364692     -1.4990806124     -0.9772798784
H      -2.2054857914     -1.1233051304     -0.5710609788
H      -1.3435666592     -2.4084540646     -1.5668709484
H      -1.0567337538      2.0657614785      1.2799547623
H      -1.7948050356      0.4175060277      1.3778082187
H      -1.9119172970      1.4159813081     -0.1615756116
12
Frame=239  time=120.000fs  energy=-306.16935843Ha  molecule=COOCCCHHHHHH
C      -0.0380595543      0.4552675669      0.0380482441
O       1.1578383341      0.8695158672      0.0733697936
O       1.8104526677      2.0553279255      0.4639694459
C      -0.0238854647     -0.9708849792     -0.5339912047
C      -1.2200377194     -1.7088853982     -0.8554394985
C      -1.2539022388      1.1514529772      0.6828986932
H       0.7555441039     -1.4901323865     -0.9731514090
H      -2.1936622834     -1.1241450443     -0.5643721775
H      -1.3349656255     -2.4195849105     -1.5487396082
H      -1.0448095539      2.0509357543      1.3001785657
H      -1.7746804219      0.4189166797      1.3833135140
H      -1.9096977016      1.3983072767     -0.1604885834
12
Frame=240  time=120.500fs  energy=-306.16898354Ha  molecule=COOCCCHHHHHH
C      -0.0395562448      0.4533536490      0.0392306641
O       1.1521185158      0.8734676782      0.0725105499
O       1.8028220434      2.0540583755      0.4681008323
C      -0.0150745703     -0.9724900580     -0.5419926818
C      -1.2128239524     -1.7070862287     -0.8570773094
C      -1.2533904203      1.1532433908      0.6833630315
H       0.7247404786     -1.4787908894     -0.9686739303
H      -2.1769257797     -1.1288178522     -0.5592666635
H      -1.3252812955     -2.4385432661     -1.5361753416
H      -1.0318508724      2.0348603878      1.3173665843
H      -1.7526530841      0.4219280758      1.3850528759
H      -1.9076096767      1.3802443345     -0.1582597894
12
Frame=241  time=121.000fs  energy=-306.16879419Ha  molecule=COOCCCHHHHHH
C      -0.0406949373      0.4512712754      0.0406143879
O       1.1465025292      0.8774685554      0.0716358221
O       1.7950717606      2.0526587427      0.4721860629
C      -0.0074738671     -0.9740631682     -0.5500091742
C      -1.2058621882     -1.7038449983     -0.8578840087
C      -1.2530870113      1.1547298059      0.6841042654
H       0.7018376095     -1.4671413900     -0.9657266892
H      -2.1553258524     -1.1373913212     -0.5559315823
H      -1.3144787283     -2.4647697375     -1.5284743383
H      -1.0179128453      2.0178049627      1.3310134513
H      -1.7290762375      0.4260659598      1.3831342193
H      -1.9060401955      1.3622465568     -0.1551128073
12
Frame=242  time=121.500fs  energy=-306.16898781Ha  molecule=COOCCCHHHHHH
C      -0.0414800204      0.4490321461      0.0422057115
O       1.1409923908      0.8815052934      0.0707412783
O       1.7872042591      2.0511495128      0.4762345290
C      -0.0013150838     -0.9754139192     -0.5578760137
C      -1.1991531314     -1.6993260163     -0.8579863817
C      -1.2529050326      1.1558900920      0.6851329042
H       0.6899537279     -1.4573174265     -0.9661527485
H      -2.1294478053     -1.1496112182     -0.5543869912
H      -1.3024494049     -2.4968490768     -1.5242247171
H      -1.0030042615      2.0002098238      1.3408173645
H      -1.7044499923      0.4306605603      1.3778773835
H      -1.9054069516      1.3447053625     -0.1513464291
12
Frame=243  time=122.000fs  energy=-306.16959104Ha  molecule=COOCCCHHHHHH
C      -0.0419255125      0.4466514674      0.0440059954
O       1.1355924260      0.8855646152      0.0698219734
O       1.7792227418      2.0495537219      0.4802568390
C       0.0032907162     -0.9764116209     -0.5654761757
C      -1.1926352973     -1.6937963533     -0.8575766042
C      -1.2527527178      1.1567117448      0.6864254273
H       0.6908853944     -1.4508192357     -0.9711910442
H      -2.1006376094     -1.1647079449     -0.5543181027
H      -1.2890474869     -2.5326976396     -1.5216216509
H      -0.9870881179      1.9826425942      1.3467032616
H      -1.6794382307      0.4348992733      1.3698526904
H      -1.9061346762      1.3279507904     -0.1472668896
12
Frame=244  time=122.500fs  energy=-306.17045034Ha  molecule=COOCCCHHHHHH
C      -0.0420552461      0.4441317706      0.0460058123
O       1.1303192338      0.8896341113      0.0688709276
O       1.7711287267      2.0478938114      0.4842638380
C       0.0063112788     -0.9769986100     -0.5727508168
C      -1.1861699711     -1.6875946093     -0.8568800093
C      -1.2525401955      1.1571979365      0.6879257002
H       0.7052882493     -1.4481945020     -0.9813151815
H      -2.0709825848     -1.1813715871     -0.5550369866
H      -1.2741178162     -2.5699515971     -1.5188575802
H      -0.9700764400      1.9657588942      1.3488041493
H      -1.6548265304      0.4378498205      1.3598863653
H      -1.9085923752      1.3122539833     -0.1431514389
12
Frame=245  time=123.000fs  energy=-306.17135248Ha  molecule=COOCCCHHHHHH
C      -0.0419029047      0.4414552265      0.0481825894
O       1.1252078093      0.8937040435      0.0678790984
O       1.7629201961      2.0461903434      0.4882663573
C       0.0077650900     -0.9771888761     -0.5796992619
C      -1.1795537476     -1.6810915717     -0.8561270982
C      -1.2521875296      1.1573662080      0.6895505852
H       0.7327884704     -1.4489717156     -0.9962131981
H      -2.0429918378     -1.1979377864     -0.5555944598
H      -1.2575472996     -2.6062890218     -1.5143620501
H      -0.9518279281      1.9503030661      1.3474361679
H      -1.6314448180      0.4384925717      1.3490277114
H      -1.9130403454      1.2978492175     -0.1392271385
12
Frame=246  time=123.500fs  energy=-306.17199961Ha  molecule=COOCCCHHHHHH
C      -0.0415157937      0.4385849460      0.0505004213
O       1.1203113034      0.8977709353      0.0668372609
O       1.7545935159      2.0444625460      0.4922750865
C       0.0077618244     -0.9770777159     -0.5863922076
C      -1.1725541985     -1.6746366935     -0.8555265885
C      -1.2516364901      1.1572371419      0.6911947691
H       0.7714757308     -1.4516750677     -1.0146659354
H      -2.0190490838     -1.2127780932     -0.5549997134
H      -1.2393055186     -2.6396076325     -1.5068988589
H      -0.9321768389      1.9371111645      1.3430875442
H      -1.6100724696      0.4358024386      1.3384697655
H      -1.9195941231      1.2849630808     -0.1356322450
12
Frame=247  time=124.000fs  energy=-306.17217146Ha  molecule=COOCCCHHHHHH
C      -0.0409474764      0.4354778357      0.0529147946
O       1.1156899933      0.9018345059      0.0657356632
O       1.7461455589      2.0427302671      0.4963011443
C       0.0065495672     -0.9768240103     -0.5929657150
C      -1.1649516489     -1.6684941989     -0.8552314076
C      -1.2508593421      1.1568171165      0.6927367471
H       0.8176468913     -1.4541570651     -1.0346628480
H      -2.0010777096     -1.2246595767     -0.5524230520
H      -1.2194672672     -2.6683217584     -1.4957328909
H      -0.9109715690      1.9270664987      1.3363804648
H      -1.5913700152      0.4288751745      1.3294303929
H      -1.9282168253      1.2738192235     -0.1323818226
12
Frame=248  time=124.500fs  energy=-306.17203321Ha  molecule=COOCCCHHHHHH
C      -0.0402398564      0.4321031754      0.0553813387
O       1.1113977389      0.9058883674      0.0645617846
O       1.7375721467      2.0410142131      0.5003566668
C       0.0044530634     -0.9765721750     -0.5995602368
C      -1.1565991845     -1.6628487127     -0.8553391429
C      -1.2498573692      1.1560945259      0.6940628442
H       0.8671042973     -1.4543873116     -1.0541359184
H      -1.9904050395     -1.2328719762     -0.5473016007
H      -1.1981803815     -2.6913683541     -1.4805598415
H      -0.8881267841      1.9209359884      1.3279595342
H      -1.5758061122      0.4171552871      1.3229468778
H      -1.9387467473      1.2646005875     -0.1293669521
12
Frame=249  time=125.000fs  energy=-306.17188538Ha  molecule=COOCCCHHHHHH
C      -0.0394193478      0.4284553331      0.0578630767
O       1.1074748488      0.9099181585      0.0633013539
O       1.7288700515      2.0393348581      0.5044539005
C       0.0018300023     -0.9764423070     -0.6063056065
C      -1.1474718743     -1.6578320488     -0.8559056811
C      -1.2486577405      1.1550420321      0.6951022699
H       0.9159020907     -1.4506157914     -1.0712153749
H      -1.9874322745     -1.2373410140     -0.5394459173
H      -1.1756437352     -2.7079508923     -1.4612754746
H      -0.8637005736      1.9191916969      1.3183740168
H      -1.5635477202      0.4007176244      1.3196267271
H      -1.9509224187      1.2574371547     -0.1263784000
12
Frame=250  time=125.500fs  energy=-306.17200926Ha  molecule=COOCCCHHHHHH
C      -0.0385130272      0.4245578498      0.0603359589
O       1.1039494421      0.9139076328      0.0619408821
O       1.7200398697      2.0377106859      0.5086034099
C      -0.0009807854     -0.9765196017     -0.6133007129
C      -1.1376584838     -1.6535238267     -0.8569465369
C      -1.2473029053      1.1536149221      0.6958446416
H       0.9608998760     -1.4416988704     -1.0845411135
H      -1.9915880679     -1.2386539936     -0.5291039166
H      -1.1521278690     -2.7174651232     -1.4378994444
H      -0.8379633275      1.9219321311      1.3080143347
H      -1.5544207988      0.3803881506      1.3195307248
H      -1.9644150800      1.2524246617     -0.1231399013
12
Frame=251  time=126.000fs  energy=-306.17243769Ha  molecule=COOCCCHHHHHH
C      -0.0375481147      0.4204420957      0.0627796389
O       1.1008387990      0.9178419060      0.0604686097
O       1.7110874500      2.0361571555      0.5128128917
C      -0.0037141623     -0.9768222854     -0.6205876318
C      -1.1273286044     -1.6499607883     -0.8584422406
C      -1.2458369498      1.1517581111      0.6963329662
H       1.0001648065     -1.4272967652     -1.0934666431
H      -2.0015695116     -1.2378901782     -0.5169001413
H      -1.1279249424     -2.7194726844     -1.4105515738
H      -0.8114310417      1.9288702887      1.2970963574
H      -1.5480192840      0.3576343431      1.3222737267
H      -1.9788486730      1.2496122378     -0.1193204725
12
Frame=252  time=126.500fs  energy=-306.17302534Ha  molecule=COOCCCHHHHHH
C      -0.0365407868      0.4161300248      0.0651679721
O       1.0981461393      0.9217055128      0.0588742318
O       1.7020249097      2.0346881909      0.5170875807
C      -0.0061726013     -0.9773048487     -0.6281606481
C      -1.1166938091     -1.6471513542     -0.8603475044
C      -1.2442970556      1.1494226280      0.6966397020
H       1.0326615324     -1.4075958560     -1.0978352308
H      -2.0157138125     -1.2363565408     -0.5036893190
H      -1.1033012076     -2.7137473049     -1.3794730893
H      -0.7848309096      1.9393824567      1.2856763313
H      -1.5438583984      0.3342581398      1.3272889209
H      -1.9937822052      1.2489931871     -0.1145495053
12
Frame=253  time=127.000fs  energy=-306.17355759Ha  molecule=COOCCCHHHHHH
C      -0.0354927057      0.4116353437      0.0674690481
O       1.0958575322      0.9254793134      0.0571485437
O       1.6928704452      2.0333180085      0.5214313480
C      -0.0081998565     -0.9778776181     -0.6359849269
C      -1.1059889503     -1.6450637972     -0.8625866261
C      -1.2427103000      1.1465790613      0.6968406819
H       1.0578845510     -1.3830232673     -1.0977350929
H      -2.0322307761     -1.2354043127     -0.4904443147
H      -1.0784732362     -2.7005525516     -1.3451620403
H      -0.7590158877      1.9526117998      1.2736739931
H      -1.5414791320      0.3120341825      1.3340716662
H      -2.0086783873      1.2505102619     -0.1084389070
12
Frame=254  time=127.500fs  energy=-306.17381362Ha  molecule=COOCCCHHHHHH
C      -0.0343944059      0.4069694394      0.0696475818
O       1.0939411961      0.9291405619      0.0552847742
O       1.6836471846      2.0320617717      0.5258475182
C      -0.0096525717     -0.9784288252     -0.6440137088
C      -1.0954753151     -1.6435943870     -0.8650389785
C      -1.2410922695      1.1432209497      0.6970011442
H       1.0755494496     -1.3540534993     -1.0933217746
H      -2.0492185866     -1.2363577978     -0.4782103629
H      -1.0535760055     -2.6810300687     -1.3085383732
H      -0.7348627514      1.9675850578      1.2609008479
H      -1.5404899452      0.2924667159      1.3422650698
H      -2.0229187965      1.2540666219     -0.1006194352
12
Frame=255  time=128.000fs  energy=-306.17369923Ha  molecule=COOCCCHHHHHH
C      -0.0332311948      0.4021426327      0.0716657521
O       1.0923507730      0.9326672997      0.0532813409
O       1.6743806003      2.0309342205      0.5303388320
C      -0.0103881349     -0.9788419970     -0.6521987285
C      -1.0854258376     -1.6425595717     -0.8675439585
C      -1.2394448711      1.1393608167      0.6971739401
H       1.0853906186     -1.3211320838     -1.0847311797
H      -2.0648019255     -1.2403556623     -0.4679750404
H      -1.0286079247     -2.6573636498     -1.2709613455
H      -0.7131766435      1.9833180825      1.2471123216
H      -1.5405738031      0.2767031082      1.3516141691
H      -2.0358945006      1.2595341878     -0.0907952550
12
Frame=256  time=128.500fs  energy=-306.17332318Ha  molecule=COOCCCHHHHHH
C      -0.0319903510      0.3971631829      0.0734861758
O       1.0910326532      0.9360439181      0.0511437351
O       1.6650945812      2.0299466610      0.5349065940
C      -0.0102739852     -0.9790034436     -0.6604925054
C      -1.0760872781     -1.6417281642     -0.8699311413
C      -1.2377518151      1.1350272058      0.6974023622
H       1.0871042983     -1.2847118797     -1.0720899541
H      -2.0774003998     -1.2481212492     -0.4604773453
H      -1.0033996510     -2.6325554040     -1.2340434672
H      -0.6946509998      1.9988831333      1.2320676742
H      -1.5414778280      0.2655281332      1.3618947917
H      -2.0471240217      1.2667542869     -0.0787982385
12
Frame=257  time=129.000fs  energy=-306.17290371Ha  molecule=COOCCCHHHHHH
C      -0.0306674385      0.3920377990      0.0750771327
O       1.0899336612      0.9392651776      0.0488849884
O       1.6558088324      2.0291053175      0.5395500400
C      -0.0092131574     -0.9787972802     -0.6688406565
C      -1.0676496670     -1.6408630513     -0.8720510317
C      -1.2359741144      1.1302669404      0.6977217483
H       1.0805302553     -1.2453955812     -1.0556469144
H      -2.0859047589     -1.2598423396     -0.4560979929
H      -0.9776514539     -2.6100258623     -1.1993983268
H      -0.6799114124      2.0133974188      1.2155689617
H      -1.5429888773      0.2593832702      1.3728617532
H      -2.0563208308      1.2755192353     -0.0646094566
12
Frame=258  time=129.500fs  energy=-306.17260554Ha  molecule=COOCCCHHHHHH
C      -0.0292680636      0.3867709414      0.0764135313
O       1.0890072356      0.9423395008      0.0465256167
O       1.6465395984      2.0284136771      0.5442671448
C      -0.0071870337     -0.9780909273     -0.6771632650
C      -1.0602371823     -1.6397543702     -0.8737936230
C      -1.2340542305      1.1251478814      0.6981582472
H       1.0661532446     -1.2041406047     -1.0360194496
H      -2.0896608578     -1.2752574855     -0.4548955639
H      -0.9510657689     -2.5932055271     -1.1684176613
H      -0.6695512549      2.0259999247      1.1975071027
H      -1.5449255509      0.2584086607      1.3842352121
H      -2.0633891487      1.2855448520     -0.0483415831
12
Frame=259  time=130.000fs  energy=-306.17247815Ha  molecule=COOCCCHHHHHH
C      -0.0278057076      0.3813640545      0.0774748275
O       1.0882185591      0.9452881868      0.0440907835
O       1.6373020837      2.0278774272      0.5490568769
C      -0.0042969451     -0.9767281453     -0.6853398675
C      -1.0539084053     -1.6382546192     -0.8751029740
C      -1.2319296172      1.1197587841      0.6987290406
H       1.0456595646     -1.1623315816     -1.0143700528
H      -2.0884113507     -1.2938653397     -0.4567026463
H      -0.9235113296     -2.5850931503     -1.1420917149
H      -0.6640857227      2.0359036635      1.1779166943
H      -1.5471553267      0.2625058979      1.3957306052
H      -2.0683889969      1.2964758575     -0.0302044068
12
Frame=260  time=130.500fs  energy=-306.17247315Ha  molecule=COOCCCHHHHHH
C      -0.0263033422      0.3758250087      0.0782507822
O       1.0875458556      0.9481351535      0.0416030218
O       1.6281111951      2.0275083325      0.5539217727
C      -0.0007568837     -0.9745505643     -0.6932233270
C      -1.0486646355     -1.6363183456     -0.8759860660
C      -1.2295439115      1.1142035579      0.6994423410
H       1.0219738717     -1.1215896699     -0.9922819004
H      -2.0822998884     -1.3150429576     -0.4611535035
H      -0.8950311151     -2.5877068891     -1.1209080890
H      -0.6638721931      2.0424789948      1.1569833987
H      -1.5496031543      0.2713927716      1.4070853119
H      -2.0714994489      1.3079132476     -0.0104598539
12
Frame=261  time=131.000fs  energy=-306.17237412Ha  molecule=COOCCCHHHHHH
C      -0.0248019752      0.3701806104      0.0787502198
O       1.0869785044      0.9508960367      0.0390756750
O       1.6189797804      2.0273260944      0.5588701037
C       0.0031353012     -0.9714192138     -0.7006633371
C      -1.0444535336     -1.6340452720     -0.8765123306
C      -1.2268512840      1.1085886965      0.7002910868
H       0.9990318451     -1.0835972319     -0.9715527427
H      -2.0718455218     -1.3380068504     -0.4676555898
H      -0.8658362629     -2.6014555774     -1.1048179487
H      -0.6690385945      2.0453026358      1.1350099259
H      -1.5522643668      0.2846172971      1.4180940600
H      -2.0729699454      1.3194229383      0.0106231685
12
Frame=262  time=131.500fs  energy=-306.17195858Ha  molecule=COOCCCHHHHHH
C      -0.0233609833      0.3644680938      0.0789930858
O       1.0865155942      0.9535783750      0.0365127140
O       1.6099161614      2.0273572349      0.5639160095
C       0.0070094965     -0.9672215398     -0.7075192376
C      -1.0411446784     -1.6316992401     -0.8768061596
C      -1.2238204363      1.1030060800      0.7012453865
H       0.9814973284     -1.0499810499     -0.9540257365
H      -2.0578909293     -1.3617960409     -0.4753893785
H      -0.8364638910     -2.6247452543     -1.0932605708
H      -0.6793833313      2.0442460819      1.1124255833
H      -1.5552534809      0.3015610471      1.4287137419
H      -2.0730983890      1.3305472937      0.0327585636
12
Frame=263  time=132.000fs  energy=-306.17127436Ha  molecule=COOCCCHHHHHH
C      -0.0220433190      0.3587152673      0.0789903086
O       1.0861625968      0.9561898887      0.0339161143
O       1.6009225565      2.0276292911      0.5690755584
C       0.0105029777     -0.9618900257     -0.7136890244
C      -1.0385053709     -1.6296630715     -0.8770239409
C      -1.2204380043      1.0975127136      0.7022541086
H       0.9734962317     -1.0220660536     -0.9411908262
H      -2.0415180458     -1.3854381286     -0.4834210583
H      -0.8079152862     -2.6541972335     -1.0852907438
H      -0.6942781950      2.0396114013      1.0898342235
H      -1.5588296475      0.3215109913      1.4391723703
H      -2.0722782417      1.3408581034      0.0555661151
12
Frame=264  time=132.500fs  energy=-306.17062393Ha  molecule=COOCCCHHHHHH
C      -0.0208992515      0.3529384827      0.0787375630
O       1.0859243130      0.9587401124      0.0312917148
O       1.5919961140      2.0281628505      0.5743606696
C       0.0133500338     -0.9554177139     -0.7191279956
C      -1.0362377345     -1.6283343194     -0.8773158165
C      -1.2167101871      1.0921233233      0.7032570631
H       0.9775165891     -1.0006920827     -0.9339176009
H      -2.0238738149     -1.4081174065     -0.4908571388
H      -0.7814369497     -2.6856621734     -1.0798709520
H      -0.7127115863      2.0321539476      1.0679956478
H      -1.5633290253      0.3437421887      1.4499134667
H      -2.0710208721      1.3500057704      0.0785244563
12
Frame=265  time=133.000fs  energy=-306.17030140Ha  molecule=COOCCCHHHHHH
C      -0.0199495787      0.3471580635      0.0782228624
O       1.0857985161      0.9612250466      0.0286435283
O       1.5831324115      2.0289685652      0.5797763309
C       0.0154374026     -0.9478582163     -0.7238444763
C      -1.0340587851     -1.6280422592     -0.8777955143
C      -1.2126681460      1.0868187941      0.7042009853
H       0.9940212485     -0.9859880972     -0.9323523942
H      -2.0059929097     -1.4292127470     -0.4969752530
H      -0.7581196760     -2.7153601521     -1.0761851893
H      -0.7334969859      2.0229413941      1.0477196084
H      -1.5690457555      0.3676066027      1.4614350420
H      -2.0698538020      1.3577412002      0.1010229132
12
Frame=266  time=133.500fs  energy=-306.17021045Ha  molecule=COOCCCHHHHHH
C      -0.0191760277      0.3414208490      0.0774369596
O       1.0857687154      0.9636169364      0.0259690738
O       1.5743299975      2.0300511090      0.5853223921
C       0.0168536914     -0.9393159733     -0.7278941777
C      -1.0317516217     -1.6290001186     -0.8785238644
C      -1.2083747415      1.0815502481      0.7050504380
H       1.0212280993     -0.9774319171     -0.9359746331
H      -1.9888812632     -1.4483160692     -0.5012989730
H      -0.7386265014     -2.7406191681     -1.0738139564
H      -0.7554379170      2.0131765639      1.0297688783
H      -1.5761356954      0.3926540243      1.4741519765
H      -2.0691910090      1.3638856315      0.1224303226
12
Frame=267  time=134.000fs  energy=-306.16986603Ha  molecule=COOCCCHHHHHH
C      -0.0185289904      0.3358017125      0.0763779389
O       1.0858013554      0.9658797580      0.0232654203
O       1.5655935741      2.0314135636      0.5909964077
C       0.0178950828     -0.9299389733     -0.7313805298
C      -1.0291451985     -1.6312731670     -0.8795087720
C      -1.2039245224      1.0762359443      0.7057878216
H       1.0550741603     -0.9743020093     -0.9438080900
H      -1.9738272871     -1.4651994269     -0.5035077679
H      -0.7231052345     -2.7601094596     -1.0727120152
H      -0.7773254828      2.0041548413      1.0148463546
H      -1.5845890153      0.4186394094      1.4882969978
H      -2.0693261695      1.3682554722      0.1421136707
12
Frame=268  time=134.500fs  energy=-306.16908868Ha  molecule=COOCCCHHHHHH
C      -0.0179522987      0.3303804690      0.0750560084
O       1.0858585145      0.9679887237      0.0205322369
O       1.5569318430      2.0330579171      0.5967957692
C       0.0189427270     -0.9199196626     -0.7344445165
C      -1.0260620373     -1.6348068019     -0.8807274340
C      -1.1994330638      1.0707738129      0.7064113019
H       1.0902640873     -0.9759561241     -0.9546987017
H      -1.9623503158     -1.4797259005     -0.5033092024
H      -0.7113726280     -2.7733523458     -1.0729905129
H      -0.7979492855      1.9972815292      1.0035813478
H      -1.5942485760      0.4453906198      1.5038657327
H      -2.0704804962      1.3706294014      0.1594678235
12
Frame=269  time=135.000fs  energy=-306.16827683Ha  molecule=COOCCCHHHHHH
C      -0.0174011385      0.3252295366      0.0735011768
O       1.0859127869      0.9699266304      0.0177652752
O       1.5483511969      2.0349835972      0.6027189987
C       0.0202604681     -0.9094733926     -0.7372283240
C      -1.0223302959     -1.6395050089     -0.8821507640
C      -1.1950194171      1.0650769112      0.7069383679
H       1.1226021735     -0.9817122156     -0.9676344569
H      -1.9556858839     -1.4918298011     -0.5004783215
H      -0.7032088645     -2.7801135162     -1.0747245696
H      -0.8162320028      1.9939056195      0.9964347602
H      -1.6048193660      0.4726939055      1.5206205171
H      -2.0727885272      1.3707674278      0.1739803310
12
Frame=270  time=135.500fs  energy=-306.16787774Ha  molecule=COOCCCHHHHHH
C      -0.0168447817      0.3204204493      0.0717637323
O       1.0859496327      0.9716770627      0.0149555955
O       1.5398520075      2.0371861546      0.6087653019
C       0.0219791354     -0.8988003596     -0.7398575505
C      -1.0178314657     -1.6452857764     -0.8837511310
C      -1.1907883665      1.0591099081      0.7074076577
H       1.1495655401     -0.9908149513     -0.9818095723
H      -1.9545205820     -1.5015625469     -0.4949490042
H      -0.6984675210     -2.7801966096     -1.0779216844
H      -0.8313682519      1.9949587120      0.9935929118
H      -1.6158786912      0.5002640349      1.5381569917
H      -2.0762791212      1.3684310148      0.1852670748
12
Frame=271  time=136.000fs  energy=-306.16810429Ha  molecule=COOCCCHHHHHH
C      -0.0162652166      0.3160281720      0.0699075640
O       1.0859631183      0.9732304718      0.0120965821
O       1.5314289089      2.0396558221      0.6149328099
C       0.0241779456     -0.8880679813     -0.7424443024
C      -1.0125241176     -1.6520871025     -0.8854944236
C      -1.1868190825      1.0529113818      0.7078760029
H       1.1695442289     -1.0026065518     -0.9965838713
H      -1.9589225401     -1.5091018358     -0.4868849523
H      -0.6970283886     -2.7734749578     -1.0825637011
H      -0.8429019537      2.0006046686      0.9948977910
H      -1.6269321007      0.5277614837      1.5560105884
H      -2.0808744465      1.3633988329      0.1930815382
12
Frame=272  time=136.500fs  energy=-306.16888515Ha  molecule=COOCCCHHHHHH
C      -0.0156505484      0.3121281422      0.0680005157
O       1.0859499983      0.9745903762      0.0091895090
O       1.5230725742      2.0423773298      0.6212174663
C       0.0269179417     -0.8774163502     -0.7450905121
C      -1.0064518770     -1.6598371284     -0.8873247894
C      -1.1831652099      1.0465926928      0.7084125386
H       1.1813539737     -1.0166329100     -1.0114692779
H      -1.9682318299     -1.5147367952     -0.4767551473
H      -0.6986901616     -2.7600620407     -1.0886537137
H      -0.8507227681      2.0101040404      0.9998338352
H      -1.6374801900      0.5548355469      1.5737391586
H      -2.0863716982      1.3554832080      0.1973264097
12
Frame=273  time=137.000fs  energy=-306.16991004Ha  molecule=COOCCCHHHHHH
C      -0.0149846868      0.3087903240      0.0661041978
O       1.0859048678      0.9757725451      0.0062446931
O       1.5147711468      2.0453314202      0.6276131169
C       0.0302396642     -0.8669727970     -0.7478883048
C      -0.9997441646     -1.6684014252     -0.8891542809
C      -1.1798635720      1.0403088026      0.7090884063
H       1.1840669207     -1.0326032881     -1.0260926115
H      -1.9810416253     -1.5188507439     -0.4653443944
H      -0.7030071791     -2.7406835177     -1.0962696297
H      -0.8549701367      2.0220146697      1.0076049463
H      -1.6470706494      0.5811713342      1.5909640089
H      -2.0924281982      1.3445499120      0.1980678015
12
Frame=274  time=137.500fs  energy=-306.17082029Ha  molecule=COOCCCHHHHHH
C      -0.0142402148      0.3060735921      0.0642667059
O       1.0858194786      0.9768003519      0.0032795412
O       1.5065111029      2.0484969930      0.6341122311
C       0.0341573127     -0.8568650891     -0.7509186429
C      -0.9926001067     -1.6775388972     -0.8908671447
C      -1.1769423822      1.0342135302      0.7099630809
H       1.1769521288     -1.0502899882     -1.0401480544
H      -1.9954299276     -1.5219089604     -0.4536369747
H      -0.7091564773     -2.7170511226     -1.1056192043
H      -0.8559087345      2.0346647858      1.0172948463
H      -1.6553507526      0.6065228101      1.6073958663
H      -2.0985872795      1.3305449787      0.1955442855
12
Frame=275  time=138.000fs  energy=-306.17142257Ha  molecule=COOCCCHHHHHH
C      -0.0133789272      0.3040222380      0.0625212600
O       1.0856876121      0.9777004511      0.0003148243
O       1.4982779744      2.0518524961      0.6407064681
C       0.0386557075     -0.8472259828     -0.7542489051
C      -0.9852550582     -1.6869115963     -0.8923362816
C      -1.1744219040      1.0284253623      0.7110742812
H       1.1595329533     -1.0694421396     -1.0533837602
H      -2.0093462775     -1.5244541523     -0.4426460949
H      -0.7159866118     -2.6918016749     -1.1170559765
H      -0.8538654158      2.0466270366      1.0280366755
H      -1.6621216871      0.6307291848      1.6228552662
H      -2.1043461374      1.3135193523      0.1901627909
12
Frame=276  time=138.500fs  energy=-306.17171761Ha  molecule=COOCCCHHHHHH
C      -0.0123576915      0.3026644718      0.0608881686
O       1.0855113588      0.9784980572     -0.0026299528
O       1.4900571423      2.0553759609      0.6473865111
C       0.0436805674     -0.8381882324     -0.7579282470
C      -0.9779500826     -1.6961284730     -0.8934363743
C      -1.1723106378      1.0230178065      0.7124371128
H       1.1318309738     -1.0897044233     -1.0656248790
H      -2.0209388429     -1.5270883830     -0.4332918983
H      -0.7221823191     -2.6681459578     -1.1310741318
H      -0.8492170318      2.0569520676      1.0391164215
H      -1.6673607339      0.6537054186      1.6372695779
H      -2.1092336993      1.2936233725      0.1824581478
12
Frame=277  time=139.000fs  energy=-306.17182223Ha  molecule=COOCCCHHHHHH
C      -0.0111318871      0.3020115207      0.0593747364
O       1.0853026841      0.9792114406     -0.0055401918
O       1.4818352054      2.0590441208      0.6541412276
C       0.0491095165     -0.8298692089     -0.7619758912
C      -0.9709080309     -1.7047917175     -0.8940505149
C      -1.1706056453      1.0180294636      0.7140515716
H       1.0948144999     -1.1105907719     -1.0768461779
H      -2.0287471753     -1.5304376413     -0.4263326099
H      -0.7264654573     -2.6494501251     -1.1482820571
H      -0.8423718063      2.0651468316      1.0499936196
H      -1.6711813062      0.6753896409      1.6506445967
H      -2.1128653074      1.2710617553      0.1730003426
12
Frame=278  time=139.500fs  energy=-306.17182670Ha  molecule=COOCCCHHHHHH
C      -0.0096526895      0.3020567320      0.0579726562
O       1.0850794036      0.9798530038     -0.0084050821
O       1.4736028648      2.0628321988      0.6609572880
C       0.0547082858     -0.8223391277     -0.7663616666
C      -0.9642971618     -1.7125744779     -0.8940860437
C      -1.1693000312      1.0134825114      0.7159128861
H       1.0508661480     -1.1317156514     -1.0873396182
H      -2.0318007483     -1.5350788641     -0.4223055144
H      -0.7278995007     -2.6384562211     -1.1692571073
H      -0.8337440745      2.0710180879      1.0602577085
H      -1.6737466771      0.6956561502      1.6630379731
H      -2.1149555175      1.2460401269      0.1622810200
12
Frame=279  time=140.000fs  energy=-306.17168360Ha  molecule=COOCCCHHHHHH
C      -0.0078665268      0.3027756297      0.0566596794
O       1.0848603293      0.9804387581     -0.0112126852
O       1.4653583730      2.0667160674      0.6678205543
C       0.0601058352     -0.8155929500     -0.7709965210
C      -0.9582084341     -1.7192861888     -0.8934909656
C      -1.1683920318      1.0093989466      0.7180191663
H       1.0039892173     -1.1532231642     -1.0979037682
H      -2.0296177009     -1.5414243128     -0.4214804571
H      -0.7260650621     -2.6366304904     -1.1943712044
H      -0.8237473365      2.0744875511      1.0695440660
H      -1.6751877886      0.7142507078      1.6745435708
H      -2.1152893378      1.2187410996      0.1506530575
12
Frame=280  time=140.500fs  energy=-306.17143303Ha  molecule=COOCCCHHHHHH
C      -0.0057288470      0.3041310199      0.0554119932
O       1.0846669393      0.9809952460     -0.0139491046
O       1.4571088520      2.0706768075      0.6747191733
C       0.0648463262     -0.8095666811     -0.7757564932
C      -0.9526576225     -1.7248874457     -0.8922648712
C      -1.1678873018      1.0058067279      0.7203738511
H       0.9592337328     -1.1759081977     -1.1097769147
H      -2.0221402433     -1.5496833354     -0.4238591189
H      -0.7210731196     -2.6439370170     -1.2236282709
H      -0.8128203803      2.0754754596      1.0774690716
H      -1.6755646405      0.7308081581      1.6852723751
H      -2.1136623749      1.1893348064      0.1383612827
12
Frame=281  time=141.000fs  energy=-306.17129055Ha  molecule=COOCCCHHHHHH
C      -0.0032234749      0.3060892804      0.0542210692
O       1.0845309422      0.9815549251     -0.0166035804
O       1.4488665122      2.0747032963      0.6816452955
C       0.0685219780     -0.8041945177     -0.7805311249
C      -0.9475911455     -1.7294822311     -0.8904706620
C      -1.1677927208      1.0027326150      0.7229819337
H       0.9211557529     -1.2007695573     -1.1241882834
H      -2.0096459502     -1.5599288967     -0.4292349918
H      -0.7135525605     -2.6588159479     -1.2564968227
H      -0.8014684249      2.0739071787      1.0836420199
H      -1.6748698555      0.7449328490      1.6953258847
H      -2.1098135123      1.1580015402      0.1256153625
12
Frame=282  time=141.500fs  energy=-306.17139459Ha  molecule=COOCCCHHHHHH
C      -0.0003645355      0.3086300891      0.0530995829
O       1.0844974839      0.9821460761     -0.0191727085
O       1.4406409169      2.0787883878      0.6885932130
C       0.0708766344     -0.7994471043     -0.7852585937
C      -0.9429086196     -1.7332882499     -0.8882338218
C      -1.1681056405      1.0001918271      0.7258448213
H       0.8927554787     -1.2284176733     -1.1419316602
H      -1.9927294988     -1.5721659638     -0.4372460018
H      -0.7045128763     -2.6785719630     -1.2918895068
H      -0.7902825641      2.0697771297      1.0877342589
H      -1.6730656563      0.7562859193      1.7047786341
H      -2.1034608518      1.1249755976      0.1126411384
12
Frame=283  time=142.000fs  energy=-306.17168967Ha  molecule=COOCCCHHHHHH
C       0.0028144802      0.3117352154      0.0520750670
O       1.0846203351      0.9827881932     -0.0216612494
O       1.4324349503      2.0829218102      0.6955558862
C       0.0718454995     -0.7953271768     -0.7899371149
C      -0.9384852467     -1.7365754045     -0.8857230537
C      -1.1688039582      0.9981868021      0.7289623604
H       0.8752750794     -1.2587466584     -1.1631694050
H      -1.9725013612     -1.5863041773     -0.4473136144
H      -0.6950419178     -2.7003237411     -1.3284527974
H      -0.7799210629      2.0631903915      1.0895462542
H      -1.6701389962      0.7646546177      1.7136796537
H      -2.0944815986      1.0905777543      0.0996695212
12
Frame=284  time=142.500fs  energy=-306.17188659Ha  molecule=COOCCCHHHHHH
C       0.0062714879      0.3153792112      0.0511819956
O       1.0849521186      0.9834910560     -0.0240802610
O       1.4242466486      2.0870852994      0.7025218751
C       0.0715437500     -0.7918528801     -0.7946163131
C      -0.9341892161     -1.7396222075     -0.8831245389
C      -1.1698439609      0.9967135853      0.7323373114
H       0.8684153253     -1.2908662596     -1.1874242164
H      -1.9506447759     -1.6021089634     -0.4586284534
H      -0.6860544988     -2.7216820937     -1.3649026650
H      -0.7710706718      2.0543426703      1.0890177343
H      -1.6661142684      0.7699554552      1.7220406326
H      -2.0830340484      1.0552019127      0.0869017431
12
Frame=285  time=143.000fs  energy=-306.17159214Ha  molecule=COOCCCHHHHHH
C       0.0099694993      0.3195295321      0.0504505427
O       1.0855344898      0.9842580445     -0.0264403883
O       1.4160733612      2.0912538592      0.7094746581
C       0.0702189880     -0.7890662653     -0.7993826441
C      -0.9298927712     -1.7427135549     -0.8806276919
C      -1.1711673036      0.9957645613      0.7359719946
H       0.8706709150     -1.3229972793     -1.2136066795
H      -1.9290877629     -1.6192691357     -0.4703203300
H      -0.6783955777     -2.7406690466     -1.4000322970
H      -0.7644013766      2.0434632074      1.0861749071
H      -1.6610240271      0.7721691627      1.7298156344
H      -2.0694839123      1.0192874357      0.0745224951
12
Frame=286  time=143.500fs  energy=-306.17066482Ha  molecule=COOCCCHHHHHH
C       0.0138852335      0.3241455161      0.0498944680
O       1.0863926143      0.9850967622     -0.0287418209
O       1.4079154371      2.0954029630      0.7163954649
C       0.0681947564     -0.7870590840     -0.8043527769
C      -0.9254782090     -1.7461122569     -0.8784075961
C      -1.1727100042      0.9953177961      0.7398605959
H       0.8795255992     -1.3525618184     -1.2400915796
H      -1.9095587894     -1.6375370627     -0.4816722654
H      -0.6729446923     -2.7555834909     -1.4326483423
H      -0.7605066455      2.0308127369      1.0810817477
H      -1.6548908465      0.7712954689      1.7369098020
H      -2.0542389535      0.9832868604      0.0627100164
12
Frame=287  time=144.000fs  energy=-306.16942084Ha  molecule=COOCCCHHHHHH
C       0.0180009187      0.3291753508      0.0495118092
O       1.0875354312      0.9860271439     -0.0309705761
O       1.3997781176      2.0995148916      0.7232671783
C       0.0657931849     -0.7859465258     -0.8096528588
C      -0.9208447102     -1.7500079564     -0.8766010168
C      -1.1744079195      0.9953230795      0.7439884708
H       0.8920246974     -1.3770141452     -1.2651608134
H      -1.8933694045     -1.6567606303     -0.4921804437
H      -0.6703922834     -2.7651401174     -1.4617019097
H      -0.7598251502      2.0167620616      1.0738350114
H      -1.6477370960      0.7673607761      1.7432043515
H      -2.0376991468      0.9476328969      0.0515961389
12
Frame=288  time=144.500fs  energy=-306.16834455Ha  molecule=COOCCCHHHHHH
C       0.0222889587      0.3345602337      0.0492964569
O       1.0889621106      0.9870763574     -0.0331058446
O       1.3916699821      2.1035789029      0.7300760000
C       0.0632561059     -0.7858078103     -0.8153807373
C      -0.9159068088     -1.7545011021     -0.8752993312
C      -1.1762014521      0.9956977742      0.7483342089
H       0.9056586380     -1.3947553166     -1.2875604187
H      -1.8814655172     -1.6767978778     -0.5014654205
H      -0.6709903239     -2.7685626369     -1.4864447302
H      -0.7625740982      2.0018833002      1.0645804567
H      -1.6395893988      0.7604100439      1.7485663173
H      -2.0203177708      0.9127569956      0.0412579185
12
Frame=289  time=145.000fs  energy=-306.16773420Ha  molecule=COOCCCHHHHHH
C       0.0267036518      0.3402365243      0.0492439528
O       1.0906719353      0.9882713063     -0.0351286598
O       1.3835996266      2.1075880634      0.7368107493
C       0.0607314466     -0.7866642059     -0.8215872717
C      -0.9105931221     -1.7596300655     -0.8745620816
C      -1.1780415209      0.9963258656      0.7528657954
H       0.9187212679     -1.4051791526     -1.3066185788
H      -1.8745441476     -1.6974576146     -0.5091786760
H      -0.6745880883     -2.7655181454     -1.5064364537
H      -0.7687130219      1.9870478832      1.0535677286
H      -1.6304666048      0.7505055166      1.7528680581
H      -2.0026427036      0.8791297547      0.0317392938
12
Frame=290  time=145.500fs  energy=-306.16768482Ha  molecule=COOCCCHHHHHH
C       0.0311863539      0.3461307035      0.0493461169
O       1.0926701227      0.9896367577     -0.0370253409
O       1.3755737875      2.1115378698      0.7434625456
C       0.0583073708     -0.7884929479     -0.8282819201
C      -0.9048645703     -1.7654068925     -0.8744294655
C      -1.1798950197      0.9970586004      0.7575358224
H       0.9301333225     -1.4081756539     -1.3220189856
H      -1.8729531604     -1.7185176735     -0.5150354748
H      -0.6808307637     -2.7559724770     -1.5214433438
H      -0.7779402319      1.9734770627      1.0411985127
H      -1.6203790473      0.7377558304      1.7560219543
H      -1.9852946895      0.8472542609      0.0230693504
12
Frame=291  time=146.000fs  energy=-306.16819136Ha  molecule=COOCCCHHHHHH
C       0.0356758234      0.3521578764      0.0495847833
O       1.0949684952      0.9911958858     -0.0387876296
O       1.3675967798      2.1154264629      0.7500253237
C       0.0560403960     -0.7912454689     -0.8354430504
C      -0.8987383382     -1.7718368709     -0.8749247953
C      -1.1817481820      0.9977219262      0.7622816489
H       0.9392165351     -1.4037871554     -1.3336195397
H      -1.8764858946     -1.7397461055     -0.5189033546
H      -0.6892878040     -2.7400612830     -1.5313460957
H      -0.7897360491      1.9626808924      1.0280058258
H      -1.6093467961      0.7223362305      1.7580016333
H      -1.9688914054      0.8176229013      0.0152957122
12
Frame=292  time=146.500fs  energy=-306.16919213Ha  molecule=COOCCCHHHHHH
C       0.0401154327      0.3582267178      0.0499292940
O       1.0975837397      0.9929698822     -0.0404117094
O       1.3596702910      2.1192546489      0.7564961089
C       0.0539669165     -0.7948626527     -0.8430260209
C      -0.8922963431     -1.7789109475     -0.8760469750
C      -1.1836060006      0.9981306685      0.7670297677
H       0.9455232830     -1.3921043741     -1.3413785889
H      -1.8843011650     -1.7609015547     -0.5208448608
H      -0.6994534675     -2.7181025454     -1.5361629252
H      -0.8034541978      1.9562906737      1.0145723281
H      -1.5974116741      0.7044784862      1.7588375462
H      -1.9539514941      0.7906733162      0.0085272634
12
Frame=293  time=147.000fs  energy=-306.17053039Ha  molecule=COOCCCHHHHHH
C       0.0444554073      0.3642457649      0.0503360135
O       1.1005347748      0.9949765188     -0.0418965317
O       1.3517934851      2.1230253700      0.7628745813
C       0.0521051185     -0.7992863372     -0.8509685517
C      -0.8856780933     -1.7865708494     -0.8777504036
C      -1.1854839544      0.9981109038      0.7717039864
H       0.9487262441     -1.3732773869     -1.3453371976
H      -1.8950029354     -1.7817431999     -0.5211113817
H      -0.7106757749     -2.6908390098     -1.5362490396
H      -0.8184669889      1.9557905155      1.0014240754
H      -1.5846260776      0.6844391254      1.7585976127
H      -1.9408346694      0.7667630430      0.0029484847
12
Frame=294  time=147.500fs  energy=-306.17188943Ha  molecule=COOCCCHHHHHH
C       0.0486505578      0.3701267411      0.0507492727
O       1.1038394458      0.9972292838     -0.0432412798
O       1.3439638451      2.1267426166      0.7691617297
C       0.0504536823     -0.8044597003     -0.8591926916
C      -0.8790654359     -1.7946657984     -0.8799170564
C      -1.1873915232      0.9975294794      0.7762361373
H       0.9486214888     -1.3475870311     -1.3456506975
H      -1.9068345586     -1.8020545455     -0.5201061105
H      -0.7220995212     -2.6598500261     -1.5326314837
H      -0.8343434155      1.9621948174      0.9889405724
H      -1.5710322455      0.6624634010      1.7573709681
H      -1.9297467774      0.7461634732     -0.0012119897
12
Frame=295  time=148.000fs  energy=-306.17287202Ha  molecule=COOCCCHHHHHH
C       0.0526544492      0.3757857279      0.0511052506
O       1.1075107472      0.9997380625     -0.0444424480
O       1.3361791459      2.1304093962      0.7753573561
C       0.0489898537     -0.8103112553     -0.8676022939
C      -0.8726592935     -1.8029412850     -0.8823450432
C      -1.1893141651      0.9963196929      0.7805737467
H       0.9452676339     -1.3155522431     -1.3426663365
H      -1.9179739114     -1.8216502800     -0.5182961729
H      -0.7326996139     -2.6277882664     -1.5272420119
H      -0.8509851900      1.9757974829      0.9773194952
H      -1.5566608575      0.6387621023      1.7552678792
H      -1.9207867338      0.7290617228     -0.0037341887
12
Frame=296  time=148.500fs  energy=-306.17325121Ha  molecule=COOCCCHHHHHH
C       0.0564127955      0.3811473590      0.0513391584
O       1.1115528457      1.0025099115     -0.0454920515
O       1.3284404824      2.1340254947      0.7814573320
C       0.0476628549     -0.8167332891     -0.8760769648
C      -0.8666509387     -1.8110876205     -0.8847786438
C      -1.1912019858      0.9944917211      0.7846800243
H       0.9391898414     -1.2780499308     -1.3370212939
H      -1.9268183753     -1.8403765354     -0.5161064144
H      -0.7414070595     -2.5979815849     -1.5227055405
H      -0.8686555290      1.9960701031      0.9665980861
H      -1.5415582711      0.6135120306      1.7524366972
H      -1.9139885547      0.7155545830     -0.0044494382
12
Frame=297  time=149.000fs  energy=-306.17305384Ha  molecule=COOCCCHHHHHH
C       0.0598636470      0.3861558965      0.0513943450
O       1.1159563162      1.0055482928     -0.0463781609
O       1.3207547776      2.1375874027      0.7874531663
C       0.0463758539     -0.8235654461     -0.8844647214
C      -0.8611959569     -1.8188290022     -0.8869750963
C      -1.1929726926      0.9921243084      0.7885286663
H       0.9316086543     -1.2364361503     -1.3297438388
H      -1.9321327584     -1.8581302490     -0.5138685133
H      -0.7472897039     -2.5734924046     -1.5216474929
H      -0.8878676397      2.0216965620      0.9566952041
H      -1.5258134197      0.5868784720      1.7490681259
H      -1.9093327880      0.7056374771     -0.0032519115
12
Frame=298  time=149.500fs  energy=-306.17250783Ha  molecule=COOCCCHHHHHH
C       0.0629510364      0.3907844303      0.0512276090
O       1.1206928069      1.0088526924     -0.0470864304
O       1.3131342784      2.1410914398      0.7933353840
C       0.0449795249     -0.8305963033     -0.8925881754
C      -0.8564001685     -1.8259766572     -0.8887481018
C      -1.1945328202      0.9893455406      0.7921028048
H       0.9244741705     -1.1924663665     -1.3222085167
H      -1.9330860343     -1.8748542662     -0.5118184115
H      -0.7496999018     -2.5566646762     -1.5262337194
H      -0.9091474138      2.0507043132      0.9474445316
H      -1.5095466171      0.5590569606      1.7453462447
H      -1.9067527842      0.6992217130     -0.0000783789
12
Frame=299  time=150.000fs  energy=-306.17202590Ha  molecule=COOCCCHHHHHH
C       0.0656422137      0.3950360639      0.0508079008
O       1.1257126934      1.0124181784     -0.0476021558
O       1.3055923055      2.1445379761      0.7990986020
C       0.0433125360     -0.8376142961     -0.9002806422
C      -0.8523149976     -1.8324354617     -0.8899825773
C      -1.1958035641      0.9863164513      0.7954002491
H       0.9199168428     -1.1477994340     -1.3157750626
H      -1.9292484226     -1.8904927830     -0.5100866324
H      -0.7483333970     -2.5490668359     -1.5379901428
H      -0.9328027692      2.0806198735      0.9386327819
H      -1.4928687307      0.5303278203      1.7413615656
H      -1.9061315193      0.6961338116      0.0051006169
12
Frame=300  time=150.500fs  energy=-306.17193561Ha  molecule=COOCCCHHHHHH
C       0.0679327431      0.3989419600      0.0501156799
O       1.1309500691      1.0162339382     -0.0479134163
O       1.2981378657      2.1479328584      0.8047439227
C       0.0412376042     -0.8444537001     -0.9074080751
C      -0.8489415638     -1.8382151173     -0.8906650198
C      -1.1967324503      0.9832157828      0.7984340259
H       0.9197913503     -1.1036721479     -1.3115706685
H      -1.9205750176     -1.9049598708     -0.5086579224
H      -0.7431935197     -2.5511831795     -1.5574331895
H      -0.9588376452      2.1086893835      0.9300684404
H      -1.4758554827      0.5010748935      1.7370715136
H      -1.9073056036      0.6960972347      0.0122601785
12
Frame=301  time=151.000fs  energy=-306.17229540Ha  molecule=COOCCCHHHHHH
C       0.0698404663      0.4025521637      0.0491420123
O       1.1363325971      1.0202829798     -0.0480134041
O       1.2907732829      2.1512847892      0.8102772788
C       0.0386556396     -0.8509976122     -0.9138657552
C      -0.8462399314     -1.8434331360     -0.8909018436
C      -1.1972928433      0.9802145808      0.8012241939
H       0.9255531616     -1.0608982070     -1.3104978618
H      -1.9073958293     -1.9181381469     -0.5073397469
H      -0.7345024575     -2.5622643612     -1.5838520186
H      -0.9869846651      2.1322841701      0.9216600575
H      -1.4585551553      0.4717423853      1.7323503630
H      -1.9101111912      0.6987476558      0.0213020368
12
Frame=302  time=151.500fs  energy=-306.17289519Ha  molecule=COOCCCHHHHHH
C       0.0713984380      0.4059182113      0.0478809935
O       1.1417898359      1.0245438034     -0.0479002538
O       1.2834946931      2.1546004288      0.8157054962
C       0.0355307292     -0.8571612628     -0.9195755336
C      -0.8441288489     -1.8482939916     -0.8909050490
C      -1.1974806914      0.9774509062      0.8037907278
H       0.9379866652     -1.0198749804     -1.3131430430
H      -1.8904461725     -1.9299024749     -0.5057601840
H      -0.7226629090     -2.5805529872     -1.6154667110
H      -1.0167683736      2.1493002509      0.9134494267
H      -1.4410076901      0.4427776309      1.7270609729
H      -1.9144331668      0.7036592341      0.0320455010
12
Frame=303  time=152.000fs  energy=-306.17338076Ha  molecule=COOCCCHHHHHH
C       0.0726481817      0.4090817429      0.0463221515
O       1.1472568542      1.0289924599     -0.0475746261
O       1.2762937103      2.1578809836      0.8210326858
C       0.0319029615     -0.8628745449     -0.9244856448
C      -0.8424823117     -1.8530547825     -0.8909577990
C      -1.1973096653      0.9750187651      0.8061515960
H       0.9570199102     -0.9806643721     -1.3196933595
H      -1.8708170530     -1.9401705875     -0.5034183257
H      -0.7082901233     -2.6036294798     -1.6497635547
H      -1.0475645521      2.1583283857      0.9055993221
H      -1.4232623781      0.4145972422      1.7210968296
H      -1.9202156201      0.7103575014      0.0442201662
12
Frame=304  time=152.500fs  energy=-306.17343971Ha  molecule=COOCCCHHHHHH
C       0.0736315900      0.4120776343      0.0444517766
O       1.1526735012      1.0336034084     -0.0470365936
O       1.2691604744      2.1611231756      0.8262590858
C       0.0278850103     -0.8680879755     -0.9285832564
C      -0.8411434116     -1.8579714919     -0.8913583009
C      -1.1968028304      0.9729644849      0.8083205083
H       0.9816634659     -0.9431279384     -1.3298931321
H      -1.8497146287     -1.9489461149     -0.4998027296
H      -0.6921742242     -2.6288310389     -1.6839612225
H      -1.0786646504      2.1586530616      0.8983809679
H      -1.4053883197      0.3875825001      1.7143843713
H      -1.9274378054      0.7183296035      0.0574779266
12
Frame=305  time=153.000fs  energy=-306.17282731Ha  molecule=COOCCCHHHHHH
C       0.0743836187      0.4149384660      0.0422579189
O       1.1579846455      1.0383505555     -0.0462847408
O       1.2620859618      2.1643236565      0.8313831817
C       0.0236706842     -0.8727899418     -0.9319176089
C      -0.8399429030     -1.8632416282     -0.8923660174
C      -1.1959853321      0.9712845229      0.8103052329
H       1.0097384702     -0.9070941278     -1.3429543184
H      -1.8282726333     -1.9563220876     -0.4944702938
H      -0.6750984094     -2.6536411484     -1.7154716203
H      -1.1093208649      2.1502238591      0.8921717932
H      -1.3874811602      0.3620910158      1.7068621291
H      -1.9360809546      0.7270098204      0.0714136169
12
Frame=306  time=153.500fs  energy=-306.17154111Ha  molecule=COOCCCHHHHHH
C       0.0749300588      0.4176960772      0.0397337092
O       1.1631436329      1.0432109866     -0.0453167990
O       1.2550613602      2.1674820320      0.8364046960
C       0.0195126323     -0.8770041589     -0.9346005435
C      -0.8386944997     -1.8689744565     -0.8941786439
C      -1.1948846170      0.9699267088      0.8121108792
H       1.0380089654     -0.8726115046     -1.3576734192
H      -1.8076517262     -1.9624780929     -0.4870146074
H      -0.6577047546     -2.6759374130     -1.7421871803
H      -1.1387576844      2.1336683572      0.8874273242
H      -1.3696758893      0.3384462416      1.6984750462
H      -1.9460772715      0.7357497671      0.0855872023
12
Frame=307  time=154.000fs  energy=-306.16995277Ha  molecule=COOCCCHHHHHH
C       0.0752915415      0.4203852162      0.0368795404
O       1.1681132213      1.0481653985     -0.0441313776
O       1.2480762520      2.1705996834      0.8413250944
C       0.0156298226     -0.8807706154     -0.9367660443
C      -0.8372087507     -1.8751979337     -0.8969200443
C      -1.1935318313      0.9687952772      0.8137421335
H       1.0634699465     -0.8399193982     -1.3728834179
H      -1.7890989627     -1.9676497132     -0.4770184431
H      -0.6404854189     -2.6942826643     -1.7627403344
H      -1.1662059916      2.1102577682      0.8846162453
H      -1.3521386718      0.3169005693      1.6891961892
H      -1.9572705655      0.7438848332      0.0995718795
12
Frame=308  time=154.500fs  energy=-306.16848653Ha  molecule=COOCCCHHHHHH
C       0.0754873951      0.4230430479      0.0337022526
O       1.1728629367      1.0531924538     -0.0427319010
O       1.2411186164      2.1736776657      0.8461466318
C       0.0121547605     -0.8841266681     -0.9385309141
C      -0.8353317385     -1.8818933489     -0.9006435274
C      -1.1919594487      0.9677606936      0.8151994118
H       1.0842480633     -0.8091616511     -1.3877001501
H      -1.7737172316     -1.9720741859     -0.4641078070
H      -0.6238240442     -2.7079996124     -1.7765216883
H      -1.1909805450      2.0817303647      0.8841496673
H      -1.3350332765      0.2976084570      1.6790461472
H      -1.9694043884      0.7508709182      0.1130276008
12
Frame=309  time=155.000fs  energy=-306.16737325Ha  molecule=COOCCCHHHHHH
C       0.0755374342      0.4257036126      0.0302114924
O       1.1773666428      1.0582671566     -0.0411276113
O       1.2341764080      2.1767155812      0.8508717854
C       0.0091508439     -0.8870921227     -0.9399799265
C      -0.8329725523     -1.8890368495     -0.9053538372
C      -1.1901998425      0.9666727490      0.8164737158
H       1.0994628217     -0.7803097526     -1.4014953623
H      -1.7621328429     -1.9759478603     -0.4480966648
H      -0.6080481479     -2.7168877360     -1.7833729594
H      -1.2125564614      2.0500853048      0.8863387419
H      -1.3184843663      0.2806131637      1.6680978095
H      -1.9821277278      0.7563720805      0.1257641417
12
Frame=310  time=155.500fs  energy=-306.16666685Ha  molecule=COOCCCHHHHHH
C       0.0754641876      0.4283922609      0.0264160984
O       1.1816013121      1.0633653831     -0.0393302294
O       1.2272392544      2.1797111255      0.8555032020
C       0.0066437505     -0.8896659611     -0.9411680725
C      -0.8301057941     -1.8966213671     -0.9110285968
C      -1.1882841648      0.9653693262      0.8175450483
H       1.1087989741     -0.7532921359     -1.4138446456
H      -1.7543245393     -1.9794166887     -0.4291045112
H      -0.5934818837     -2.7208904370     -1.7832494811
H      -1.2306196986      2.0175103016      0.8913955770
H      -1.3025685020      0.2658346831      1.6564834402
H      -1.9950356455      0.7602512978      0.1377531920
12
Frame=311  time=156.000fs  energy=-306.16633733Ha  molecule=COOCCCHHHHHH
C       0.0752960177      0.4311232350      0.0223215947
O       1.1855451616      1.0684677693     -0.0373501027
O       1.2202994461      2.1826596804      0.8600431910
C       0.0046415279     -0.8918323057     -0.9421289777
C      -0.8267578416     -1.9046510186     -0.9176250071
C      -1.1862380045      0.9636771497      0.8183851796
H       1.1122331761     -0.7281157484     -1.4245115201
H      -1.7496851815     -1.9825913977     -0.4075698665
H      -0.5804623347     -2.7199730347     -1.7761018181
H      -1.2450914611      1.9864458411      0.8994618807
H      -1.2873431665      0.2530549657      1.6444108449
H      -2.0077426562      0.7625047519      0.1490866819
12
Frame=312  time=156.500fs  energy=-306.16633747Ha  molecule=COOCCCHHHHHH
C       0.0750687879      0.4339024481      0.0179302990
O       1.1891743389      1.0735590847     -0.0351942602
O       1.2133521233      2.1855543886      0.8644924990
C       0.0031487617     -0.8935669525     -0.9428841199
C      -0.8229917644     -1.9131139481     -0.9250677684
C      -1.1840790460      0.9614150172      0.8189607541
H       1.1098895489     -0.7049206674     -1.4334341918
H      -1.7472104762     -1.9855724046     -0.3841879332
H      -0.5692941007     -2.7142557622     -1.7620219399
H      -1.2560946590      1.9595659720      0.9106570177
H      -1.2728757821      0.2419189374      1.6321781054
H      -2.0199462037      0.7631839044      0.1599007602
12
Frame=313  time=157.000fs  energy=-306.16659177Ha  molecule=COOCCCHHHHHH
C       0.0748234727      0.4367346556      0.0132452499
O       1.1924594220      1.0786246617     -0.0328664739
O       1.2063953392      2.1883876236      0.8688493532
C       0.0021773214     -0.8948411220     -0.9434505591
C      -0.8189005286     -1.9219410242     -0.9332189993
C      -1.1818237700      0.9584141659      0.8192331861
H       1.1019538334     -0.6839986334     -1.4407095596
H      -1.7456913078     -1.9884835831     -0.3598410881
H      -0.5601397407     -2.7043506027     -1.7416004956
H      -1.2638322082      1.9394544347      0.9251351007
H      -1.2592485840      0.2319804091      1.6201599518
H      -2.0314210165      0.7623203054      0.1703083660
12
Frame=314  time=157.500fs  energy=-306.16694638Ha  molecule=COOCCCHHHHHH
C       0.0745994984      0.4396281699      0.0082744586
O       1.1953641837      1.0836488365     -0.0303680348
O       1.1994302862      2.1911532266      0.8731099040
C       0.0017482203     -0.8956242007     -0.9438453097
C      -0.8146063623     -1.9309731024     -0.9418499687
C      -1.1794934239      0.9545604134      0.8191601900
H       1.0886423048     -0.6657742756     -1.4465744239
H      -1.7438595687     -1.9915040859     -0.3355478898
H      -0.5528909670     -2.6916944933     -1.7162749454
H      -1.2684493365      1.9279898426      0.9430784613
H      -1.2465681592      0.2227675211      1.6087677885
H      -2.0419623563      0.7598946672      0.1803756986
12
Frame=315  time=158.000fs  energy=-306.16719715Ha  molecule=COOCCCHHHHHH
C       0.0744269349      0.4425951743      0.0030326566
O       1.1978479979      1.0886171139     -0.0276983409
O       1.1924606748      2.1938473287      0.8772695779
C       0.0018826097     -0.8958875219     -0.9440847021
C      -0.8102520013     -1.9399710902     -0.9506535096
C      -1.1771099222      0.9498374426      0.8187019446
H       1.0702240585     -0.6507375103     -1.4513777767
H      -1.7405208867     -1.9948700830     -0.3123829309
H      -0.5471243351     -2.6785295190     -1.6883002492
H      -1.2699561253      1.9257745618      0.9646039256
H      -1.2349858402      0.2138306149      1.5984299435
H      -2.0513580961      0.7558724847      0.1901324566
12
Frame=316  time=158.500fs  energy=-306.16717195Ha  molecule=COOCCCHHHHHH
C       0.0743197594      0.4456543228     -0.0024562091
O       1.1998709486      1.0935193157     -0.0248551381
O       1.1854909784      2.1964669215      0.8813237752
C       0.0025863387     -0.8956135604     -0.9441817508
C      -0.8059845647     -1.9486495740     -0.9592840004
C      -1.1746892735      0.9443373002      0.8178257601
H       1.0470950258     -0.6393567718     -1.4555674716
H      -1.7346961731     -1.9988383141     -0.2913365600
H      -0.5421051364     -2.6676412586     -1.6604786978
H      -1.2681960085      1.9319935010      0.9896745151
H      -1.2247023319      0.2047843905      1.5895815650
H      -2.0594036144      0.7502451278      0.1995988954
12
Frame=317  time=159.000fs  energy=-306.16692947Ha  molecule=COOCCCHHHHHH
C       0.0742703288      0.4488361943     -0.0081530651
O       1.2014002975      1.0983522281     -0.0218343586
O       1.1785248765      2.1990079744      0.8852676660
C       0.0038339968     -0.8948109246     -0.9441458452
C      -0.8019458296     -1.9566926863     -0.9673834974
C      -1.1722405674      0.9382298960      0.8165071866
H       1.0198753839     -0.6320235333     -1.4597127569
H      -1.7257039843     -2.0036351351     -0.2731957268
H      -0.5367635141     -2.6621715519     -1.6359698057
H      -1.2628501513      1.9447401064      1.0180708887
H      -1.2159280228      0.1953438779      1.5826146612
H      -2.0659259196      0.7430282604      0.2088023941
12
Frame=318  time=159.500fs  energy=-306.16690614Ha  molecule=COOCCCHHHHHH
C       0.0742494018      0.4521786271     -0.0140033094
O       1.2024157393      1.1031201715     -0.0186312278
O       1.1715650764      2.2014649844      0.8890961485
C       0.0055633152     -0.8935165377     -0.9439801381
C      -0.7982494054     -1.9638003716     -0.9746392313
C      -1.1697687646      0.9317149231      0.8147369482
H       0.9894128272     -0.6290237171     -1.4644772759
H      -1.7131617870     -2.0094103542     -0.2584971130
H      -0.5299266318     -2.6650400458     -1.6176584639
H      -1.2535222587      1.9615320536      1.0493719357
H      -1.2087912438      0.1853473901      1.5777965374
H      -2.0708133097      0.7342739381      0.2177575364
12
Frame=319  time=160.000fs  energy=-306.16757369Ha  molecule=COOCCCHHHHHH
C       0.0742164574      0.4557094184     -0.0199481712
O       1.2029089495      1.1078309583     -0.0152440115
O       1.1646149602      2.2038319605      0.8928045560
C       0.0076881791     -0.8917788219     -0.9436784346
C      -0.7949526886     -1.9697605491     -0.9808547816
C      -1.1672747556      0.9249827556      0.8125379840
H       0.9566323783     -0.6305068128     -1.4704704532
H      -1.6969293896     -2.0161888786     -0.2475334280
H      -0.5207270053     -2.6781546952     -1.6073474731
H      -1.2399092724      1.9797634874      1.0829225326
H      -1.2032575664      0.1747741245      1.5751753235
H      -2.0740539105      0.7241122369      0.2264346649
12
Frame=320  time=160.500fs  energy=-306.16899836Ha  molecule=COOCCCHHHHHH
C       0.0741332651      0.4594345466     -0.0259365181
O       1.2028778634      1.1124882864     -0.0116785537
O       1.1576810159      2.2061038420      0.8963894504
C       0.0101027157     -0.8896498444     -0.9432216714
C      -0.7920488732     -1.9744796509     -0.9859662415
C      -1.1647539705      0.9181894763      0.8099752737
H       0.9225386432     -0.6364543606     -1.4782027648
H      -1.6770113849     -2.0238689613     -0.2404312473
H      -0.5088112452     -2.7020156577     -1.6054842284
H      -1.2219510457      1.9970637242      1.1178809287
H      -1.1991411602      0.1637657048      1.5745172650
H      -2.0757356786      0.7127480669      0.2347687318
12
Frame=321  time=161.000fs  energy=-306.17062644Ha  molecule=COOCCCHHHHHH
C       0.0739725163      0.4633345836     -0.0319321525
O       1.2023257816      1.1170879797     -0.0079508693
O       1.1507722221      2.2082768136      0.8998488526
C       0.0126602191     -0.8871878059     -0.9425633114
C      -0.7894565929     -1.9779992095     -0.9900436278
C      -1.1621983727      0.9114522377      0.8071514370
H       0.8885247908     -0.6466050174     -1.4882797120
H      -1.6535864723     -2.0323100348     -0.2371769086
H      -0.4944700560     -2.7354278039     -1.6110779555
H      -1.1998661389      2.0114118134      1.1532980270
H      -1.1961725531      0.1526294433      1.5753531877
H      -2.0760199390      0.7004488162      0.2426902797
12
Frame=322  time=161.500fs  energy=-306.17159056Ha  molecule=COOCCCHHHHHH
C       0.0737222396      0.4673677606     -0.0379164103
O       1.2012680206      1.1216231837     -0.0040852195
O       1.1438970671      2.2103477848      0.9031821598
C       0.0151680281     -0.8844610602     -0.9416250792
C      -0.7870133225     -1.9805075362     -0.9932917185
C      -1.1595981002      0.9048698455      0.8041989629
H       0.8565276957     -0.6603768497     -1.5015633899
H      -1.6271932575     -2.0414762286     -0.2375044279
H      -0.4786887368     -2.7753630587     -1.6217408439
H      -1.1741145308      2.0209325655      1.1881119331
H      -1.1940630162      0.1417796787      1.5771153999
H      -2.0751420082      0.6875661599      0.2501381197
12
Frame=323  time=162.000fs  energy=-306.17157258Ha  molecule=COOCCCHHHHHH
C       0.0733837957      0.4714865763     -0.0438792041
O       1.1997330354      1.1260928940     -0.0001067383
O       1.1370630558      2.2123144946      0.9063897358
C       0.0174324166     -0.8815522751     -0.9403295059
C      -0.7845137484     -1.9822720220     -0.9959866507
C      -1.1569374180      0.8985390171      0.8012677831
H       0.8285669018     -0.6770271751     -1.5190279261
H      -1.5987782064     -2.0514807696     -0.2408082927
H      -0.4627663816     -2.8177837202     -1.6344662862
H      -1.1453403031      2.0237892982      1.2211556966
H      -1.1925493049      0.1316175658      1.5792522790
H      -2.0734076322      0.6745052600      0.2570465604
12
Frame=324  time=162.500fs  energy=-306.17092859Ha  molecule=COOCCCHHHHHH
C       0.0729636798      0.4756464380     -0.0498128038
O       1.1977531782      1.1305047725      0.0039652153
O       1.1302789631      2.2141765087      0.9094723934
C       0.0193190380     -0.8785419156     -0.9386379904
C      -0.7817663326     -1.9835327915     -0.9983834054
C      -1.1541887172      0.8925406894      0.7985034920
H       0.8059992122     -0.6959631898     -1.5413566352
H      -1.5695321677     -2.0624519977     -0.2461771585
H      -0.4477500674     -2.8590302831     -1.6467406037
H      -1.1143032575      2.0185033357      1.2513121392
H      -1.1914079813      0.1224049421      1.5812838414
H      -2.0711400403      0.6616314279      0.2633168355
12
Frame=325  time=163.000fs  energy=-306.17012304Ha  molecule=COOCCCHHHHHH
C       0.0724648800      0.4797896799     -0.0557204283
O       1.1953567952      1.1348725015      0.0081173797
O       1.1235576842      2.2159371644      0.9124316623
C       0.0207807208     -0.8754838520     -0.9365633985
C      -0.7786046118     -1.9844931066     -1.0007047330
C      -1.1513148821      0.8869143555      0.7960280229
H       0.7892035716     -0.7167943332     -1.5686015612
H      -1.5407597639     -2.0744294408     -0.2524596915
H      -0.4343786729     -2.8961081853     -1.6566954055
H      -1.0818064527      2.0043631375      1.2777249084
H      -1.1904499805      0.1142386331      1.5828156066
H      -2.0686147267      0.6492242841      0.2688113621
12
Frame=326  time=163.500fs  energy=-306.16949134Ha  molecule=COOCCCHHHHHH
C       0.0718817716      0.4838325558     -0.0616220123
O       1.1925668210      1.1392123414      0.0123399295
O       1.1169180745      2.2176058431      0.9152710133
C       0.0218518864     -0.8724015070     -0.9341688498
C      -0.7748959763     -1.9853121737     -1.0031334896
C      -1.1482781799      0.8816497527      0.7939347238
H       0.7777339652     -0.7392180874     -1.6001313436
H      -1.5137906901     -2.0873791864     -0.2583591283
H      -0.4230857985     -2.9267760147     -1.6631020170
H      -1.0486636566      1.9814175324      1.2998602288
H      -1.1895187491      0.1071412354      1.5835061916
H      -2.0660015193      0.6375240665      0.2734056879
12
Frame=327  time=164.000fs  energy=-306.16920700Ha  molecule=COOCCCHHHHHH
C       0.0712005179      0.4876747226     -0.0675465272
O       1.1894030704      1.1435405519      0.0166243825
O       1.1103839990      2.2191989814      0.9179972032
C       0.0226220115     -0.8693002120     -0.9315590479
C      -0.7705505872     -1.9860845707     -1.0057958505
C      -1.1450463161      0.8766886954      0.7922880637
H       0.7706548006     -0.7629856690     -1.6348540251
H      -1.4898601878     -2.1012640667     -0.2625937732
H      -0.4139968467     -2.9496685877     -1.6653779308
H      -1.0156922954      1.9502861024      1.3174801519
H      -1.1885013371      0.1011445532      1.5830471147
H      -2.0633497711      0.6267889164      0.2770457110
12
Frame=328  time=164.500fs  energy=-306.16929097Ha  molecule=COOCCCHHHHHH
C       0.0704064110      0.4912260029     -0.0735169160
O       1.1858843276      1.1478702378      0.0209616030
O       1.1039812608      2.2207389729      0.9206206517
C       0.0232027165     -0.8661827755     -0.9288664131
C      -0.7655184831     -1.9868488987     -1.0087617255
C      -1.1415938495      0.8719268068      0.7911187639
H       0.7668471736     -0.7879507084     -1.6715168560
H      -1.4699556488     -2.1160986881     -0.2641092079
H      -0.4070481339     -2.9641239000     -1.6633907667
H      -0.9836936733      1.9121011254      1.3306704882
H      -1.1873353796      0.0962894147      1.5811902311
H      -2.0606390407      0.6173003302      0.2797521845
12
Frame=329  time=165.000fs  energy=-306.16963287Ha  molecule=COOCCCHHHHHH
C       0.0694950549      0.4944295448     -0.0795403127
O       1.1820299711      1.1522074329      0.0253384172
O       1.0977338553      2.2222517468      0.9231547785
C       0.0236998501     -0.8630610086     -0.9262348831
C      -0.7597844292     -1.9876189341     -1.0120528081
C      -1.1379030184      0.8672189088      0.7904159661
H       0.7652241082     -0.8140547642     -1.7089056915
H      -1.4546717824     -2.1319424775     -0.2622834463
H      -0.4021374348     -2.9698752305     -1.6572141185
H      -0.9534117370      1.8685544834      1.3399345416
H      -1.1859952728      0.0925542261      1.5778105388
H      -2.0578621482      0.6093273089      0.2815684963
12
Frame=330  time=165.500fs  energy=-306.17002261Ha  molecule=COOCCCHHHHHH
C       0.0684789601      0.4972652293     -0.0856104904
O       1.1778631364      1.1565496810      0.0297343209
O       1.0916596241      2.2237641062      0.9256152476
C       0.0241961400     -0.8599598629     -0.9238047403
C      -0.7533671921     -1.9884087648     -1.0156437693
C      -1.1339652484      0.8623911683      0.7901229428
H       0.7648599890     -0.8411931008     -1.7459051798
H      -1.4441323882     -2.1488242504     -0.2570455496
H      -0.3992025038     -2.9669004590     -1.6470240311
H      -0.9254628574      1.8218757087      1.3462523663
H      -1.1844749163      0.0897816855      1.5729623683
H      -2.0550855174      0.6030895495      0.2824984589
12
Frame=331  time=166.000fs  energy=-306.17020487Ha  molecule=COOCCCHHHHHH
C       0.0673859253      0.4997354856     -0.0917204714
O       1.1734128493      1.1608883427      0.0341213876
O       1.0857655147      2.2253002260      0.9280190249
C       0.0247521992     -0.8569117928     -0.9217063355
C      -0.7463249464     -1.9892375819     -1.0194533620
C      -1.1297819246      0.8572641527      0.7901463419
H       0.7650025423     -0.8690257854     -1.7814089770
H      -1.4379908559     -2.1666322353     -0.2488786879
H      -0.3982019239     -2.9555240614     -1.6331710898
H      -0.9002421739      1.7745630548      1.3509593217
H      -1.1827936987      0.0876687578      1.5668788560
H      -2.0524451913      0.5987426732      0.2824893764
12
Frame=332  time=166.500fs  energy=-306.16993216Ha  molecule=COOCCCHHHHHH
C       0.0662542825      0.5018475609     -0.0978758168
O       1.1687106279      1.1652117672      0.0384678680
O       1.0800458519      2.2268776697      0.9303823327
C       0.0254196617     -0.8539491921     -0.9200610560
C      -0.7387645535     -1.9901118598     -1.0233311528
C      -1.1253642980      0.8516889281      0.7903812252
H       0.7650228468     -0.8968428568     -1.8141928317
H      -1.4354882191     -2.1850388631     -0.2387345453
H      -0.3990093493     -2.9366583570     -1.6163485641
H      -0.8778766741      1.7289068836      1.3554085868
H      -1.1810226979      0.0857702460      1.5599157606
H      -2.0500742944      0.5963740167      0.2814700972
12
Frame=333  time=167.000fs  energy=-306.16904229Ha  molecule=COOCCCHHHHHH
C       0.0651282074      0.5036022762     -0.1040980310
O       1.1637851209      1.1695093099      0.0427440486
O       1.0744864815      2.2285058137      0.9327182065
C       0.0262432407     -0.8511038422     -0.9189721814
C      -0.7308445819     -1.9909969977     -1.0270570643
C      -1.1207343208      0.8455624454      0.7907266482
H       0.7644524921     -0.9236523666     -1.8430402394
H      -1.4355499783     -2.2035249549     -0.2278891320
H      -0.4012767406     -2.9119037785     -1.5976843440
H      -0.8582584402      1.6868113097      1.3607326549
H      -1.1792991853      0.0834453647      1.5525005181
H      -2.0480357556      0.5960142742      0.2794001554
12
Frame=334  time=167.500fs  energy=-306.16757894Ha  molecule=COOCCCHHHHHH
C       0.0640515587      0.5049931108     -0.1104158952
O       1.1586607513      1.1737760888      0.0469274727
O       1.0690716039      2.2301877848      0.9350355202
C       0.0272504923     -0.8484109869     -0.9185099239
C      -0.7227617737     -1.9918038009     -1.0303675555
C      -1.1159261305      0.8388107695      0.7910808248
H       0.7630348916     -0.9485182637     -1.8670466473
H      -1.4369143794     -2.2214856755     -0.2177597048
H      -0.4043495799     -2.8833127759     -1.5786376824
H      -0.8411081982      1.6499541820      1.3678813199
H      -1.1778056801      0.0798631666      1.5451079019
H      -2.0463226455      0.5976718152      0.2762946556
12
Frame=335  time=168.000fs  energy=-306.16576552Ha  molecule=COOCCCHHHHHH
C       0.0630600329      0.5060144538     -0.1168499221
O       1.1533587481      1.1780146514      0.0510045512
O       1.0637884704      2.2319236128      0.9373398017
C       0.0284480352     -0.8459103080     -0.9187118862
C      -0.7147276820     -1.9923867260     -1.0329887955
C      -1.1109794699      0.8313812734      0.7913444117
H       0.7606498971     -0.9708616649     -1.8857374898
H      -1.4383057863     -2.2383349351     -0.2097077898
H      -0.4072311067     -2.8532104986     -1.5609025613
H      -0.8260855421      1.6197551854      1.3776378480
H      -1.1767228524      0.0741428366      1.5382068593
H      -2.0448912652      0.6013595349      0.2722235456
12
Frame=336  time=168.500fs  energy=-306.16395596Ha  molecule=COOCCCHHHHHH
C       0.0621758736      0.5066710726     -0.1233991643
O       1.1478968612      1.1822325744      0.0549686479
O       1.0586287098      2.2337122592      0.9396345789
C       0.0298276397     -0.8436457561     -0.9195990129
C      -0.7069508608     -1.9925332253     -1.0346503574
C      -1.1059253668      0.8232531668      0.7914403740
H       0.7572036003     -0.9904596560     -1.8989507382
H      -1.4385983164     -2.2535811096     -0.2049038396
H      -0.4085985405     -2.8244205516     -1.5464560026
H      -0.8129407992      1.5971478824      1.3904911066
H      -1.1761856590      0.0655188487      1.5321712416
H      -2.0436719972      0.6070965431      0.2672926468
12
Frame=337  time=169.000fs  energy=-306.16271107Ha  molecule=COOCCCHHHHHH
C       0.0614078215      0.5069806318     -0.1300378406
O       1.1422882489      1.1864383257      0.0588161804
O       1.0535874108      2.2355521421      0.9419223985
C       0.0313718108     -0.8416700426     -0.9211897729
C      -0.6996086450     -1.9919978716     -1.0351127932
C      -1.1007768153      0.8144454016      0.7913336526
H       0.7525851577     -1.0072832402     -1.9066873095
H      -1.4369109570     -2.2668787364     -0.2042731249
H      -0.4070707806     -2.7999322524     -1.5372674701
H      -0.8016320720      1.5824186059      1.4065000696
H      -1.1762580176      0.0534553259      1.5272101267
H      -2.0425526470      0.6149051370      0.2616232899
12
Frame=338  time=169.500fs  energy=-306.16251853Ha  molecule=COOCCCHHHHHH
C       0.0607549431      0.5069645809     -0.1367244493
O       1.1365424549      1.1906373496      0.0625419225
O       1.0486613919      2.2374411118      0.9442054882
C       0.0330622173     -0.8400338696     -0.9235022253
C      -0.6928112833     -1.9906019067     -1.0342211574
C      -1.0955318435      0.8050139967      0.7910425278
H       0.7466923932     -1.0213715506     -1.9090139220
H      -1.4326965186     -2.2780238784     -0.2083995408
H      -0.4016595283     -2.7817971769     -1.5346861326
H      -0.7923629208      1.5751636670      1.4252322727
H      -1.1769273996      0.0377203161      1.5233276218
H      -2.0413566427      0.6248063241      0.2553476293
12
Frame=339  time=170.000fs  energy=-306.16348545Ha  molecule=COOCCCHHHHHH
C       0.0602137185      0.5066393201     -0.1434151988
O       1.1306686715      1.1948295944      0.0661360391
O       1.0438480287      2.2393764587      0.9464856751
C       0.0348894090     -0.8387652174     -0.9265508876
C      -0.6866027982     -1.9882693600     -1.0319144577
C      -1.0901854888      0.7950391638      0.7906370496
H       0.7395053118     -1.0326917685     -1.9059975229
H      -1.4258044791     -2.2869428993     -0.2174275218
H      -0.3919119936     -2.7709049953     -1.5393494437
H      -0.7855360662      1.5743772237      1.4458215651
H      -1.1781175354      0.0184201589      1.5203017116
H      -2.0398250964      0.6368035126      0.2486193903
12
Frame=340  time=170.500fs  energy=-306.16538416Ha  molecule=COOCCCHHHHHH
C       0.0597852152      0.5060155794     -0.1500721862
O       1.1246779926      1.1990086284      0.0695835716
O       1.0391439011      2.2413543896      0.9487636017
C       0.0368547743     -0.8378625188     -0.9303447528
C      -0.6809735848     -1.9850144555     -1.0282127288
C      -1.0847412711      0.7846078683      0.7902231377
H       0.7311260316     -1.0410434574     -1.8976750149
H      -1.4164895569     -2.2936960066     -0.2310445081
H      -0.3778538437     -2.7672385658     -1.5513165339
H      -0.7816460328      1.5786692131      1.4671354006
H      -1.1797204510     -0.0040389059      1.5177119335
H      -2.0376167705      0.6508721035      0.2416343513
12
Frame=341  time=171.000fs  energy=-306.16771384Ha  molecule=COOCCCHHHHHH
C       0.0594780998      0.5051002193     -0.1566654128
O       1.1185829895      1.2031618367      0.0728652787
O       1.0345423107      2.2433688149      0.9510380591
C       0.0389698580     -0.8372894727     -0.9348813645
C      -0.6758615221     -1.9809466706     -1.0232248179
C      -1.0792153558      0.7738040920      0.7899232747
H       0.7218093564     -1.0460838727     -1.8841072749
H      -1.4054212022     -2.2984848771     -0.2484623553
H      -0.3599725226     -2.7698558034     -1.5700208109
H      -0.7811681082      1.5864987513      1.4879389916
H      -1.1816359747     -0.0290645812      1.5150167235
H      -2.0343361532      0.6669639152      0.2346503764
12
Frame=342  time=171.500fs  energy=-306.16974797Ha  molecule=COOCCCHHHHHH
C       0.0593044776      0.5039001240     -0.1631672203
O       1.1123958515      1.2072712985      0.0759596593
O       1.0300312443      2.2454102889      0.9533058439
C       0.0412523515     -0.8369659278     -0.9401318607
C      -0.6711503948     -1.9762867045     -1.0171690420
C      -1.0736319985      0.7627128260      0.7898634084
H       0.7120816072     -1.0474387113     -1.8655909259
H      -1.3936751868     -2.3016717102     -0.2684102402
H      -0.3392538004     -2.7767746384     -1.5941013517
H      -0.7844753463      1.5962972531      1.5069672863
H      -1.1837892397     -0.0560038419      1.5116502729
H      -2.0296035267      0.6850147199      0.2279825300
12
Frame=343  time=172.000fs  energy=-306.17081626Ha  molecule=COOCCCHHHHHH
C       0.0592709459      0.5024324607     -0.1695406122
O       1.1061269319      1.2113160611      0.0788471490
O       1.0255948225      2.2474664055      0.9555616884
C       0.0437144815     -0.8367680859     -0.9460243431
C      -0.6666786869     -1.9713603155     -1.0103785923
C      -1.0680157201      0.7514275385      0.7901632842
H       0.7029241104     -1.0448209647     -1.8429553694
H      -1.3826595799     -2.3038120103     -0.2892132173
H      -0.3171562411     -2.7851174669     -1.6213373622
H      -0.7917726967      1.6065075757      1.5229734530
H      -1.1861128215     -0.0842043628      1.5071073563
H      -2.0231651439      0.7049379915      0.2219565535
12
Frame=344  time=172.500fs  energy=-306.17075846Ha  molecule=COOCCCHHHHHH
C       0.0593742363      0.5007320652     -0.1757329351
O       1.0997841913      1.2152752519      0.0815138615
O       1.0212175552      2.2495234966      0.9577982834
C       0.0463553504     -0.8365409741     -0.9524412825
C      -0.6622806339     -1.9665376633     -1.0032490375
C      -1.0623907475      0.7400487596      0.7909272019
H       0.6958142670     -1.0380909916     -1.8176580606
H      -1.3739044469     -2.3056155073     -0.3090231043
H      -0.2952923394     -2.7918661393     -1.6491007121
H      -0.8030457497      1.6156641529      1.5348409563
H      -1.1885248474     -0.1130193381      1.5009881899
H      -2.0149695833      0.7266038682      0.2168492615
12
Frame=345  time=173.000fs  energy=-306.16996147Ha  molecule=COOCCCHHHHHH
C       0.0596030621      0.4988492998     -0.1816785600
O       1.0933741959      1.2191290444      0.0839502551
O       1.0168863990      2.2515683525      0.9600075412
C       0.0491561838     -0.8361203604     -0.9592259745
C      -0.6578378306     -1.9621609913     -0.9961440425
C      -1.0567864372      0.7286752691      0.7922358965
H       0.6925785840     -1.0272922854     -1.7916671818
H      -1.3686374137     -2.3077539880     -0.3262952366
H      -0.2750610178     -2.7946021812     -1.6749971594
H      -0.8180376136      1.6225083660      1.5416918347
H      -1.1909427855     -0.1418194350      1.4930032528
H      -2.0051563358      0.7498068441      0.2128593285
12
Frame=346  time=173.500fs  energy=-306.16906457Ha  molecule=COOCCCHHHHHH
C       0.0599438794      0.4968465031     -0.1873072272
O       1.0869072163      1.2228590043      0.0861475586
O       1.0125892674      2.2535895076      0.9621827711
C       0.0520722237     -0.8353578968     -0.9661932695
C      -0.6533028908     -1.9585087636     -0.9893314142
C      -1.0512414322      0.7173956188      0.7941416950
H       0.6952243285     -1.0125971497     -1.7672604534
H      -1.3674581737     -2.3107040666     -0.3401798649
H      -0.2575111910     -2.7917469528     -1.6971778887
H      -0.8362582852      1.6260512762      1.5429329198
H      -1.1933123971     -0.1700112387      1.4829816439
H      -1.9940089182      0.7742397640      0.2100995973
12
Frame=347  time=174.000fs  energy=-306.16870655Ha  molecule=COOCCCHHHHHH
C       0.0603867850      0.4947896645     -0.1925535293
O       1.0804024344      1.2264499787      0.0880953187
O       1.0083130200      2.2555776932      0.9643203184
C       0.0550399553     -0.8341357970     -0.9731583410
C      -0.6486924438     -1.9557812376     -0.9829717940
C      -1.0458082147      0.7062808733      0.7966694813
H       0.7056940807     -0.9941754282     -1.7466468817
H      -1.3704025890     -2.3147281713     -0.3504757677
H      -0.2432908723     -2.7825785005     -1.7144565688
H      -0.8570176740      1.6255856711      1.5382624896
H      -1.1956165561     -0.1970273319      1.4708790191
H      -1.9818907089      0.7994899597      0.2085973764
12
Frame=348  time=174.500fs  energy=-306.16933779Ha  molecule=COOCCCHHHHHH
C       0.0609278635      0.4927351515     -0.1973610891
O       1.0738863805      1.2298923639      0.0897807105
O       1.0040430291      2.2575251157      0.9664197810
C       0.0580047124     -0.8323762884     -0.9799838840
C      -0.6440497354     -1.9540971391     -0.9771457234
C      -1.0405545598      0.6953760705      0.7998154575
H       0.7254122063     -0.9720974290     -1.7313927780
H      -1.3772265658     -2.3199208507     -0.3573393629
H      -0.2327045017     -2.7670372464     -1.7262326229
H      -0.8794731896      1.6207008501      1.5276771673
H      -1.1978734246     -0.2223046269      1.4567560266
H      -1.9691580408      0.8250660909      0.2083245269
12
Frame=349  time=175.000fs  energy=-306.17099959Ha  molecule=COOCCCHHHHHH
C       0.0615670608      0.4907202756     -0.2016826515
O       1.0673874123      1.2331832510      0.0911896769
O       0.9997636766      2.2594242263      0.9684831421
C       0.0609502958     -0.8300471273     -0.9866154123
C      -0.6393943551     -1.9534864991     -0.9718914901
C      -1.0355576936      0.6846905534      0.8035386768
H       0.7547099303     -0.9464075164     -1.7219156826
H      -1.3876521613     -2.3262650525     -0.3610331730
H      -0.2258273627     -2.7454790841     -1.7323240197
H      -0.9026947999      1.6113450262      1.5115032311
H      -1.2001306113     -0.2453103990      1.4407460717
H      -1.9560820633      0.8504541014      0.2092428464
12
Frame=350  time=175.500fs  energy=-306.17322424Ha  molecule=COOCCCHHHHHH
C       0.0623011359      0.4887609918     -0.2054798625
O       1.0609324296      1.2363251936      0.0923083804
O       0.9954590243      2.2612676761      0.9705143100
C       0.0639091257     -0.8271557091     -0.9930755663
C      -0.6347024130     -1.9538812716     -0.9672213893
C      -1.0308950114      0.6741922358      0.8077530916
H       0.7925692732     -0.9173609492     -1.7174774585
H      -1.4013753018     -2.3336347136     -0.3618773986
H      -0.2225512130     -2.7185518698     -1.7328729526
H      -0.9257460886      1.5979047214      1.4904268809
H      -1.2024550006     -0.2656167836      1.4230557394
H      -1.9428107583      0.8751622669      0.2113260525
12
Frame=351  time=176.000fs  energy=-306.17517290Ha  molecule=COOCCCHHHHHH
C       0.0631171284      0.4868505397     -0.2087249321
O       1.0545459223      1.2393220895      0.0931224653
O       0.9911135015      2.2630499998      0.9725199072
C       0.0669595265     -0.8237388845     -0.9994376071
C      -0.6299307832     -1.9551053708     -0.9631015296
C      -1.0266362458      0.6638123072      0.8123280947
H       0.8367664196     -0.8855539419     -1.7165134772
H      -1.4178742332     -2.3417398720     -0.3603708202
H      -0.2225274411     -2.6873007571     -1.7284433453
H      -0.9477634147      1.5812124140      1.4654748754
H      -1.2049235154     -0.2829684480      1.4039960816
H      -1.9293808128      0.8987204118      0.2145515168
12
Frame=352  time=176.500fs  energy=-306.17596943Ha  molecule=COOCCCHHHHHH
C       0.0639924243      0.4849607618     -0.2114036968
O       1.0482491892      1.2421738464      0.0936153148
O       0.9867127693      2.2647695413      0.9745099659
C       0.0702163206     -0.8198522613     -1.0057962614
C      -0.6250609463     -1.9568859264     -0.9594230112
C      -1.0228375205      0.6534658407      0.8170998065
H       0.8842936655     -0.8517971144     -1.7170140255
H      -1.4361933041     -2.3500649473     -0.3573260914
H      -0.2251269209     -2.6533831005     -1.7202049040
H      -0.9679752566      1.5624699348      1.4379755127
H      -1.2076116743     -0.2973385271      1.3840209393
H      -1.9158264604      0.9206385605      0.2188294434
12
Frame=353  time=177.000fs  energy=-306.17514168Ha  molecule=COOCCCHHHHHH
C       0.0649039742      0.4830567979     -0.2135164493
O       1.0420602119      1.2448768417      0.0937712878
O       0.9822459237      2.2664280630      0.9764955720
C       0.0738081887     -0.8155629417     -1.0122407656
C      -0.6201271885     -1.9589084235     -0.9560104071
C      -1.0195400512      0.6430800957      0.8218914510
H       0.9319999091     -0.8168388148     -1.7169392131
H      -1.4549667047     -2.3579283486     -0.3538033624
H      -0.2295038888     -2.6190467461     -1.7099246729
H      -0.9856174332      1.5431689936      1.4095666629
H      -1.2105894884     -0.3089775540      1.3637480083
H      -1.9023737245      0.9403536154      0.2238468134
12
Frame=354  time=177.500fs  energy=-306.17282819Ha  molecule=COOCCCHHHHHH
C       0.0658347625      0.4811219147     -0.2150646811
O       1.0359962672      1.2474304406      0.0935797842
O       0.9777090029      2.2680281106      0.9784841740
C       0.0778492614     -0.8109478189     -1.0188402267
C      -0.6152161826     -1.9608767901     -0.9526557649
C      -1.0167763490      0.6326063351      0.8265257988
H       0.9772669287     -0.7812162498     -1.7146905997
H      -1.4728081648     -2.3647125825     -0.3508002201
H      -0.2346063360     -2.5867947593     -1.6998071428
H      -0.9998658293      1.5250218391      1.3822187693
H      -1.2139483339     -0.3183976364      1.3439597480
H      -1.8895237604      0.9572262346      0.2289795591
12
Frame=355  time=178.000fs  energy=-306.16967582Ha  molecule=COOCCCHHHHHH
C       0.0667677380      0.4791678243     -0.2160327142
O       1.0300768293      1.2498364660      0.0930306916
O       0.9731050030      2.2695714675      0.9804782022
C       0.0824274522     -0.8060847656     -1.0256418262
C      -0.6104509785     -1.9625367044     -0.9491372447
C      -1.0145761341      0.6220132227      0.8308207950
H       1.0182730620     -0.7453397702     -1.7093245522
H      -1.4885867876     -2.3699830517     -0.3490684047
H      -0.2391546657     -2.5590414074     -1.6923488807
H      -1.0099029335      1.5098394627      1.3581652590
H      -1.2178266754     -0.3262871306      1.3255814955
H      -1.8779250806      0.9705977723      0.2333968441
12
Frame=356  time=178.500fs  energy=-306.16667634Ha  molecule=COOCCCHHHHHH
C       0.0676803840      0.4772237599     -0.2163867540
O       1.0243242221      1.2520934596      0.0921085796
O       0.9684396657      2.2710595644      0.9824774680
C       0.0876036620     -0.8010379387     -1.0326684776
C      -0.6059557731     -1.9636886885     -0.9452499792
C      -1.0129652418      0.6112797148      0.8345919614
H       1.0538662092     -0.7096311872     -1.7004610126
H      -1.5014036579     -2.3734275868     -0.3491536073
H      -0.2418792186     -2.5377393564     -1.6899182871
H      -1.0150700919      1.4993331197      1.3396297644
H      -1.2224100988     -0.3334182217      1.3095996291
H      -1.8681822621      0.9798817812      0.2362979799
12
Frame=357  time=179.000fs  energy=-306.16474978Ha  molecule=COOCCCHHHHHH
C       0.0685463872      0.4753184616     -0.2160890742
O       1.0187635765      1.2541988951      0.0907956218
O       0.9637183936      2.2724942988      0.9844812371
C       0.0934096315     -0.7958498001     -1.0399142572
C      -0.6018054067     -1.9642126842     -0.9408708004
C      -1.0119594755      0.6004118282      0.8376801018
H       1.0833499170     -0.6745959993     -1.6881140528
H      -1.5105517263     -2.3747877605     -0.3514350240
H      -0.2419616039     -2.5239403510     -1.6940114960
H      -1.0149787540      1.4947171250      1.3283480323
H      -1.2279242615     -0.3406080247      1.2969405351
H      -1.8607563786      0.9846510107      0.2371140293
12
Frame=358  time=179.500fs  energy=-306.16426228Ha  molecule=COOCCCHHHHHH
C       0.0693367185      0.4734659088     -0.2151145497
O       1.0134222823      1.2561591873      0.0890816350
O       0.9589458735      2.2738782310      0.9864888742
C       0.0998449285     -0.7905488656     -1.0473453236
C      -0.5979976109     -1.9640698866     -0.9359990117
C      -1.0115616282      0.5894775972      0.8399907150
H       1.1062993378     -0.6408531825     -1.6725554680
H      -1.5155336993     -2.3738411481     -0.3561208992
H      -0.2392355273     -2.5176572627     -1.7048376164
H      -1.0095107888      1.4961757148      1.3251297680
H      -1.2345960205     -0.3486430493      1.2883521573
H      -1.8559292711      0.9846747819      0.2355633527
12
Frame=359  time=180.000fs  energy=-306.16492325Ha  molecule=COOCCCHHHHHH
C       0.0700173149      0.4716560027     -0.2134626195
O       1.0083281105      1.2579991113      0.0869744976
O       0.9541273361      2.2752140855      0.9884994860
C       0.1068755717     -0.7851641805     -1.0549058560
C      -0.5944553866     -1.9632819592     -0.9307539702
C      -1.0117622046      0.5786186965      0.8415139630
H       1.1224854637     -0.6091214670     -1.6542488781
H      -1.5160994965     -2.3704202544     -0.3632402080
H      -0.2341076853     -2.5180275702     -1.7213725866
H      -0.9987953877      1.5026311486      1.3297367002
H      -1.2425822738     -0.3581165320      1.2843067646
H      -1.8537729178      0.9799126409      0.2316372878
12
Frame=360  time=180.500fs  energy=-306.16607190Ha  molecule=COOCCCHHHHHH
C       0.0705490270      0.4698514414     -0.2111615779
O       1.0035061110      1.2597639448      0.0845043873
O       0.9492700954      2.2765039551      0.9905109513
C       0.1144365879     -0.7797308583     -1.0625228953
C      -0.5910422114     -1.9619093952     -0.9253518764
C      -1.0125394622      0.5680197830      0.8423131649
H       1.1318968478     -0.5801471477     -1.6338195644
H      -1.5123023501     -2.3644500096     -0.3726271954
H      -0.2273850351     -2.5235895430     -1.7416442482
H      -0.9832391211      1.5120350384      1.3410990604
H      -1.2519103711     -0.3692571119      1.2849440169
H      -1.8541406564      0.9704825482      0.2255975153
12
Frame=361  time=181.000fs  energy=-306.16705735Ha  molecule=COOCCCHHHHHH
C       0.0708933359      0.4679927077     -0.2082655429
O       0.9989744490      1.2615127427      0.0817198654
O       0.9443843568      2.2777489931      0.9925193515
C       0.1224360330     -0.7742869879     -1.0701088875
C      -0.5875840126     -1.9600317684     -0.9200682616
C      -1.0138592440      0.5578639197      0.8424986726
H       1.1348175706     -0.5545889818     -1.6120308685
H      -1.5045540965     -2.3559910817     -0.3839085638
H      -0.2200524249     -2.5326146055     -1.7631819578
H      -0.9635810763      1.5218514309      1.3576355627
H      -1.2624522354     -0.3818166300      1.2900866433
H      -1.8566858937      0.9566373600      0.2179832913
12
Frame=362  time=181.500fs  energy=-306.16750180Ha  molecule=COOCCCHHHHHH
C       0.0710186242      0.4660106851     -0.2048433203
O       0.9947409876      1.2633049806      0.0786767102
O       0.9394826520      2.2789508460      0.9945202685
C       0.1307581791     -0.7688674116     -1.0775641177
C      -0.5838931022     -1.9577285236     -0.9151921493
C      -1.0156791513      0.5482993018      0.8422034328
H       1.1319234929     -0.5329089106     -1.5897676033
H      -1.4936336943     -2.3452721168     -0.3965268542
H      -0.2130572539     -2.5434364988     -1.7835202826
H      -0.9408665374      1.5294220289      1.3775253746
H      -1.2739301933     -0.3950289068      1.2993280299
H      -1.8609002245      0.9387428846      0.2095602901
12
Frame=363  time=182.000fs  energy=-306.16740065Ha  molecule=COOCCCHHHHHH
C       0.0709001448      0.4638407027     -0.2009607781
O       0.9908026035      1.2651891155      0.0754256914
O       0.9345777125      2.2801135037      0.9965110624
C       0.1392662349     -0.7634959033     -1.0847792635
C      -0.5797884610     -1.9550647573     -0.9109851155
C      -1.0179560502      0.5394141799      0.8415606596
H       1.1243567935     -0.5153101550     -1.5680299836
H      -1.4806032307     -2.3326814220     -0.4098237351
H      -0.2071992205     -2.5547121208     -1.8005761739
H      -0.9162424791      1.5323556283      1.3989930929
H      -1.2859606398     -0.4077152325      1.3121240517
H      -1.8661993286      0.9172055896      0.2011546978
12
Frame=364  time=182.500fs  energy=-306.16700263Ha  molecule=COOCCCHHHHHH
C       0.0705162905      0.4614309808     -0.1966672626
O       0.9871468690      1.2672008204      0.0720084366
O       0.9296799478      2.2812424677      0.9984911457
C       0.1478068034     -0.7581825045     -1.0916404766
C      -0.5751127531     -1.9520829446     -0.9076515846
C      -1.0206470430      0.5312289103      0.8406870174
H       1.1137058770     -0.5017433448     -1.5479093134
H      -1.4666608622     -2.3187124216     -0.4231375350
H      -0.2030847141     -2.5655822661     -1.8128773704
H      -0.8907058631      1.5289380523      1.4205487491
H      -1.2981337988     -0.4185982146      1.3278426360
H      -1.8720484839      0.8923938053      0.1934716560
12
Frame=365  time=183.000fs  energy=-306.16659048Ha  molecule=COOCCCHHHHHH
C       0.0698473606      0.4587465566     -0.1919910534
O       0.9837546799      1.2693664376      0.0684599620
O       0.9247958964      2.2823418930      1.0004604105
C       0.1562159447     -0.7529310841     -1.0980375967
C      -0.5697418515     -1.9488015431     -0.9053290488
C      -1.0237021104      0.5237160539      0.8396789074
H       1.1018847325     -0.4919599013     -1.5305368211
H      -1.4530193401     -2.3039006059     -0.4358524904
H      -0.2010981521     -2.5756710826     -1.8196170116
H      -0.8650101732      1.5182474548      1.4410266238
H      -1.3100899023     -0.4266371691      1.3458056119
H      -1.8780582037      0.8646253262      0.1870234888
12
Frame=366  time=183.500fs  energy=-306.16638368Ha  molecule=COOCCCHHHHHH
C       0.0688770167      0.4557701460     -0.1869403765
O       0.9806027976      1.2717058340      0.0648117826
O       0.9199286255      2.2834130668      1.0024181883
C       0.1643197524     -0.7477516973     -1.1038685811
C      -0.5635829310     -1.9452204821     -0.9041006469
C      -1.0270574315      0.5168263828      0.8386170609
H       1.0910376804     -0.4855684101     -1.5170640471
H      -1.4408415386     -2.2887745530     -0.4474026425
H      -0.2014191453     -2.5849413629     -1.8205120142
H      -0.8397218977      1.5000044214      1.4594903922
H      -1.3215489314     -0.4311804577      1.3653369307
H      -1.8840233016      0.8342036694      0.1821461792
12
Frame=367  time=184.000fs  energy=-306.16657992Ha  molecule=COOCCCHHHHHH
C       0.0675947123      0.4524971522     -0.1815100478
O       0.9776659199      1.2742339515      0.0610936424
O       0.9150794974      2.2844552260      1.0043635793
C       0.1719384023     -0.7426663039     -1.1090419635
C      -0.5565706829     -1.9413305717     -0.9040129085
C      -1.0306346199      0.5104988449      0.8375727333
H       1.0834128596     -0.4820849190     -1.5086257236
H      -1.4311792945     -2.2738062821     -0.4572785778
H      -0.2040726251     -2.5935249176     -1.8155947746
H      -0.8153192278      1.4744146854      1.4751549632
H      -1.3322903378     -0.4319409045      1.3857779291
H      -1.8899212988      0.8014652102      0.1790369881
12
Frame=368  time=184.500fs  energy=-306.16735968Ha  molecule=COOCCCHHHHHH
C       0.0659988077      0.4489257806     -0.1756933293
O       0.9749182369      1.2769597113      0.0573322892
O       0.9102494915      2.2854670255      1.0062964009
C       0.1789136824     -0.7377016703     -1.1134857297
C      -0.5486726274     -1.9371232328     -0.9050828628
C      -1.0343458702      0.5046584353      0.8366138200
H       1.0809932503     -0.4810029294     -1.5061673394
H      -1.4248568616     -2.2593423586     -0.4650686629
H      -0.2089594474     -2.6016114212     -1.8050813407
H      -0.7922535990      1.4421103369      1.4873860386
H      -1.3421154838     -0.4289099081      1.4064701946
H      -1.8958916446      0.7668106438      0.1777722766
12
Frame=369  time=185.000fs  energy=-306.16876432Ha  molecule=COOCCCHHHHHH
C       0.0640997216      0.4450496114     -0.1694934648
O       0.9723337846      1.2798820172      0.0535476721
O       0.9054390895      2.2864470805      1.0082178361
C       0.1851455917     -0.7328778458     -1.1171561570
C      -0.5399002666     -1.9325963591     -0.9072958820
C      -1.0381034671      0.4992130515      0.8358082322
H       1.0850372139     -0.4818776834     -1.5102347363
H      -1.4223174809     -2.2455268707     -0.4705204916
H      -0.2158470260     -2.6094018514     -1.7893415036
H      -0.7709425935      1.4041572064      1.4957562448
H      -1.3508247842     -0.4223002177      1.4267514020
H      -1.9022002618      0.7307144223      0.1783036152
12
Frame=370  time=185.500fs  energy=-306.17057327Ha  molecule=COOCCCHHHHHH
C       0.0619238551      0.4408581930     -0.1629311577
O       0.9698850321      1.2829860821      0.0497501694
O       0.9006470169      2.2873933905      1.0101305192
C       0.1906135395     -0.7282025039     -1.1200405866
C      -0.5303177180     -1.9277548035     -0.9106009816
C      -1.0418315139      0.4940518844      0.8352195466
H       1.0957969580     -0.4843869603     -1.5208524377
H      -1.4235036221     -2.2322550673     -0.4735869681
H      -0.2243394174     -2.6171071375     -1.7689296085
H      -0.7516963762      1.3620744867      1.5001151652
H      -1.3582231258     -0.4125347609      1.4459992972
H      -1.9091901538      0.6937249653      0.1804596024
12
Frame=371  time=186.000fs  energy=-306.17231502Ha  molecule=COOCCCHHHHHH
C       0.0595185618      0.4363429666     -0.1560484646
O       0.9675403092      1.2862437749      0.0459417550
O       0.8958689504      2.2883022465      1.0120381919
C       0.1953821931     -0.7236707343     -1.1221594589
C      -0.5200422390     -1.9226056988     -0.9149070767
C      -1.0454789059      0.4890436351      0.8348935177
H       1.1124365574     -0.4883765675     -1.5374892130
H      -1.4278481645     -2.2191933287     -0.4744220200
H      -0.2338513417     -2.6249740937     -1.7446383091
H      -0.7346152462      1.3178249476      1.5006525884
H      -1.3641479781     -0.4002366956      1.4637177809
H      -1.9172152882      0.6564601438      0.1839852891
12
Frame=372  time=186.500fs  energy=-306.17345182Ha  molecule=COOCCCHHHHHH
C       0.0569541737      0.4315016574     -0.1489084189
O       0.9652621238      1.2896190014      0.0421205717
O       0.8910977311      2.2891673118      1.0139446505
C       0.1995941438     -0.7192656739     -1.1235671851
C      -0.5092338517     -1.9171499723     -0.9200836934
C      -1.0490318509      0.4840358882      0.8348407235
H       1.1331576017     -0.4939187807     -1.5591405551
H      -1.4344016430     -2.2058614590     -0.4733215848
H      -0.2436078421     -2.6333204728     -1.7175330606
H      -0.7195210965      1.2737616211      1.4979774934
H      -1.3684962971     -0.3861754797      1.4796113780
H      -1.9265688316      0.6195731687      0.1886119579
12
Frame=373  time=187.000fs  energy=-306.17364841Ha  molecule=COOCCCHHHHHH
C       0.0543207437      0.4263375668     -0.1415898472
O       0.9630085181      1.2930744845      0.0382851073
O       0.8863256235      2.2899795076      1.0158517648
C       0.2034434247     -0.7149607204     -1.1243452585
C      -0.4980790080     -1.9113774966     -0.9259688518
C      -1.0525204780      0.4788607816      0.8350249698
H       1.1555973974     -0.5012957776     -1.5845381068
H      -1.4420177096     -2.1917302860     -0.4706567496
H      -0.2526980330     -2.6425597564     -1.6889114180
H      -0.7059728956      1.2325258496      1.4932156032
H      -1.3712210340     -0.3711775276      1.4935869097
H      -1.9374490327      0.5836746927      0.1941131987
12
Frame=374  time=187.500fs  energy=-306.17294639Ha  molecule=COOCCCHHHHHH
C       0.0517206574      0.4208576259     -0.1341786881
O       0.9607372512      1.2965749366      0.0344348170
O       0.8815468258      2.2907278389      1.0177576396
C       0.2071389498     -0.7107258882     -1.1245912628
C      -0.4867747788     -1.9052706956     -0.9323817657
C      -1.0560122309      0.4733527748      0.8353661865
H       1.1773351826     -0.5108213624     -1.6123415449
H      -1.4495090812     -2.1763028538     -0.4668404752
H      -0.2601911863     -2.6532111026     -1.6601781407
H      -0.6933577653      1.1968552617      1.4879885565
H      -1.3723087555     -0.3560805473      1.5056919618
H      -1.9499743825      0.5492587227      0.2003226647
12
Frame=375  time=188.000fs  energy=-306.17175533Ha  molecule=COOCCCHHHHHH
C       0.0492556888      0.4150754458     -0.1267560060
O       0.9584096743      1.3000870491      0.0305692308
O       0.8767584248      2.2914009990      1.0196565987
C       0.2108781130     -0.7065358020     -1.1244137983
C      -0.4755131985     -1.8988103085     -0.9391368422
C      -1.0595889281      0.4673796688      0.8357643054
H       1.1962285366     -0.5226508336     -1.6412204078
H      -1.4557621427     -2.1591803505     -0.4623099957
H      -0.2652715508     -2.6658827588     -1.6326835546
H      -0.6810518521      1.1692082028      1.4840691991
H      -1.3717719400     -0.3417575828      1.5160673440
H      -1.9641851551      0.5166941151      0.2071223316
12
Frame=376  time=188.500fs  energy=-306.17062954Ha  molecule=COOCCCHHHHHH
C       0.0470129232      0.4090163814     -0.1193882521
O       0.9559909690      1.3035801926      0.0266899859
O       0.8719595023      2.2919885293      1.0215409442
C       0.2148286632     -0.7023762792     -1.1239281653
C      -0.4644669560     -1.8919817620     -0.9460601028
C      -1.0633141970      0.4608771691      0.8361415763
H       1.2106137567     -0.5367316008     -1.6699440377
H      -1.4598094290     -2.1401027499     -0.4575026272
H      -0.2673336531     -2.6811699836     -1.6075492460
H      -0.6686731114      1.1512457181      1.4827514280
H      -1.3696465471     -0.3291072102      1.5249382492
H      -1.9799900889      0.4862745797      0.2144366792
12
Frame=377  time=189.000fs  energy=-306.16994474Ha  molecule=COOCCCHHHHHH
C       0.0450591744      0.4027162229     -0.1121280977
O       0.9534485180      1.3070284988      0.0228047637
O       0.8671492078      2.2924805676      1.0234028390
C       0.2191159520     -0.6982463360     -1.1232461356
C      -0.4537790370     -1.8847864661     -0.9530082451
C      -1.0672082253      0.4538670972      0.8364786586
H       1.2194028190     -0.5528575445     -1.6974903366
H      -1.4608680794     -2.1189602793     -0.4528272017
H      -0.2660178103     -2.6994509777     -1.5855031232
H      -0.6563233565      1.1434950852      1.4843484150
H      -1.3659820880     -0.3189792466      1.5326032850
H      -1.9971066279      0.4582706697      0.2222534324
12
Frame=378  time=189.500fs  energy=-306.16975998Ha  molecule=COOCCCHHHHHH
C       0.0434446509      0.3962148803     -0.1050231929
O       0.9507519344      1.3104116337      0.0189284287
O       0.8623255423      2.2928675454      1.0252352761
C       0.2238208142     -0.6941548964     -1.1224644019
C      -0.4435566230     -1.8772556723     -0.9598837436
C      -1.0712452518      0.4464470895      0.8368200692
H       1.2220294564     -0.5707362073     -1.7230785299
H      -1.4583640437     -2.0957867471     -0.4486366113
H      -0.2611977370     -2.7206719409     -1.5667879597
H      -0.6446470475      1.1454045041      1.4881654704
H      -1.3608255252     -0.3120896980      1.5394041709
H      -2.0150546820      0.4329520754      0.2306431476
12
Frame=379  time=190.000fs  energy=-306.16992840Ha  molecule=COOCCCHHHHHH
C       0.0422095309      0.3895536584     -0.0981215563
O       0.9478741971      1.3137128869      0.0150804832
O       0.8574857886      2.2931409135      1.0270320540
C       0.2289869109     -0.6901157020     -1.1216584181
C      -0.4338693018     -1.8694610299     -0.9666393596
C      -1.0753747101      0.4387568227      0.8372485086
H       1.2183038486     -0.5900283689     -1.7461222362
H      -1.4519377523     -2.0707456359     -0.4452151824
H      -0.2529501455     -2.7442106795     -1.5511721011
H      -0.6346361158      1.1557008932      1.4928829376
H      -1.3542053446     -0.3089649421      1.5456937999
H      -2.0332072317      0.4105821754      0.2397506893
12
Frame=380  time=190.500fs  energy=-306.17025329Ha  molecule=COOCCCHHHHHH
C       0.0413881724      0.3827779666     -0.0914693527
O       0.9447922659      1.3169162740      0.0112813278
O       0.8526280972      2.2932944118      1.0287870622
C       0.2346305265     -0.6861442386     -1.1208828008
C      -0.4247512052     -1.8615170792     -0.9732711323
C      -1.0795459053      0.4309458960      0.8378551448
H       1.2082907572     -0.6103604950     -1.7661721925
H      -1.4414254204     -2.0441230696     -0.4427918632
H      -0.2415322699     -2.7688500293     -1.5380377925
H      -0.6273468976      1.1727567138      1.4969826287
H      -1.3461316811     -0.3099328899      1.5518116765
H      -2.0508748939      0.3913905716      0.2497572105
12
Frame=381  time=191.000fs  energy=-306.17058313Ha  molecule=COOCCCHHHHHH
C       0.0410106485      0.3759383807     -0.0851088793
O       0.9414875888      1.3200049229      0.0075490822
O       0.8477530391      2.2933250618      1.0304934667
C       0.2407470518     -0.6822566646     -1.1201742919
C      -0.4162054488     -1.8535710258     -0.9798027126
C      -1.0837167611      0.4231630415      0.8387310436
H       1.1922716439     -0.6313197670     -1.7828968047
H      -1.4268453443     -2.0163277834     -0.4415542884
H      -0.2273599149     -2.7928972940     -1.5265374692
H      -0.6237569426      1.1947545680      1.4989900679
H      -1.3366072256     -0.3151311371      1.5580435418
H      -2.0674070820      0.3755222480      0.2608192950
12
Frame=382  time=191.500fs  energy=-306.17086533Ha  molecule=COOCCCHHHHHH
C       0.0411029350      0.3690861857     -0.0790809928
O       0.9379469009      1.3229612872      0.0038974182
O       0.8428637902      2.2932329471      1.0321433018
C       0.2473112820     -0.6784674397     -1.1195512461
C      -0.4082090596     -1.8457781259     -0.9862666347
C      -1.0878527559      0.4155531946      0.8399702278
H       1.1707842620     -0.6524510003     -1.7961131433
H      -1.4084155230     -1.9878598795     -0.4416177002
H      -0.2109591866     -2.8144882611     -1.5158138436
H      -0.6247317299      1.2197696039      1.4976297912
H      -1.3256274347     -0.3244946559      1.5645505981
H      -2.0822706793      0.3629790793      0.2730085281
12
Frame=383  time=192.000fs  energy=-306.17112129Ha  molecule=COOCCCHHHHHH
C       0.0416850553      0.3622677612     -0.0734264473
O       0.9341625837      1.3257686578      0.0003349722
O       0.8379650279      2.2930197668      1.0337273916
C       0.2542711002     -0.6747853492     -1.1190074411
C      -0.4007180353     -1.8382729830     -0.9926901143
C      -1.0919269939      0.4082465841      0.8416657691
H       1.1447120653     -0.6732715264     -1.8058688795
H      -1.3865653323     -1.9592208224     -0.4429546989
H      -0.1929023232     -2.8319742323     -1.5052040067
H      -0.6309801701      1.2459110817      1.4919626295
H      -1.3131814656     -0.3377468690      1.5713018902
H      -2.0950651889      0.3535877263      0.2862876859
12
Frame=384  time=192.500fs  energy=-306.17135161Ha  molecule=COOCCCHHHHHH
C       0.0427669292      0.3555228937     -0.0681816204
O       0.9301319778      1.3284136221     -0.0031328263
O       0.8330617271      2.2926872585      1.0352353303
C       0.2615373694     -0.6712124820     -1.1185050305
C      -0.3936727327     -1.8311543795     -0.9990899370
C      -1.0959207411      0.4013451049      0.8438976989
H       1.1154018879     -0.6932905271     -1.8125656667
H      -1.3618989542     -1.9308032518     -0.4453415814
H      -0.1737681895     -2.8441827671     -1.4943250731
H      -0.6429826183      1.2714872610      1.4814608028
H      -1.2992728326     -0.3544262363      1.5780592855
H      -2.1054972717      0.3470067750      0.3005255695
12
Frame=385  time=193.000fs  energy=-306.17147327Ha  molecule=COOCCCHHHHHH
C       0.0443439752      0.3488882834     -0.0633694204
O       0.9258556019      1.3308886528     -0.0064999735
O       0.8281583147      2.2922362443      1.0366555380
C       0.2689762288     -0.6677481387     -1.1179727903
C      -0.3870023993     -1.8244896659     -1.0054745837
C      -1.0998210260      0.3949173444      0.8467207744
H       1.0847695112     -0.7120134534     -1.8170934230
H      -1.3351421759     -1.9028334664     -0.4483566316
H      -0.1541356424     -2.8504737347     -1.4830404513
H      -0.6609257986      1.2951107919      1.4660009079
H      -1.2839488287     -0.3739360203      1.5844366070
H      -2.1133705047      0.3427644817      0.3155246856
12
Frame=386  time=193.500fs  energy=-306.17136878Ha  molecule=COOCCCHHHHHH
C       0.0463959993      0.3424044271     -0.0589900203
O       0.9213342320      1.3331927644     -0.0097564652
O       0.8232582439      2.2916666115      1.0379754888
C       0.2764127469     -0.6643919583     -1.1173111256
C      -0.3806278145     -1.8183297221     -1.0118489909
C      -1.1036160137      0.3890043648      0.8501564624
H       1.0552995272     -0.7289442717     -1.8209063721
H      -1.3071347896     -1.8754222448     -0.4514274611
H      -0.1345839826     -2.8506693733     -1.4713820185
H      -0.6846710147      1.3157282775      1.4458158131
H      -1.2673144330     -0.3955941515      1.5900141937
H      -2.1186110941      0.3403167013      0.3310438347
12
Frame=387  time=194.000fs  energy=-306.17102349Ha  molecule=COOCCCHHHHHH
C       0.0488924488      0.3361213680     -0.0550190683
O       0.9165651603      1.3353286439     -0.0128872604
O       0.8183640557      2.2909780842      1.0391820383
C       0.2836561725     -0.6611393908     -1.1164058940
C      -0.3744662020     -1.8127237684     -1.0182176005
C      -1.1072920974      0.3836280148      0.8541886463
H       1.0298038976     -0.7436029428     -1.8259041229
H      -1.2788546565     -1.8486980943     -0.4539029208
H      -0.1156729616     -2.8449414788     -1.4594908960
H      -0.7137614669      1.3326307359      1.4214650222
H      -1.2495186100     -0.4186803153      1.5944586274
H      -2.1213099739      0.3391097132      0.3468110416
12
Frame=388  time=194.500fs  energy=-306.17060403Ha  molecule=COOCCCHHHHHH
C       0.0518018173      0.3300963600     -0.0514194505
O       0.9115403614      1.3372988737     -0.0158731534
O       0.8134773038      2.2901709391      1.0402619024
C       0.2905447454     -0.6579764032     -1.1151551804
C      -0.3684448879     -1.8077230608     -1.0245811173
C      -1.1108360293      0.3787907923      0.8587629947
H       1.0108950300     -0.7555436814     -1.8340082067
H      -1.2513514265     -1.8229005708     -0.4551377177
H      -0.0978839333     -2.8337025408     -1.4476003779
H      -0.7474744049      1.3454966397      1.3938299113
H      -1.2307181974     -0.4424778041      1.5975880306
H      -2.1217325733      0.3386407483      0.3625414558
12
Frame=389  time=195.000fs  energy=-306.17031579Ha  molecule=COOCCCHHHHHH
C       0.0550990642      0.3243814848     -0.0481643995
O       0.9062497592      1.3391057240     -0.0186921128
O       0.8085972378      2.2892459637      1.0412028945
C       0.2969891804     -0.6548936158     -1.1135054171
C      -0.3625139929     -1.8033561183     -1.0309289278
C      -1.1142405208      0.3744644135      0.8637925519
H       1.0002976645     -0.7643600410     -1.8464939487
H      -1.2255797016     -1.7983918430     -0.4545858123
H      -0.0815200194     -2.8175432403     -1.4360565534
H      -0.7849311852      1.3544431034      1.3640719106
H      -1.2110356700     -0.4662813573      1.5993640907
H      -2.1202491126      0.3385297927      0.3779834870
12
Frame=390  time=195.500fs  energy=-306.17013787Ha  molecule=COOCCCHHHHHH
C       0.0587671340      0.3190111075     -0.0452562626
O       0.9006887719      1.3407554659     -0.0213208963
O       0.8037186084      2.2882036081      1.0419954484
C       0.3029886279     -0.6519179784     -1.1114800159
C      -0.3566410074     -1.7995828182     -1.0372364684
C      -1.1175070262      0.3705785800      0.8691703552
H       0.9983498748     -0.7696836281     -1.8634096825
H      -1.2023135914     -1.7756365518     -0.4518455544
H      -0.0666069990     -2.7972541815     -1.4253597027
H      -0.8252143932      1.3600093088      1.3335152339
H      -1.1905496391     -0.4893634275      1.5998602531
H      -2.1172372320      0.3385615023      0.3929582140
12
Frame=391  time=196.000fs  energy=-306.16978578Ha  molecule=COOCCCHHHHHH
C       0.0627918046      0.3139989822     -0.0427251838
O       0.8948658471      1.3422638360     -0.0237376144
O       0.7988319347      2.2870441500      1.0426330695
C       0.3086185301     -0.6491263463     -1.1091874577
C      -0.3507990243     -1.7962740190     -1.0434688162
C      -1.1206417691      0.3670243145      0.8747842540
H       1.0039915236     -0.7711678182     -1.8834247372
H      -1.1821732850     -1.7551420431     -0.4466377722
H      -0.0528678029     -2.7739182325     -1.4161850976
H      -0.8674032633      1.3630655539      1.3035252856
H      -1.1693417957     -0.5109649288      1.5992528133
H      -2.1130923464      0.3386075416      0.4073171847
12
Frame=392  time=196.500fs  energy=-306.16901479Ha  molecule=COOCCCHHHHHH
C       0.0671532155      0.3093448596     -0.0406112650
O       0.8888054599      1.3436566374     -0.0259255766
O       0.7939290308      2.2857702618      1.0431111316
C       0.3140003398     -0.6466201619     -1.1067968931
C      -0.3449722028     -1.7932421152     -1.0495817354
C      -1.1236475671      0.3636750793      0.8805314749
H       1.0153038149     -0.7684711826     -1.9042724327
H      -1.1655884417     -1.7373562043     -0.4388079548
H      -0.0398108852     -2.7489619765     -1.4093320158
H      -0.9106203451      1.3646418542      1.2754156726
H      -1.1475552545     -0.5303630358      1.5978081491
H      -2.1083162378      0.3384802126      0.4208580977
12
Frame=393  time=197.000fs  energy=-306.16786676Ha  molecule=COOCCCHHHHHH
C       0.0718204057      0.3050424224     -0.0389490926
O       0.8825453061      1.3449637635     -0.0278764537
O       0.7890098429      2.2843890987      1.0434246465
C       0.3192675701     -0.6444872687     -1.1044927516
C      -0.3391726554     -1.7902865846     -1.0555166638
C      -1.1265162015      0.3604126074      0.8863302950
H       1.0302249691     -0.7612732902     -1.9234793989
H      -1.1526759529     -1.7225937989     -0.4283804376
H      -0.0268650635     -2.7240828675     -1.4056238015
H      -0.9542158693      1.3656762952      1.2503527324
H      -1.1254059568     -0.5469628700      1.5958434884
H      -2.1035083898      0.3378921356      0.4333045321
12
Frame=394  time=197.500fs  energy=-306.16661868Ha  molecule=COOCCCHHHHHH
C       0.0767508368      0.3010837120     -0.0377637775
O       0.8761303449      1.3462123414     -0.0295898498
O       0.7840841593      2.2829107287      1.0435663406
C       0.3245460089     -0.6427823172     -1.1024421369
C      -0.3334457090     -1.7872172180     -1.0611984127
C      -1.1292255627      0.3571382211      0.8921218541
H       1.0469372458     -0.7493352551     -1.9388389876
H      -1.1431810263     -1.7110459243     -0.4156009748
H      -0.0134700303     -2.7010821149     -1.4058171759
H      -0.9979142417      1.3668636561      1.2293277861
H      -1.1031536960     -0.5603189099      1.5936995678
H      -2.0992663327      0.3365213852      0.4443253512
12
Frame=395  time=198.000fs  energy=-306.16562579Ha  molecule=COOCCCHHHHHH
C       0.0818919701      0.2974660964     -0.0370694748
O       0.8696061091      1.3474230386     -0.0310695020
O       0.7791673345      2.2813437976      1.0435258274
C       0.3299445625     -0.6415238996     -1.1007783032
C      -0.3278607675     -1.7838682849     -1.0665411310
C      -1.1317426352      0.3537737277      0.8978647534
H       1.0639846082     -0.7325898273     -1.9486374228
H      -1.1365011744     -1.7028618469     -0.4009715158
H       0.0008475907     -2.6816190091     -1.4105149295
H      -1.0417475052      1.3686459940      1.2131894368
H      -1.0810801674     -0.5700787552      1.5917398456
H      -2.0961006955      0.3340593029      0.4535505228
12
Frame=396  time=198.500fs  energy=-306.16518084Ha  molecule=COOCCCHHHHHH
C       0.0871837188      0.2942038344     -0.0368657416
O       0.8630123451      1.3486088280     -0.0323188743
O       0.7742733395      2.2796916178      1.0432901893
C       0.3355515637     -0.6406990208     -1.0995935025
C      -0.3224957126     -1.7801219585     -1.0714602323
C      -1.1340308908      0.3502658854      0.9035299549
H       1.0803089709     -0.7111854270     -1.9517629922
H      -1.1317752194     -1.6982394311     -0.3852539576
H       0.0163753305     -2.6669105804     -1.4200813655
H      -1.0858361276      1.3712006157      1.2026287163
H      -1.0595014357     -0.5759184647      1.5903455694
H      -2.0943620367      0.3302150718      0.4606143701
12
Frame=397  time=199.000fs  energy=-306.16540290Ha  molecule=COOCCCHHHHHH
C       0.0925612635      0.2913366024     -0.0371351553
O       0.8563781878      1.3497757875     -0.0333381402
O       0.7694090714      2.2779512366      1.0428460120
C       0.3414330512     -0.6402710926     -1.0989377717
C      -0.3174186429     -1.7759341667     -1.0758869892
C      -1.1360613212      0.3465937580      0.9090973016
H       1.0952541186     -0.6854659673     -1.9477219131
H      -1.1280301219     -1.6974496583     -0.3693920745
H       0.0331228734     -2.6574657461     -1.4345841397
H      -1.1301358321      1.3743899703      1.1980937189
H      -1.0387999109     -0.5775307197      1.5899003109
H      -2.0941593705      0.3247086346      0.4652284188
12
Frame=398  time=199.500fs  energy=-306.16619396Ha  molecule=COOCCCHHHHHH
C       0.0979579242      0.2889286583     -0.0378457703
O       0.8497199232      1.3509256278     -0.0341230590
O       0.7645724604      2.2761155619      1.0421820520
C       0.3476300599     -0.6401877605     -1.0988189590
C      -0.3126725529     -1.7713471436     -1.0797818923
C      -1.1378252174      0.3427733118      0.9145521626
H       1.1085416330     -0.6559289336     -1.9365880975
H      -1.1243184873     -1.7007912629     -0.3543894037
H       0.0507857180     -2.6529685041     -1.4537756691
H      -1.1742484054      1.3777356570      1.1996960198
H      -1.0194383570     -0.5746824384      1.5907945319
H      -2.0953041282      0.3172743683      0.4672480319
12
Frame=399  time=200.000fs  energy=-306.16730850Ha  molecule=COOCCCHHHHHH
C       0.1033084886      0.2870588577     -0.0389584377
O       0.8430422347      1.3520584128     -0.0346660792
O       0.7597546643      2.2741768908      1.0412913794
C       0.3541547718     -0.6403865154     -1.0992016130
C      -0.3082684193     -1.7664812171     -1.0831431522
C      -1.1393433166      0.3388574523      0.9198806914
H       1.1202322496     -0.6231755843     -1.9189177239
H      -1.1198082007     -1.7085287301     -0.3411985086
H       0.0687932060     -2.6523647184     -1.4771189403
H      -1.2173795480      1.3804777896      1.2071812565
H      -1.0019317575     -0.5673272677      1.5934676294
H      -2.0973219554      0.3076775420      0.4667047543
12
Frame=400  time=200.500fs  energy=-306.16849418Ha  molecule=COOCCCHHHHHH
C       0.1085524440      0.2858038072     -0.0404355334
O       0.8363433929      1.3531744292     -0.0349600307
O       0.7549444886      2.2721301728      1.0401725936
C       0.3609877018     -0.6407983657     -1.1000074193
C      -0.3041866140     -1.7615106490     -1.0860088091
C      -1.1406657230      0.3349313527      0.9250635072
H       1.1306766229     -0.5878356613     -1.8956322291
H      -1.1138451945     -1.7208472387     -0.3306270355
H       0.0864259348     -2.6541042843     -1.5038508914
H      -1.2584663903      1.3817391024      1.2199924848
H      -0.9867788334     -0.5557352568      1.5984574391
H      -2.0995407314      0.2957325077      0.4637948173
12
Frame=401  time=201.000fs  energy=-306.16958574Ha  molecule=COOCCCHHHHHH
C       0.1136352414      0.2852194353     -0.0422452420
O       0.8296221715      1.3542754985     -0.0350031684
O       0.7501323164      2.2699752779      1.0388305594
C       0.3680772274     -0.6413500029     -1.1011192891
C      -0.3003822097     -1.7566343079     -1.0884534176
C      -1.1418629404      0.3311028710      0.9300713521
H       1.1404660610     -0.5504807881     -1.8679024940
H      -1.1060117831     -1.7378078852     -0.3232386056
H       0.1029558780     -2.6564503831     -1.5330731858
H      -1.2963845856      1.3807324115      1.2373830335
H      -0.9743768317     -0.5405784670      1.6063949996
H      -2.1012264491      0.2813120469      0.4588277676
12
Frame=402  time=201.500fs  energy=-306.17050356Ha  molecule=COOCCCHHHHHH
C       0.1185075283      0.2853309841     -0.0443570601
O       0.8228821764      1.3553662560     -0.0348021641
O       0.7453119387      2.2677181447      1.0372767454
C       0.3753421182     -0.6419657342     -1.1023893437
C      -0.2967895546     -1.7520508891     -1.0905827610
C      -1.1430140846      0.3274862486      0.9348675075
H       1.1504003877     -0.5115841357     -1.8370936566
H      -1.0961728567     -1.7592879569     -0.3192436021
H       0.1177512548     -2.6577558245     -1.5638445443
H      -1.3301043205      1.3769134622      1.2585158554
H      -0.9649558476     -0.5229006995      1.6178984100
H      -2.1017241451      0.2643432513      0.4521530962
12
Frame=403  time=202.000fs  energy=-306.17122782Ha  molecule=COOCCCHHHHHH
C       0.1231237985      0.2861363666     -0.0467312305
O       0.8161323138      1.3564555986     -0.0343708238
O       0.7404804425      2.2653704855      1.0355283153
C       0.3826812018     -0.6425719982     -1.1036548376
C      -0.2933262342     -1.7479406580     -1.0925273187
C      -1.1441966146      0.3241776948      0.9394166759
H       1.1614182780     -0.4715539038     -1.8047146597
H      -1.0844687301     -1.7849196747     -0.3184251456
H       0.1303174833     -2.6566414563     -1.5952503076
H      -1.3587550764      1.3700335149      1.2825394389
H      -0.9585666108     -0.5039313529      1.6333822037
H      -2.1005636834      0.2447883215      0.4440942490
12
Frame=404  time=202.500fs  energy=-306.17178619Ha  molecule=COOCCCHHHHHH
C       0.1274402495      0.2876147143     -0.0493111177
O       0.8093865487      1.3575582964     -0.0337266876
O       0.7356374110      2.2629484176      1.0336059585
C       0.3899919315     -0.6431029088     -1.1047615150
C      -0.2898995734     -1.7444536174     -1.0944318968
C      -1.1454781335      0.3212310981      0.9436956946
H       1.1744262344     -0.4308005063     -1.7722647683
H      -1.0712294109     -1.8140518096     -0.3201713542
H       0.1402947124     -2.6520759736     -1.6264586191
H      -1.3816472064      1.3601035486      1.3086515028
H      -0.9551225168     -0.4848075131      1.6528795781
H      -2.0975078329      0.2226198628      0.4349143682
12
Frame=405  time=203.000fs  energy=-306.17223219Ha  molecule=COOCCCHHHHHH
C       0.1314120878      0.2897286045     -0.0520240827
O       0.8026649192      1.3586964921     -0.0328888252
O       0.7307841155      2.2604712903      1.0315323337
C       0.3971911761     -0.6434996444     -1.1055842118
C      -0.2864156997     -1.7417066861     -1.0964424882
C      -1.1469108647      0.3186486773      0.9477032145
H       1.1900832034     -0.3897985762     -1.7410218768
H      -1.0568573714     -1.8457861685     -0.3236386420
H       0.1474474989     -2.6433897470     -1.6567733275
H      -1.3982959166      1.3473221412      1.3361322817
H      -0.9544484789     -0.4663477522      1.6759819802
H      -2.0925476483      0.1978178859      0.4248216479
12
Frame=406  time=203.500fs  energy=-306.17261308Ha  molecule=COOCCCHHHHHH
C       0.1349925474      0.2924209938     -0.0547880474
O       0.7959945609      1.3598999993     -0.0318776758
O       0.7259224423      2.2579608737      1.0293319674
C       0.4042331281     -0.6437031581     -1.1060410504
C      -0.2827891339     -1.7397865617     -1.0986930560
C      -1.1485297598      0.3163899043      0.9514667657
H       1.2086102219     -0.3491224237     -1.7118495867
H      -1.0417415645     -1.8791453324     -0.3280004408
H       0.1516610170     -2.6302615635     -1.6856713614
H      -1.4084490703      1.3320236301      1.3643330586
H      -0.9562979660     -0.4489609739      1.7019111132
H      -2.0858586845      0.1704060482      0.4140067197
12
Frame=407  time=204.000fs  energy=-306.17293127Ha  molecule=COOCCCHHHHHH
C       0.1381336042      0.2956160304     -0.0575182310
O       0.7894097890      1.3612045325     -0.0307160389
O       0.7210535573      2.2554398816      1.0270309545
C       0.4111199371     -0.6436486513     -1.1061004323
C      -0.2789506667     -1.7387511102     -1.1012928766
C      -1.1503542219      0.3143876135      0.9550426313
H       1.2296862608     -0.3094311733     -1.6850831681
H      -1.0262169197     -1.9133021511     -0.3326627985
H       0.1529325766     -2.6126915497     -1.7128159960
H      -1.4120986937      1.3146632835      1.3926418320
H      -0.9603515140     -0.4326992712      1.7296527221
H      -2.0777197771      0.1405074813      0.4026927989
12
Frame=408  time=204.500fs  energy=-306.17312722Ha  molecule=COOCCCHHHHHH
C       0.1407868894      0.2992259154     -0.0601324671
O       0.7829508298      1.3626489255     -0.0294293303
O       0.7161769748      2.2529296330      1.0246551585
C       0.4178989585     -0.6432685288     -1.1057762536
C      -0.2748506679     -1.7386256714     -1.1043163222
C      -1.1523921388      0.3125601198      0.9585049136
H       1.2525010893     -0.2714102924     -1.6605711259
H      -1.0105558016     -1.9477088442     -0.3373299809
H       0.1513497410     -2.5909583517     -1.7380544030
H      -1.4094731107      1.2958306145      1.4204552174
H      -0.9662264505     -0.4174378710      1.7580914953
H      -2.0684063832      0.1083855358      0.3911810934
12
Frame=409  time=205.000fs  energy=-306.17310457Ha  molecule=COOCCCHHHHHH
C       0.1429055286      0.3031591130     -0.0625562306
O       0.7766609446      1.3642727817     -0.0280441227
O       0.7112906361      2.2504479075      1.0222277214
C       0.4246469341     -0.6425022750     -1.1051121637
C      -0.2704576169     -1.7393944178     -1.1077981317
C      -1.1546436905      0.3108162492      0.9619285474
H       1.2759464071     -0.2357114195     -1.6378590822
H      -0.9949761927     -1.9820817699     -0.3419337415
H       0.1470749369     -2.5655827036     -1.7614176434
H      -1.4010244879      1.2762693724      1.4471643229
H      -0.9735068332     -0.4030949960      1.7861365192
H      -2.0581018075      0.0744600819      0.3798873878
12
Frame=410  time=205.500fs  energy=-306.17277497Ha  molecule=COOCCCHHHHHH
C       0.1444477339      0.3073272467     -0.0647259839
O       0.7705829458      1.3661145993     -0.0265862963
O       0.7063917655      2.2480081913      1.0197676174
C       0.4314463798     -0.6413073400     -1.1041611807
C      -0.2657559299     -1.7409911145     -1.1117339650
C      -1.1571031302      0.3090570809      0.9653762559
H       1.2988746654     -0.2029111734     -1.6164320085
H      -0.9796445679     -2.0163206233     -0.3465382914
H       0.1403620224     -2.5373351507     -1.7831400870
H      -1.3874106026      1.2568588847      1.4721559248
H      -0.9817824480     -0.3897657487      1.8128215944
H      -2.0468733370      0.0393041929      0.3693597662
12
Frame=411  time=206.000fs  energy=-306.17209612Ha  molecule=COOCCCHHHHHH
C       0.1453808274      0.3116499938     -0.0665895782
O       0.7647567783      1.3682101391     -0.0250804200
O       0.7014776110      2.2456206190      1.0172901118
C       0.4383626793     -0.6396661774     -1.1029685137
C      -0.2607460446     -1.7432966557     -1.1160831626
C      -1.1597588036      0.3071797283      0.9688947682
H       1.3203384719     -0.1734792957     -1.5959169696
H      -0.9646634133     -2.0504181366     -0.3512857731
H       0.1315954093     -2.5072782796     -1.8036985425
H      -1.3694481688      1.2385325816      1.4948442088
H      -0.9906842016     -0.3777217138      1.8373540495
H      -2.0347216472      0.0036073797      0.3602463591
12
Frame=412  time=206.500fs  energy=-306.17109938Ha  molecule=COOCCCHHHHHH
C       0.1456834414      0.3160556335     -0.0681058438
O       0.7592190111      1.3705914447     -0.0235506185
O       0.6965454499      2.2432938494      1.0148085952
C       0.4454297496     -0.6375881307     -1.1015625546
C      -0.2554448069     -1.7461479178     -1.1207727446
C      -1.1625919182      0.3050841012      0.9725176765
H       1.3397299180     -0.1477463187     -1.5761759007
H      -0.9500573251     -2.0843680599     -0.3563654452
H       0.1213114793     -2.4767636913     -1.8238387533
H      -1.3480313479      1.2221815756      1.5147401484
H      -0.9999099801     -0.3673295667      1.8591202655
H      -2.0216685396     -0.0319101171      0.3531949121
12
Frame=413  time=207.000fs  energy=-306.16990126Ha  molecule=COOCCCHHHHHH
C       0.1453453036      0.3204769646     -0.0692455114
O       0.7540035328      1.3732860560     -0.0220222511
O       0.6915920823      2.2410367088      1.0123364753
C       0.4526459506     -0.6351073767     -1.0999532320
C      -0.2498827441     -1.7493575232     -1.1257054967
C      -1.1655741156      0.3026796837      0.9762694081
H       1.3568007359     -0.1258626284     -1.5572804159
H      -0.9357756336     -2.1180919996     -0.3619826076
H       0.1101670713     -2.4473089070     -1.8445361535
H      -1.3240441790      1.2086008814      1.5315252578
H      -1.0092376008     -0.3589613339      1.8776839643
H      -2.0078307255     -0.0666051946      0.3487222380
12
Frame=414  time=207.500fs  energy=-306.16868196Ha  molecule=COOCCCHHHHHH
C       0.1443658284      0.3248470493     -0.0699922762
O       0.7491417016      1.3763150710     -0.0205231546
O       0.6866135104      2.2388591067      1.0098881237
C       0.4599791825     -0.6322763321     -1.0981348027
C      -0.2440966953     -1.7527402988     -1.1307753271
C      -1.1686650430      0.2998907316      0.9801673352
H       1.3715840115     -0.1077742917     -1.5394141224
H      -0.9217190156     -2.1514249050     -0.3683294328
H       0.0988498698     -2.4203662823     -1.8668590346
H      -1.2983046519      1.1984612562      1.5450712851
H      -1.0185216627     -0.3529297896      1.8927930027
H      -1.9934423783     -0.0999763631      0.3471325660
12
Frame=415  time=208.000fs  energy=-306.16762755Ha  molecule=COOCCCHHHHHH
C       0.1427525441      0.3290991728     -0.0703414640
O       0.7446608312      1.3796901520     -0.0190831887
O       0.6816052512      2.2367727315      1.0074789661
C       0.4673791299     -0.6291547811     -1.0960913112
C      -0.2381187968     -1.7561395856     -1.1358891451
C      -1.1718115796      0.2966608798      0.9842231081
H       1.3842560838     -0.0932598050     -1.5227711685
H      -0.9077812935     -2.1841631683     -0.3755649863
H       0.0879564339     -2.3970696102     -1.8917504573
H      -1.2715540882      1.1922561268      1.5553813870
H      -1.0276737395     -0.3494528801      1.9043778487
H      -1.9788322603     -0.1316488033      0.3485236874
12
Frame=416  time=208.500fs  energy=-306.16685810Ha  molecule=COOCCCHHHHHH
C       0.1405194449      0.3331707599     -0.0702962360
O       0.7405816335      1.3834113179     -0.0177319387
O       0.6765632083      2.2347921654      1.0051254260
C       0.4747914586     -0.6257999514     -1.0938034477
C      -0.2319659423     -1.7594455681     -1.1409888365
C      -1.1749489592      0.2929574540      0.9884455430
H       1.3949996428     -0.0820226300     -1.5075009179
H      -0.8938862892     -2.2161246078     -0.3838012133
H       0.0778881709     -2.3780543886     -1.9197980550
H      -1.2444777796      1.1902207504      1.5624907273
H      -1.0366322884     -0.3486422736      1.9125246121
H      -1.9643903985     -0.1613127089      0.3528421901
12
Frame=417  time=209.000fs  energy=-306.16638390Ha  molecule=COOCCCHHHHHH
C       0.1376853665      0.3370076786     -0.0698641001
O       0.7369162456      1.3874668374     -0.0164958619
O       0.6714847188      2.2329363600      1.0028451336
C       0.4821677846     -0.6222625354     -1.0912546712
C      -0.2256347982     -1.7626005035     -1.1460647681
C      -1.1780031104      0.2887740235      0.9928448689
H       1.4039231405     -0.0737830069     -1.4937026317
H      -0.8800043170     -2.2471714038     -0.3930914733
H       0.0688126495     -2.3634119438     -1.9510838724
H      -1.2177349555      1.1922657114      1.5663889028
H      -1.0453346778     -0.3505076672      1.9174305280
H      -1.9505465614     -0.1886721594      0.3599316858
12
Frame=418  time=209.500fs  energy=-306.16611812Ha  molecule=COOCCCHHHHHH
C       0.1342730074      0.3405662462     -0.0690562162
O       0.7336679470      1.3918347146     -0.0153965489
O       0.6663694430      2.2312300006      1.0006573405
C       0.4894687634     -0.6185880105     -1.0884344116
C      -0.2191039717     -1.7655925737     -1.1511570679
C      -1.1808936977      0.2841299488      0.9974359118
H       1.4110496222     -0.0683222739     -1.4814429398
H      -0.8661464939     -2.2771932857     -0.4034258766
H       0.0606959650     -2.3527698191     -1.9851626268
H      -1.1919851795      1.1979644272      1.5670027577
H      -1.0537011546     -0.3549702056      1.9193643499
H      -1.9377595019     -0.2134325755      0.3695537058
12
Frame=419  time=210.000fs  energy=-306.16593178Ha  molecule=COOCCCHHHHHH
C       0.1303090718      0.3438129018     -0.0678894623
O       0.7308324953      1.3964844616     -0.0144509316
O       0.6612199960      2.2297044059      0.9985833324
C       0.4966617594     -0.6148200854     -1.0853381115
C      -0.2123413484     -1.7684440872     -1.1563463412
C      -1.1835374171      0.2790671575      1.0022385591
H       1.4163528491     -0.0654742657     -1.4707719106
H      -0.8523438675     -2.3060759427     -0.4147376814
H       0.0533788715     -2.3454416410     -2.0211566433
H      -1.1679100775      1.2066008950      1.5642379428
H      -1.0616320280     -0.3618828135      1.9186458994
H      -1.9265096070     -0.2353180749      0.3813896716
12
Frame=420  time=210.500fs  energy=-306.16571561Ha  molecule=COOCCCHHHHHH
C       0.1258253572      0.3467230985     -0.0663892154
O       0.7284002183      1.4013784543     -0.0136730230
O       0.6560421465      2.2283975802      0.9966466555
C       0.5037159923     -0.6110045985     -1.0819657240
C      -0.2053135167     -1.7711986464     -1.1617374660
C      -1.1858511439      0.2736452716      1.0072757142
H       1.4198143158     -0.0650828946     -1.4617318622
H      -0.8386206092     -2.3336747380     -0.4269195172
H       0.0466644608     -2.3405887001     -2.0579249293
H      -1.1462282273      1.2172544598      1.5580480244
H      -1.0690132911     -0.3710551334      1.9156426824
H      -1.9172915748     -0.2540959963      0.3950398310
12
Frame=421  time=211.000fs  energy=-306.16542210Ha  molecule=COOCCCHHHHHH
C       0.1208600329      0.3492810926     -0.0645903930
O       0.7263577002      1.4064729898     -0.0130757991
O       0.6508440408      2.2273526548      0.9948729546
C       0.5105977198     -0.6071930807     -1.0783202264
C      -0.1979939718     -1.7739096456     -1.1674411423
C      -1.1877548629      0.2679358986      1.0125694887
H       1.4214824032     -0.0669503704     -1.4543640948
H      -0.8249723626     -2.3598023001     -0.4398434703
H       0.0403897467     -2.3373584268     -2.0942536567
H      -1.1276857207      1.2288988686      1.5484931380
H      -1.0757246156     -0.3822771332      1.9107713985
H      -1.9106078398     -0.2695941364      0.4100330334
12
Frame=422  time=211.500fs  energy=-306.16507605Ha  molecule=COOCCCHHHHHH
C       0.1154582304      0.3514812918     -0.0625354044
O       0.7246880734      1.4117193634     -0.0126717086
O       0.6456342638      2.2266142585      0.9932891293
C       0.5172673117     -0.6034448451     -1.0744067205
C      -0.1903676042     -1.7766308766     -1.1735579253
C      -1.1891746237      0.2620162879      1.0181359099
H       1.4215164450     -0.0707987191     -1.4487164981
H      -0.8113595455     -2.3842319462     -0.4533786112
H       0.0344651460     -2.3349846911     -2.1290195281
H      -1.1130044880      1.2405069236      1.5357650554
H      -1.0816451319     -0.3953356617      1.9044924832
H      -1.9069620276     -0.2817106316      0.4258547929
12
Frame=423  time=212.000fs  energy=-306.16475467Ha  molecule=COOCCCHHHHHH
C       0.1096716988      0.3533304855     -0.0602696633
O       0.7233698855      1.4170649410     -0.0124715440
O       0.6404198782      2.2262238420      0.9919215792
C       0.5236789946     -0.5998268232     -1.0702321568
C      -0.1824311544     -1.7794092965     -1.1801677205
C      -1.1900460096      0.2559624190      1.0239786420
H       1.4202010826     -0.0762565952     -1.4448472459
H      -0.7977179410     -2.4067143254     -0.4674020471
H       0.0288823780     -2.3328435143     -2.1612936164
H      -1.1028041661      1.2511505839      1.5201814250
H      -1.0866553637     -0.4100242714      1.8972932172
H      -1.9068438162     -0.2904202148      0.4419913103
12
Frame=424  time=212.500fs  energy=-306.16455195Ha  molecule=COOCCCHHHHHH
C       0.1035579939      0.3548497206     -0.0578366733
O       0.7223756247      1.4224539096     -0.0124829305
O       0.6352059058      2.2262160114      0.9907939020
C       0.5297827593     -0.5964114136     -1.0658054919
C      -0.1741910991     -1.7822799776     -1.1873252675
C      -1.1903186642      0.2498414936      1.0300831595
H       1.4179274996     -0.0828703654     -1.4428193230
H      -0.7839802758     -2.4270025426     -0.4818015687
H       0.0237023333     -2.3304650208     -2.1903784437
H      -1.0975385425      1.2600807899      1.5021690059
H      -1.0906359168     -0.4261489783      1.8896613813
H      -1.9106939855     -0.2957725420      0.4579783341
12
Frame=425  time=213.000fs  energy=-306.16454547Ha  molecule=COOCCCHHHHHH
C       0.0971795055      0.3560747687     -0.0552744965
O       0.7216709485      1.4278277157     -0.0127095782
O       0.6299962408      2.2266170745      0.9899250121
C       0.5355273517     -0.5932731968     -1.0611379002
C      -0.1656606045     -1.7852632397     -1.1950603659
C      -1.1899619209      0.2437037139      1.0364129159
H       1.4151493174     -0.0901364330     -1.4426895698
H      -0.7700975600     -2.4448793362     -0.4964715380
H       0.0190359545     -2.3275125066     -2.2157940174
H      -1.0974668552      1.2667825380      1.4822518592
H      -1.0934639138     -0.4435276204      1.8820538177
H      -1.9188476698     -0.2978741216      0.4734421662
12
Frame=426  time=213.500fs  energy=-306.16477479Ha  molecule=COOCCCHHHHHH
C       0.0906020001      0.3570543770     -0.0526143719
O       0.7212148794      1.4331258367     -0.0131512137
O       0.6247949275      2.2274455375      0.9893284068
C       0.5408637150     -0.5904851463     -1.0562428113
C      -0.1568564869     -1.7883637444     -1.2033808756
C      -1.1889706557      0.2375740823      1.0429082537
H       1.4123223623     -0.0975560223     -1.4445013115
H      -0.7560505362     -2.4601776934     -0.5113086107
H       0.0150268476     -2.3237452773     -2.2372364997
H      -1.1026522442      1.2710116488      1.4610471902
H      -1.0950088829     -0.4619792512      1.8748657321
H      -1.9314644369     -0.2968549818      0.4881248057
12
Frame=427  time=214.000fs  energy=-306.16523263Ha  molecule=COOCCCHHHHHH
C       0.0838923355      0.3578461211     -0.0498812178
O       0.7209608426      1.4382874846     -0.0138036646
O       0.6196071184      2.2287136482      0.9890124960
C       0.5457487082     -0.5881145287     -1.0511358661
C      -0.1477966878     -1.7915709744     -1.2122764194
C      -1.1873695948      0.2314467587      1.0494883781
H       1.4098352556     -0.1047081202     -1.4482836284
H      -0.7418497411     -2.4727880370     -0.5262126402
H       0.0118399580     -2.3189821568     -2.2545329318
H      -1.1129794276      1.2728110949      1.4392611392
H      -1.0951308851     -0.4813070438      1.8684078933
H      -1.9484592152     -0.2928364628      0.5018880410
12
Frame=428  time=214.500fs  energy=-306.16587001Ha  molecule=COOCCCHHHHHH
C       0.0771155281      0.3585107299     -0.0470949926
O       0.7208584349      1.4432542151     -0.0146589450
O       0.6144396794      2.2304291027      0.9889813862
C       0.5501484033     -0.5862188958     -1.0458348848
C      -0.1384985072     -1.7948602777     -1.2217211434
C      -1.1852140122      0.2252854841      1.0560567081
H       1.4079449302     -0.1113224472     -1.4540546343
H      -0.7275309605     -2.4826512396     -0.5410908339
H       0.0096573888     -2.3130788691     -2.2676129640
H      -1.1281927686      1.2724893128      1.4176706911
H      -1.0936832225     -0.5012851466      1.8628973224
H      -1.9694521685     -0.2859205582      0.5146938926
12
Frame=429  time=215.000fs  energy=-306.16661591Ha  molecule=COOCCCHHHHHH
C       0.0703317143      0.3591061881     -0.0442717965
O       0.7208557774      1.4479732289     -0.0157052715
O       0.6093015669      2.2325962905      0.9892354988
C       0.5540397833     -0.5848430876     -1.0403598437
C      -0.1289773032     -1.7981937841     -1.2316748817
C      -1.1825857294      0.2190320332      1.0625091214
H       1.4067388390     -0.1173314767     -1.4618288265
H      -0.7131544571     -2.4897427846     -0.5558591961
H       0.0086792881     -2.3059250721     -2.2765095712
H      -1.1479544538      1.2705421649      1.3970813074
H      -1.0905209482     -0.5216590007      1.8584614639
H      -1.9937563862     -0.2762057425      0.5265712373
12
Frame=430  time=215.500fs  energy=-306.16740255Ha  molecule=COOCCCHHHHHH
C       0.0635937675      0.3596824747     -0.0414243758
O       0.7209021619      1.4524013374     -0.0169266971
O       0.6042039249      2.2352167141      0.9897716456
C       0.5574105557     -0.5840180114     -1.0347331159
C      -0.1192450023     -1.8015209237     -1.2420828910
C      -1.1795854825      0.2126210113      1.0687430214
H       1.4061353150     -0.1228918602     -1.4716288963
H      -0.6988108715     -2.4940584897     -0.5704384842
H       0.0091260523     -2.2974596498     -2.2813896029
H      -1.1719109893      1.2675219448      1.3782665218
H      -1.0855164864     -0.5421581464      1.8551482123
H      -2.0204140715     -0.2638123475      0.5375951552
12
Frame=431  time=216.000fs  energy=-306.16817969Ha  molecule=COOCCCHHHHHH
C       0.0569465138      0.3602776900     -0.0385625145
O       0.7209504841      1.4565091686     -0.0183021219
O       0.5991595732      2.2382883298      0.9905824679
C       0.5602581341     -0.5837612658     -1.0289804284
C      -0.1093083094     -1.8047787062     -1.2528743892
C      -1.1763242961      0.2059962626      1.0746648176
H       1.4059128409     -0.1283744566     -1.4834947478
H      -0.6846283352     -2.4956160733     -0.5847483243
H       0.0112388573     -2.2876987851     -2.2826084094
H      -1.1997420422      1.2638877525      1.3619111502
H      -1.0785840789     -0.5625072638      1.8529290936
H      -2.0482790808     -0.2488971135      0.5479010297
12
Frame=432  time=216.500fs  energy=-306.16890784Ha  molecule=COOCCCHHHHHH
C       0.0504279984      0.3609168714     -0.0356938119
O       0.7209587201      1.4602841261     -0.0198039457
O       0.5941814455      2.2418036661      0.9916553952
C       0.5625890478     -0.5840788327     -1.0231324236
C      -0.0991677171     -1.8078922623     -1.2639599559
C      -1.1729158418      0.1991240875      1.0801953095
H       1.4057482422     -0.1343222997     -1.4974766405
H      -0.6707718420     -2.4944817354     -0.5987051204
H       0.0152774637     -2.2767690807     -2.2807779746
H      -1.2311601173      1.2598845605      1.3485753061
H      -1.0697111310     -0.5824185240      1.8516877358
H      -2.0761320909     -0.2316561409      0.5577191186
12
Frame=433  time=217.000fs  energy=-306.16953958Ha  molecule=COOCCCHHHHHH
C       0.0440719793      0.3616145333     -0.0328248586
O       0.7208897661      1.4637299324     -0.0213972001
O       0.5892798690      2.2457471776      0.9929716232
C       0.5644192557     -0.5849663143     -1.0172257874
C      -0.0888189430     -1.8107765147     -1.2752285130
C      -1.1694699425      0.1920004750      1.0852741343
H       1.4052471918     -0.1413759575     -1.5136023113
H      -0.6574325200     -2.4908110085     -0.6122239477
H       0.0215151765     -2.2649357489     -2.2768281864
H      -1.2658436174      1.2554831346      1.3386770066
H      -1.0589852906     -0.6015628733      1.8512014292
H      -2.1028046616     -0.2123316516      0.5673815982
12
Frame=434  time=217.500fs  energy=-306.17001084Ha  molecule=COOCCCHHHHHH
C       0.0379098226      0.3623802282     -0.0299623686
O       0.7207096178      1.4668614351     -0.0230401931
O       0.5844593662      2.2500932290      0.9945058983
C       0.5657748357     -0.5864086178     -1.0113030073
C      -0.0782572420     -1.8133400072     -1.2865458802
C      -1.1660866607      0.1846512782      1.0898637724
H       1.4039602092     -0.1501714280     -1.5318172793
H      -0.6448131417     -2.4848740413     -0.6252208499
H       0.0302305638     -2.2526129404     -2.2720278712
H      -1.3033174742      1.2503888232      1.3324772522
H      -1.0466001349     -0.6195397384      1.8511354606
H      -2.1272853206     -0.1912296228      0.5772661026
12
Frame=435  time=218.000fs  energy=-306.17025761Ha  molecule=COOCCCHHHHHH
C       0.0319704039      0.3632244442     -0.0271137595
O       0.7203848988      1.4696958599     -0.0246871261
O       0.5797162360      2.2548062887      0.9962276542
C       0.5666916783     -0.5883789606     -1.0054111108
C      -0.0674829506     -1.8154911859     -1.2977575598
C      -1.1628513256      0.1771254604      1.0939517585
H       1.4013890417     -0.1612249037     -1.5519105075
H      -0.6331169177     -2.4770431897     -0.6376148745
H       0.0416959090     -2.2403419913     -2.2679299792
H      -1.3428260267      1.2441182734      1.3300578955
H      -1.0328302843     -0.6358764770      1.8510660011
H      -2.1487883523     -0.1687374782      0.5876900638
12
Frame=436  time=218.500fs  energy=-306.17025320Ha  molecule=COOCCCHHHHHH
C       0.0262787958      0.3641613306     -0.0242875458
O       0.7198815178      1.4722443943     -0.0262921303
O       0.5750378907      2.2598437487      0.9981032938
C       0.5672126710     -0.5908394616     -0.9996003476
C      -0.0565051293     -1.8171464448     -1.3086992293
C      -1.1598323266      0.1694838877      1.0975488330
H       1.3970001750     -0.1748279843     -1.5734528246
H      -0.6225433765     -2.4677538846     -0.6493289018
H       0.0561609942     -2.2287262721     -2.2662130376
H      -1.3832590620      1.2361385792      1.3313113274
H      -1.0179844071     -0.6500786226      1.8505344991
H      -2.1667780203     -0.1453292419      0.5988112307
12
Frame=437  time=219.000fs  energy=-306.17003895Ha  molecule=COOCCCHHHHHH
C       0.0208565052      0.3652061276     -0.0214948672
O       0.7191657206      1.4745082563     -0.0278134311
O       0.5704045657      2.2651605628      1.0000988819
C       0.5673819356     -0.5937444027     -0.9939225758
C      -0.0453407273     -1.8182389658     -1.3192180249
C      -1.1570834254      0.1617891691      1.1006821500
H       1.3902665984     -0.1909825017     -1.5957859597
H      -0.6132908745     -2.4574699454     -0.6602867394
H       0.0738267372     -2.2183259876     -2.2684110870
H      -1.4231919482      1.2260272234      1.3359796423
H      -1.0023562626     -0.6617198742      1.8491215362
H      -2.1809506855     -0.1215558632      0.6105876160
12
Frame=438  time=219.500fs  energy=-306.16971222Ha  molecule=COOCCCHHHHHH
C       0.0157244994      0.3663690474     -0.0187522570
O       0.7182065716      1.4764802894     -0.0292159853
O       0.5657935651      2.2707143330      1.0021825248
C       0.5672376490     -0.5970448536     -0.9884282005
C      -0.0340101499     -1.8187262653     -1.3291991884
C      -1.1546494946      0.1541015478      1.1033860860
H       1.3807435170     -0.2093967831     -1.6180872942
H      -0.6055566239     -2.4466639442     -0.6704134990
H       0.0948089965     -2.2095543142     -2.2756051249
H      -1.4610487801      1.2135768504      1.3437426281
H      -0.9861921064     -0.6705315459      1.8465122023
H      -2.1911854670     -0.0980269170      0.6228083495
12
Frame=439  time=220.000fs  energy=-306.16937099Ha  molecule=COOCCCHHHHHH
C       0.0109065135      0.3676503540     -0.0160834939
O       0.7169775843      1.4781497534     -0.0304715610
O       0.5611844773      2.2764690624      1.0043259842
C       0.5668062568     -0.6006926131     -0.9831618630
C      -0.0225330301     -1.8185941067     -1.3385847521
C      -1.1525715488      0.1464810832      1.1056951376
H       1.3681563938     -0.2295381116     -1.6394949323
H      -0.5995247256     -2.4357986286     -0.6796523191
H       0.1191048207     -2.2026245755     -2.2882064530
H      -1.4953044178      1.1988080762      1.3542990110
H      -0.9696826122     -0.6764577487      1.8425264921
H      -2.1974861010     -0.0753965637      0.6351608432
12
Frame=440  time=220.500fs  energy=-306.16905712Ha  molecule=COOCCCHHHHHH
C       0.0064295848      0.3690396458     -0.0135188422
O       0.7154568878      1.4795073605     -0.0315571189
O       0.5565627724      2.2823963720      1.0065054877
C       0.5661000524     -0.6046424458     -0.9781583439
C      -0.0109264930     -1.8178578537     -1.3473785381
C      -1.1508873506      0.1389921904      1.1076409170
H       1.3524706645     -0.2507086697     -1.6592460565
H      -0.5953445885     -2.4253025130     -0.6879980772
H       0.1465676896     -2.1975429318     -2.3058746094
H      -1.5246272611      1.1819269459      1.3674040335
H      -0.9529753645     -0.6796698030      1.8371145584
H      -2.1999429378     -0.0543643995      0.6472868751
12
Frame=441  time=221.000fs  energy=-306.16874295Ha  molecule=COOCCCHHHHHH
C       0.0023213675      0.3705186600     -0.0110920510
O       0.7136269771      1.4805485254     -0.0324533334
O       0.5519205592      2.2884745314      1.0087019076
C       0.5651187824     -0.6088524564     -0.9734400537
C       0.0007937511     -1.8165635457     -1.3556388725
C      -1.1496276894      0.1317063814      1.1092515594
H       1.3339216253     -0.2721118330     -1.6767807274
H      -0.5931016513     -2.4155388030     -0.6955400998
H       0.1768911521     -2.1941223880     -2.3275556737
H      -1.5479374854      1.1632770127      1.3828798682
H      -0.9361958096     -0.6805458330      1.8303369635
H      -2.1987230597     -0.0356837080      0.6588050233
12
Frame=442  time=221.500fs  energy=-306.16838062Ha  molecule=COOCCCHHHHHH
C      -0.0013945052      0.3720655192     -0.0088362331
O       0.7114746505      1.4812739941     -0.0331440316
O       0.5472551788      2.2946864787      1.0109002900
C       0.5638549224     -0.6132824473     -0.9690167494
C       0.0126090703     -1.8147878899     -1.3634584818
C      -1.1488115798      0.1247017687      1.1105512420
H       1.3129944874     -0.2928994328     -1.6917827009
H      -0.5927784396     -2.4067642593     -0.7025009469
H       0.2096142868     -2.1920291709     -2.3516749655
H      -1.5644121950      1.1432886959      1.4006123787
H      -0.9194630628     -0.6796279380      1.8223485431
H      -2.1940636033     -0.0201440726      0.6693145866
12
Frame=443  time=222.000fs  energy=-306.16796664Ha  molecule=COOCCCHHHHHH
C      -0.0047034092      0.3736586218     -0.0067798333
O       0.7089909980      1.4816887197     -0.0336159158
O       0.5425671471      2.3010179391      1.0130887107
C       0.5622998804     -0.6178904781     -0.9648858895
C       0.0244918095     -1.8126352324     -1.3709374841
C      -1.1484427951      0.1180598185      1.1115592089
H       1.2903689047     -0.3122098257     -1.7041685983
H      -0.5942215869     -2.3990921199     -0.7092439985
H       0.2441645394     -2.1908634846     -2.3764608022
H      -1.5734798199      1.1224077097      1.4205197037
H      -0.9028884764     -0.6775807383      1.8133967928
H      -2.1862493845     -0.0084965415      0.6784088497
12
Frame=444  time=222.500fs  energy=-306.16755384Ha  molecule=COOCCCHHHHHH
C      -0.0076033312      0.3752792280     -0.0049438742
O       0.7061712600      1.4818006826     -0.0338578735
O       0.5378586813      2.3074563252      1.0152568207
C       0.5604473570     -0.6226298567     -0.9610316046
C       0.0364025220     -1.8102313752     -1.3781656501
C      -1.1485071031      0.1118597513      1.1122889679
H       1.2668543144     -0.3292101540     -1.7140625739
H      -0.5971406860     -2.3924878249     -0.7162330984
H       0.2799194735     -2.1902255805     -2.4002252104
H      -1.5748247257      1.1010315628      1.4424967292
H      -0.8865512848     -0.6751710588      1.8038349966
H      -2.1756023135     -0.0013438417      0.6856977279
12
Frame=445  time=223.000fs  energy=-306.16721984Ha  molecule=COOCCCHHHHHH
C      -0.0101056344      0.3769127395     -0.0033408443
O       0.7030144298      1.4816204053     -0.0338600659
O       0.5331331223      2.3139904463      1.0173947156
C       0.5582937384     -0.6274491303     -0.9574242467
C       0.0482936681     -1.8077146670     -1.3852206686
C      -1.1489679273      0.1061702199      1.1127491817
H       1.2433203864     -0.3431448190     -1.7217635704
H      -0.6011426023     -2.3868040164     -0.7239658161
H       0.3162532584     -2.1897367654     -2.4214791545
H      -1.5683929855      1.0795104408      1.4663757873
H      -0.8704660465     -0.6732504696      1.7941228695
H      -2.1625266656      0.0009357126      0.6908157613
12
Frame=446  time=223.500fs  energy=-306.16704444Ha  molecule=COOCCCHHHHHH
C      -0.0122327472      0.3785488176     -0.0019746166
O       0.6995226348      1.4811609372     -0.0336134544
O       0.5283947976      2.3206105127      1.0194925753
C       0.5558386480     -0.6322945573     -0.9540244357
C       0.0601163480     -1.8052261879     -1.3921736201
C      -1.1497595123      0.1010371321      1.1129479646
H       1.2206238053     -0.3533693709     -1.7276840186
H      -0.6057842249     -2.3818333488     -0.7329116601
H       0.3525588219     -2.1890396338     -2.4389320274
H      -1.5543821935      1.0582190280      1.4919382752
H      -0.8545773867     -0.6726833928      1.7847655755
H      -2.1476045171     -0.0018121772      0.6934073322
12
Frame=447  time=224.000fs  energy=-306.16711098Ha  molecule=COOCCCHHHHHH
C      -0.0140138609      0.3801803673     -0.0008404305
O       0.6957005616      1.4804379247     -0.0331100850
O       0.5236487993      2.3273079437      1.0215410666
C       0.5530872786     -0.6371129447     -0.9507925406
C       0.0718246170     -1.8029007420     -1.3990898247
C      -1.1507812435      0.0964690850      1.1128995344
H       1.1995437246     -0.3593572837     -1.7322590894
H      -0.6106284982     -2.3773555501     -0.7434639480
H       0.3882686074     -2.1878084387     -2.4514963168
H      -1.5332094388      1.0376442033      1.5189719293
H      -0.8388024547     -0.6741963791      1.7761800861
H      -2.1316709834     -0.0095779256      0.6931105724
12
Frame=448  time=224.500fs  energy=-306.16750706Ha  molecule=COOCCCHHHHHH
C      -0.0154801626      0.3818014167      0.0000755015
O       0.6915551165      1.4794694952     -0.0323438940
O       0.5189004615      2.3340749468      1.0235321501
C       0.5500532292     -0.6418535974     -0.9477006908
C       0.0833761189     -1.8008586960     -1.4060218094
C      -1.1519004478      0.0924281753      1.1126286814
H       1.1807298197     -0.3606988977     -1.7358508847
H      -0.6152947478     -2.3731715189     -0.7559057829
H       0.4228925397     -2.1857705784     -2.4583472300
H      -1.5054587796      1.0184171912      1.5473317740
H      -0.8230984496     -0.6782138542      1.7685522432
H      -2.1157860401     -0.0222606749      0.6895704968
12
Frame=449  time=225.000fs  energy=-306.16830699Ha  molecule=COOCCCHHHHHH
C      -0.0166613676      0.3834041919      0.0007962434
O       0.6870953384      1.4782760351     -0.0313115367
O       0.5141546448      2.3409041667      1.0254598516
C       0.5467602557     -0.6464686866     -0.9447426489
C       0.0947312010     -1.7991995850     -1.4130003265
C      -1.1529667331      0.0888340922      1.1121695378
H       1.1646616155     -0.3571122298     -1.7386726577
H      -0.6194921128     -2.3691287155     -0.7704006272
H       0.4560586563     -2.1827239570     -2.4589888642
H      -1.4718189809      1.0012548820      1.5769590017
H      -0.8075150679     -0.6847795244      1.7617671851
H      -2.1010788723     -0.0397112672      0.6824938773
12
Frame=450  time=225.500fs  energy=-306.16954071Ha  molecule=COOCCCHHHHHH
C      -0.0175846737      0.3849763580      0.0013531043
O       0.6823324371      1.4768801790     -0.0300128005
O       0.5094152422      2.3477886461      1.0273206410
C       0.5432427942     -0.6509120042     -0.9419381980
C       0.1058518539     -1.7979984052     -1.4200286167
C      -1.1538335426      0.0855805919      1.1115587472
H       1.1516214236     -0.3484645267     -1.7407443713
H      -0.6230280680     -2.3651392607     -0.7870107067
H       0.4875382203     -2.1785498575     -2.4532884603
H      -1.4330292683      0.9868379115      1.6078500782
H      -0.7922087389     -0.6936029711      1.7554454910
H      -2.0885194030     -0.0617328720      0.6717303715
12
Frame=451  time=226.000fs  energy=-306.17115074Ha  molecule=COOCCCHHHHHH
C      -0.0182750639      0.3864995328      0.0017829159
O       0.6772797146      1.4753071201     -0.0284502670
O       0.5046854461      2.3547221137      1.0291131891
C       0.5395455946     -0.6551372818     -0.9393316536
C       0.1167003057     -1.7973025882     -1.4270792601
C      -1.1543813904      0.0825566225      1.1108256399
H       1.1416810724     -0.3348002581     -1.7418805119
H      -0.6257940309     -2.3611880000     -0.8057325243
H       0.5172587342     -2.1732353080     -2.4414958617
H      -1.3898428540      0.9756764422      1.6399969130
H      -0.7774098548     -0.7041937235      1.7490558336
H      -2.0787030402     -0.0880538748      0.6573552265
12
Frame=452  time=226.500fs  energy=-306.17293274Ha  molecule=COOCCCHHHHHH
C      -0.0187550540      0.3879498249      0.0021247890
O       0.6719523477      1.4735850981     -0.0266280979
O       0.4999689509      2.3616994231      1.0308373233
C       0.5357221260     -0.6590975874     -0.9369858649
C       0.1272374274     -1.7971270166     -1.4340919168
C      -1.1545361942      0.0796636868      1.1099840890
H       1.1347002711     -0.3163716144     -1.7417073333
H      -0.6277342253     -2.3573303362     -0.8265399528
H       0.5453116881     -2.1669158969     -2.4242670681
H      -1.3430365558      0.9679841411      1.6732879850
H      -0.7633494165     -0.7160213569      1.7420465935
H      -2.0717138446     -0.1182652324      0.6397550323
12
Frame=453  time=227.000fs  energy=-306.17451219Ha  molecule=COOCCCHHHHHH
C      -0.0190442621      0.3893004059      0.0024181535
O       0.6663677640      1.4717459851     -0.0245507957
O       0.4952713476      2.3687167104      1.0324923833
C       0.5318309005     -0.6627451192     -0.9349727615
C       0.1374224116     -1.7974490574     -1.4409747073
C      -1.1542718562      0.0768250445      1.1090311749
H       1.1303421109     -0.2936548313     -1.7397063192
H      -0.6288103077     -2.3536836131     -0.8494220492
H       0.5719491685     -2.1599315095     -2.4026719614
H      -1.2934972362      0.9635595816      1.7073505619
H      -0.7501918458     -0.7286537892      1.7339511977
H      -2.0671076232     -0.1517138725      0.6197186667
12
Frame=454  time=227.500fs  energy=-306.17546506Ha  molecule=COOCCCHHHHHH
C      -0.0191596198      0.3905238508      0.0027018888
O       0.6605477252      1.4698259223     -0.0222244074
O       0.4906001268      2.3757713611      1.0340767764
C       0.5279285831     -0.6660294067     -0.9333619317
C       0.1472148076     -1.7982096743     -1.4476125547
C      -1.1535901817      0.0739865823      1.1079577277
H       1.1281258943     -0.2673281237     -1.7352889110
H      -0.6289908538     -2.3504173564     -0.8743861748
H       0.5975708555     -2.1528562083     -2.3781523766
H      -1.2423193375      0.9617170995      1.7414268951
H      -0.7380413383     -0.7417998571      1.7244287059
H      -2.0640704055     -0.1874489399      0.5984306300
12
Frame=455  time=228.000fs  energy=-306.17557664Ha  molecule=COOCCCHHHHHH
C      -0.0191144848      0.3915928904      0.0030112700
O       0.6545207951      1.4678636156     -0.0196611407
O       0.4859620128      2.3828630711      1.0355912757
C       0.5240604188     -0.6688978679     -0.9322115553
C       0.1565765503     -1.7993216916     -1.4538777887
C      -1.1524950046      0.0711131465      1.1067688688
H       1.1275292700     -0.2381910324     -1.7279063472
H      -0.6282821188     -2.3477482108     -0.9014176751
H       0.6227273753     -2.1464611579     -2.3524321530
H      -1.1907575751      0.9613380307      1.7744281792
H      -0.7270154746     -0.7552109280      1.7132356280
H      -2.0616927399     -0.2243441551      0.5772556859
12
Frame=456  time=228.500fs  energy=-306.17496750Ha  molecule=COOCCCHHHHHH
C      -0.0189189937      0.3924806271      0.0033725067
O       0.6483217298      1.4658942052     -0.0168821293
O       0.4813594790      2.3899952669      1.0370425575
C       0.5202526090     -0.6713020060     -0.9315626184
C       0.1654713593     -1.8006796363     -1.4596382597
C      -1.1509810754      0.0681913063      1.1055014151
H       1.1281045346     -0.2070330203     -1.7171647482
H      -0.6267649780     -2.3459343464     -0.9304349212
H       0.6481458140     -2.1416285208     -2.3274066060
H      -1.1399572199      0.9611365804      1.8051963435
H      -0.7172914253     -0.7686094636      1.7002078056
H      -2.0592632889     -0.2614278348      0.5573279633
12
Frame=457  time=229.000fs  energy=-306.17383766Ha  molecule=COOCCCHHHHHH
C      -0.0185833949      0.3931582617      0.0037997523
O       0.6419879782      1.4639461345     -0.0139117311
O       0.4767917160      2.3971725299      1.0384378030
C       0.5165111924     -0.6731986726     -0.9314323342
C       0.1738655448     -1.8021703877     -1.4647700192
C      -1.1490336120      0.0652335078      1.1042265817
H       1.1295540049     -0.1745332087     -1.7029014384
H      -0.6246040416     -2.3452552135     -0.9612673064
H       0.6747190535     -2.1392580943     -2.3049975536
H      -1.0908859855      0.9598290734      1.8325912319
H      -0.7090780140     -0.7817705624      1.6852679845
H      -2.0563422057     -0.2979743232      0.5394368752
12
Frame=458  time=229.500fs  energy=-306.17246552Ha  molecule=COOCCCHHHHHH
C      -0.0181244663      0.3935950824      0.0043030093
O       0.6355563065      1.4620437993     -0.0107707881
O       0.4722578577      2.4043948225      1.0397764030
C       0.5128294386     -0.6745454198     -0.9318150521
C       0.1817354546     -1.8036884917     -1.4691804317
C      -1.1466396114      0.0622571013      1.1030244321
H       1.1317091926     -0.1412715883     -1.6851553961
H      -0.6220385725     -2.3459733871     -0.9936412676
H       0.7033897367     -2.1401457710     -2.2869120687
H      -1.0446319690      0.9560687219      1.8553369908
H      -0.7025868952     -0.7945665459      1.6683737177
H      -2.0523274423     -0.3331159288      0.5244692260
12
Frame=459  time=230.000fs  energy=-306.17126259Ha  molecule=COOCCCHHHHHH
C      -0.0175695568      0.3937650491      0.0048981129
O       0.6290601821      1.4602071408     -0.0074768216
O       0.4677570476      2.4116558953      1.0410511272
C       0.5091994003     -0.6752999824     -0.9326951666
C       0.1890829094     -1.8051551455     -1.4728383538
C      -1.1437878076      0.0592506103      1.1019498511
H       1.1344278102     -0.1078106942     -1.6640329813
H      -0.6193722335     -2.3483093608     -1.0271681583
H       0.7349251890     -2.1447893166     -2.2742865561
H      -1.0023404580      0.9488644308      1.8723761078
H      -0.6980014714     -0.8069371648      1.6494854167
H      -2.0464646547     -0.3658539710      0.5133693116
12
Frame=460  time=230.500fs  energy=-306.17050329Ha  molecule=COOCCCHHHHHH
C      -0.0169560382      0.3936477554      0.0056070992
O       0.6225297669      1.4584530766     -0.0040454365
O       0.4632878670      2.4189456373      1.0422527889
C       0.5056196666     -0.6754224061     -0.9340571347
C       0.1959571181     -1.8065314361     -1.4757991082
C      -1.1404678380      0.0561797932      1.1010259607
H       1.1375445372     -0.0748105735     -1.6396799112
H      -0.6169758691     -2.3524399006     -1.0613475527
H       0.7696332148     -2.1531675983     -2.2673327755
H      -0.9650205363      0.9377025167      1.8830961372
H      -0.6954441818     -0.8188755922      1.6286194478
H      -2.0380979291     -0.3952625619      0.5069196918
12
Frame=461  time=231.000fs  energy=-306.17016553Ha  molecule=COOCCCHHHHHH
C      -0.0163338830      0.3932223365      0.0064598810
O       0.6159954658      1.4568013034     -0.0004914718
O       0.4588472563      2.4262514513      1.0433732254
C       0.5020963527     -0.6748784846     -0.9358838808
C       0.2024724705     -1.8078173696     -1.4782099979
C      -1.1366765420      0.0530037831      1.1002448533
H       1.1409064468     -0.0431284185     -1.6123998272
H      -0.6152777625     -2.3585114943     -1.0956077467
H       0.8071197654     -2.1646187010     -2.2651712095
H      -0.9334224852      0.9224477365      1.8873592692
H      -0.6949227837     -0.8304230991      1.6059183378
H      -2.0268061743     -0.4206080348      0.5056227845
12
Frame=462  time=231.500fs  energy=-306.17003974Ha  molecule=COOCCCHHHHHH
C      -0.0157669423      0.3924651951      0.0074962027
O       0.6094901289      1.4552780610      0.0031712024
O       0.4544297090      2.4335590486      1.0444065091
C       0.4986394845     -0.6736472755     -0.9381515248
C       0.2088050064     -1.8090387193     -1.4802858216
C      -1.1324139636      0.0496864182      1.0995703510
H       1.1444257815     -0.0137905950     -1.5827372952
H      -0.6147003073     -2.3666430895     -1.1293944760
H       0.8462426437     -2.1779473314     -2.2660144183
H      -0.9080206344      0.9032419785      1.8854318501
H      -0.6962730456     -0.8416884921      1.5817018237
H      -2.0125167974     -0.4413934739      0.5096421819
12
Frame=463  time=232.000fs  energy=-306.16995374Ha  molecule=COOCCCHHHHHH
C      -0.0153277047      0.3913513149      0.0087622110
O       0.6030476772      1.4539146501      0.0069298877
O       0.4500275456      2.4408532556      1.0453488401
C       0.4952603603     -0.6717263212     -0.9408288630
C       0.2151560187     -1.8102303904     -1.4822549583
C      -1.1276737626      0.0462077896      1.0989454584
H       1.1480979359      0.0121983718     -1.5514059474
H      -0.6155491440     -2.3768957205     -1.1622790117
H       0.8853849560     -2.1917790359     -2.2677249308
H      -0.8890550752      0.8804191059      1.8779019028
H      -0.6991399261     -0.8528713640      1.5564707217
H      -1.9955792084     -0.4573960209      0.5187772448
12
Frame=464  time=232.500fs  energy=-306.16981414Ha  molecule=COOCCCHHHHHH
C      -0.0150894849      0.3898532537      0.0103028562
O       0.5967011900      1.4527428885      0.0107711120
O       0.4456320016      2.4481188350      1.0461978777
C       0.4919683846     -0.6691308138     -0.9438775537
C       0.2217053677     -1.8114261831     -1.4843088162
C      -1.1224386392      0.0425677020      1.0982973778
H       1.1519944194      0.0340670194     -1.5191559657
H      -0.6179173164     -2.3892254321     -1.1940195996
H       0.9228817644     -2.2048974359     -2.2683897116
H      -0.8765488146      0.8545307520      1.8657160360
H      -0.7029863045     -0.8642703037      1.5308677550
H      -1.9767948553     -0.4687076257      0.5324408696
12
Frame=465  time=233.000fs  energy=-306.16953606Ha  molecule=COOCCCHHHHHH
C      -0.0151212191      0.3879368847      0.0121527187
O       0.5904831731      1.4517932061      0.0146781465
O       0.4412349670      2.4553406825      1.0469508690
C       0.4887662833     -0.6658912857     -0.9472503574
C       0.2285827537     -1.8126573584     -1.4865809822
C      -1.1166828870      0.0387758480      1.0975383707
H       1.1562514099      0.0513939905     -1.4866789261
H      -0.6216455623     -2.4034496898     -1.2245504719
H       0.9573278358     -2.2163642628     -2.2665933670
H      -0.8703048237      0.8264446531      1.8502939260
H      -0.7071330258     -0.8762716912      1.5056158727
H      -1.9573802600     -0.4757248317      0.5496724823
12
Frame=466  time=233.500fs  energy=-306.16905376Ha  molecule=COOCCCHHHHHH
C      -0.0154837621      0.3855621783      0.0143290175
O       0.5844259426      1.4510964494      0.0186318656
O       0.4368308158      2.4625025821      1.0476013824
C       0.4856508956     -0.6620477566     -0.9508934794
C       0.2358562078     -1.8139553160     -1.4891472337
C      -1.1103806922      0.0348294574      1.0965665709
H       1.1610282453      0.0641174087     -1.4545255572
H      -0.6263382133     -2.4192395099     -1.2539252682
H       0.9877403574     -2.2255430719     -2.2614887863
H      -0.8699121772      0.7973960588      1.8335682856
H      -0.7108514308     -0.8892841963      1.4814478851
H      -1.9388263111     -0.4790489208      0.5692401251
12
Frame=467  time=234.000fs  energy=-306.16839541Ha  molecule=COOCCCHHHHHH
C      -0.0162253279      0.3826981928      0.0168343332
O       0.5785584944      1.4506831640      0.0226155285
O       0.4324167338      2.4695859678      1.0481378908
C       0.4826197571     -0.6576406300     -0.9547541223
C       0.2435323078     -1.8153577498     -1.4920358159
C      -1.1035146441      0.0306924101      1.0952724883
H       1.1664730398      0.0724414286     -1.4230874577
H      -0.6314136986     -2.4361196225     -1.2822465414
H       1.0136089293     -2.2321024351     -2.2527709137
H      -0.8747706200      0.7688685097      1.8177914034
H      -0.7135011781     -0.9035943368      1.4590366779
H      -1.9226904230     -0.4793481471      0.5898378178
12
Frame=468  time=234.500fs  energy=-306.16770627Ha  molecule=COOCCCHHHHHH
C      -0.0173775321      0.3793438635      0.0196693280
O       0.5728998912      1.4505757280      0.0266191264
O       0.4279912667      2.4765709954      1.0485463333
C       0.4796736082     -0.6527054053     -0.9587840270
C       0.2515665583     -1.8169186967     -1.4952452487
C      -1.0960760030      0.0262946543      1.0935487005
H       1.1727715379      0.0767085675     -1.3927099731
H      -0.6361532172     -2.4534596047     -1.3096044382
H       1.0348197753     -2.2359297720     -2.2405342872
H      -0.8841835845      0.7423495297      1.8051460903
H      -0.7146463213     -0.9192872817      1.4389315210
H      -1.9103813773     -0.4772362054      0.6103250498
12
Frame=469  time=235.000fs  energy=-306.16719918Ha  molecule=COOCCCHHHHHH
C      -0.0189550297      0.3755339654      0.0228416735
O       0.5674540479      1.4507801791      0.0306403600
O       0.4235532250      2.4834389578      1.0488133923
C       0.4768103646     -0.6472764302     -0.9629342450
C       0.2598766172     -1.8187099743     -1.4987581569
C      -1.0880629514      0.0215381320      1.0912877220
H       1.1802586988      0.0773400273     -1.3638583810
H      -0.6397358047     -2.4704895351     -1.3360508865
H       1.0515322112     -2.2370012715     -2.2251002619
H      -0.8974582351      0.7192830191      1.7975696948
H      -0.7140691048     -0.9363256012      1.4215292942
H      -1.9030092292     -0.4731890478      0.6298531241
12
Frame=470  time=235.500fs  energy=-306.16715095Ha  molecule=COOCCCHHHHHH
C      -0.0209581945      0.3713250049      0.0263599210
O       0.5622109414      1.4512872432      0.0346835251
O       0.4191021382      2.4901735984      1.0489272837
C       0.4740179396     -0.6413982291     -0.9671501857
C       0.2683528299     -1.8208021918     -1.5025411003
C      -1.0794807342      0.0163051540      1.0883857464
H       1.1894736192      0.0748376828     -1.3371815863
H      -0.6412875108     -2.4863845764     -1.3616164648
H       1.0641198187     -2.2353398613     -2.2069452795
H      -0.9139848550      0.7010497764      1.7967813316
H      -0.7117118326     -0.9545733425      1.4070726857
H      -1.9013437896     -0.4675209104      0.6478211108
12
Frame=471  time=236.000fs  energy=-306.16784024Ha  molecule=COOCCCHHHHHH
C      -0.0233749144      0.3667755401      0.0302189137
O       0.5571519131      1.4520792248      0.0387584419
O       0.4146393745      2.4967608874      1.0488763549
C       0.4712741813     -0.6351323732     -0.9713738322
C       0.2768663852     -1.8232347801     -1.5065358605
C      -1.0703347457      0.0104887338      1.0847718070
H       1.2010718999      0.0697537992     -1.3134140623
H      -0.6399751579     -2.5004036787     -1.3863386577
H       1.0732039329     -2.2310911118     -2.1867473495
H      -0.9334090103      0.6886529747      1.8041304199
H      -0.7076209339     -0.9737418054      1.3956197407
H      -1.9058098375     -0.4603871633      0.6638226117
12
Frame=472  time=236.500fs  energy=-306.16936523Ha  molecule=COOCCCHHHHHH
C      -0.0261791463      0.3619369869      0.0343899849
O       0.5522531249      1.4531353210      0.0428810326
O       0.4101686999      2.5031871880      1.0486468263
C       0.4685537527     -0.6285544105     -0.9755495905
C       0.2852766557     -1.8259918536     -1.5106529589
C      -1.0606285254      0.0040209226      1.0804348596
H       1.2156484630      0.0625974132     -1.2932226041
H      -0.6351310417     -2.5120229584     -1.4102729108
H       1.0797232641     -2.2246280129     -2.1654594171
H      -0.9557491670      0.6824344921      1.8203746369
H      -0.7019324181     -0.9933769573      1.3869957808
H      -1.9164261022     -0.4517890142      0.6776602712
12
Frame=473  time=237.000fs  energy=-306.17138930Ha  molecule=COOCCCHHHHHH
C      -0.0293292402      0.3568585167      0.0388256942
O       0.5474851690      1.4544350695      0.0470770645
O       0.4056953724      2.5094348673      1.0482210113
C       0.4658363305     -0.6217493699     -0.9796315145
C       0.2934377612     -1.8289935875     -1.5147728734
C      -1.0503766233     -0.0031052820      1.0754544941
H       1.2335693047      0.0537464595     -1.2770898954
H      -0.6263486127     -2.5209914149     -1.4334802849
H       1.0849682020     -2.2165892405     -2.1443112292
H      -0.9812719689      0.6818634557      1.8451924272
H      -0.6949075119     -1.0128918709      1.3807640515
H      -1.9326867053     -0.4416085836      0.6893827424
12
Frame=474  time=237.500fs  energy=-306.17308426Ha  molecule=COOCCCHHHHHH
C      -0.0327711197      0.3515992552      0.0434822167
O       0.5428128238      1.4559622550      0.0513858570
O       0.4012213958      2.5154748557      1.0475790896
C       0.4631108292     -0.6148128389     -0.9835941478
C       0.3012071697     -1.8321066725     -1.5187575478
C      -1.0396395682     -0.0108122954      1.0700452192
H       1.2548603213      0.0434261735     -1.2652303951
H      -0.6135000429     -2.5272677772     -1.4559938780
H       1.0905149204     -2.2077961459     -2.1246815416
H      -1.0099871699      0.6852762270      1.8762581867
H      -0.6869580384     -1.0315966111      1.3762982474
H      -1.9534652540     -0.4296771163      0.6992763234
12
Frame=475  time=238.000fs  energy=-306.17381162Ha  molecule=COOCCCHHHHHH
C      -0.0364410158      0.3462317528      0.0483316491
O       0.5382012453      1.4577069528      0.0558518684
O       0.3967395928      2.5212665584      1.0467061177
C       0.4603766662     -0.6078452199     -0.9874356929
C       0.3084604294     -1.8351713405     -1.5224717197
C      -1.0285612425     -0.0189844831      1.0645004221
H       1.2791765632      0.0316766945     -1.2576055809
H      -0.5966966874     -2.5309082138     -1.4777852901
H       1.0980311424     -2.1990625482     -2.1078795191
H      -1.0411226059      0.6904818300      1.9097618280
H      -0.6785830808     -1.0487552584      1.3730193100
H      -1.9771346184     -0.4158577210      0.7077070484
12
Frame=476  time=238.500fs  energy=-306.17346161Ha  molecule=COOCCCHHHHHH
C      -0.0402629595      0.3408361920      0.0533441540
O       0.5336163373      1.4596573338      0.0605124168
O       0.3922376808      2.5267726750      1.0455952458
C       0.4576510979     -0.6009368112     -0.9911689156
C       0.3151134916     -1.8380305513     -1.5258062618
C      -1.0173470615     -0.0275100184      1.0591053393
H       1.3058153487      0.0182779972     -1.2540344232
H      -0.5762622004     -2.5320310612     -1.4987668537
H       1.1089658383     -2.1910015728     -2.0949253888
H      -1.0733965568      0.6954140481      1.9419331903
H      -0.6703388002     -1.0636843232      1.3705122002
H      -2.0017683677     -0.4001197267      0.7149363121
12
Frame=477  time=239.000fs  energy=-306.17238489Ha  molecule=COOCCCHHHHHH
C      -0.0441578410      0.3354873471      0.0584688766
O       0.5290254374      1.4617999762      0.0653944728
O       0.3877045283      2.5319676459      1.0442458497
C       0.4549786395     -0.5941543517     -0.9948096062
C       0.3211535643     -1.8405510017     -1.5286997021
C      -1.0062329317     -0.0362779663      1.0541303779
H       1.3337970733      0.0027955704     -1.2542702096
H      -0.5527792069     -2.5309006308     -1.5188331974
H       1.1242070170     -2.1839027325     -2.0863636514
H      -1.1054017192      0.6980806128      1.9694674304
H      -0.6627607924     -1.0758082617      1.3685507213
H      -2.0253784317     -0.3824455184      0.7211087437
12
Frame=478  time=239.500fs  energy=-306.17101542Ha  molecule=COOCCCHHHHHH
C      -0.0480500337      0.3302477670      0.0636280113
O       0.5244065821      1.4641251431      0.0705121548
O       0.3831310175      2.5368366518      1.0426619466
C       0.4524311654     -0.5875306224     -0.9983672036
C       0.3266609544     -1.8426315141     -1.5311499359
C      -0.9954619945     -0.0452226540      1.0497898405
H       1.3619861793     -0.0152526402     -1.2580277888
H      -0.5271992366     -2.5280536386     -1.5378897099
H       1.1438876254     -2.1777164504     -2.0821835949
H      -1.1357773273      0.6973514180      1.9902918933
H      -0.6562262048     -1.0849031739      1.3670430591
H      -2.0463182142     -0.3629128895      0.7261713195
12
Frame=479  time=240.000fs  energy=-306.16953921Ha  molecule=COOCCCHHHHHH
C      -0.0518643484      0.3251861198      0.0687299110
O       0.5197479754      1.4666174376      0.0758663756
O       0.3785101032      2.5413715991      1.0408486265
C       0.4501032056     -0.5810682000     -1.0018469714
C       0.3318117428     -1.8441979626     -1.5332103299
C      -0.9852605384     -0.0543069226      1.0462461394
H       1.3891197828     -0.0361934990     -1.2648960964
H      -0.5009114579     -2.5243918005     -1.5558743676
H       1.1673731515     -2.1721398045     -2.0818689056
H      -1.1633240490      0.6928533999      2.0033773394
H      -0.6510249247     -1.0911384850      1.3659722982
H      -2.0633356723     -0.3417945152      0.7299409072
12
Frame=480  time=240.500fs  energy=-306.16803582Ha  molecule=COOCCCHHHHHH
C      -0.0555279520      0.3203841297      0.0736880819
O       0.5150458650      1.4692490876      0.0814442333
O       0.3738368471      2.5455680768      1.0388100664
C       0.4481012077     -0.5747533454     -1.0052556570
C       0.3368578181     -1.8451920171     -1.5349720572
C      -0.9758188845     -0.0635006719      1.0436156909
H       1.4138448733     -0.0600102082     -1.2742370275
H      -0.4756717888     -2.5211791715     -1.5727886874
H       1.1934029392     -2.1667527417     -2.0845412735
H      -1.1870587774      0.6845371115      2.0082927967
H      -0.6474270442     -1.0949103813      1.3653785491
H      -2.0755063352     -0.3194980630      0.7322422493
12
Frame=481  time=241.000fs  energy=-306.16666828Ha  molecule=COOCCCHHHHHH
C      -0.0589705940      0.3159289673      0.0784284796
O       0.5103018935      1.4719825318      0.0872227254
O       0.3691079395      2.5494243178      1.0365501069
C       0.4465244992     -0.5685737696     -1.0086032245
C       0.3420825314     -1.8455621809     -1.5365386555
C      -0.9672852402     -0.0727700381      1.0419770366
H       1.4349070772     -0.0862796464     -1.2852504344
H      -0.4533530758     -2.5198848382     -1.5887149646
H       1.2203665490     -2.1611499141     -2.0891592635
H      -1.2062035398      0.6724613689      2.0049422124
H      -0.6456616204     -1.0967299269      1.3653324390
H      -2.0822461743     -0.2965087943      0.7329445818
12
Frame=482  time=241.500fs  energy=-306.16570249Ha  molecule=COOCCCHHHHHH
C      -0.0621221721      0.3119043605      0.0828864326
O       0.5055181699      1.4747780412      0.0931771445
O       0.3643210923      2.5529402289      1.0340730310
C       0.4454469489     -0.5625334996     -1.0119015055
C       0.3477420902     -1.8452690507     -1.5380045563
C      -0.9597705857     -0.0820719372      1.0413836584
H       1.4514024012     -0.1142604607     -1.2971610957
H      -0.4355420796     -2.5218581972     -1.6037961276
H       1.2466115243     -2.1550174478     -2.0947022836
H      -1.2201441630      0.6567590273      1.9934642441
H      -0.6458708646     -1.0971938651      1.3658966284
H      -2.0833272976     -0.2733692567      0.7319175075
12
Frame=483  time=242.000fs  energy=-306.16535155Ha  molecule=COOCCCHHHHHH
C      -0.0649113137      0.3083838154      0.0870020081
O       0.5006944118      1.4775988964      0.0992867044
O       0.3594747799      2.5561160254      1.0313835417
C       0.4449076460     -0.5566581232     -1.0151615525
C       0.3540110699     -1.8443054730     -1.5394450515
C      -0.9533553391     -0.0913547855      1.0418718153
H       1.4628963406     -0.1430347915     -1.3093499692
H      -0.4231124701     -2.5279332909     -1.6181765721
H       1.2706834501     -2.1481295094     -2.1002860065
H      -1.2284006488      0.6376931552      1.9742469223
H      -0.6480814410     -1.0969714056      1.3670841930
H      -2.0788500700     -0.2506744716      0.7289672565
12
Frame=484  time=242.500fs  energy=-306.16560812Ha  molecule=COOCCCHHHHHH
C      -0.0672666507      0.3054253244      0.0907191589
O       0.4958290744      1.4804113535      0.1055341042
O       0.3545681995      2.5589514949      1.0284866506
C       0.4449095615     -0.5509911390     -1.0183905330
C       0.3609515787     -1.8427143109     -1.5409153907
C      -0.9480923291     -0.1005656526      1.0434560072
H       1.4693749183     -0.1716354186     -1.3213779497
H      -0.4159753348     -2.5381428437     -1.6319260615
H       1.2914753008     -2.1403058678     -2.1052177508
H      -1.2306461953      0.6157382908      1.9480077071
H      -0.6521933750     -1.0967783004      1.3688347182
H      -2.0691683524     -0.2290516526      0.7238087018
12
Frame=485  time=243.000fs  energy=-306.16618917Ha  molecule=COOCCCHHHHHH
C      -0.0691203058      0.3030684227      0.0939895378
O       0.4909227465      1.4831820168      0.1119012203
O       0.3496013158      2.5614470554      1.0253882223
C       0.4454211922     -0.5455868894     -1.0215887939
C       0.3685166935     -1.8405876634     -1.5424533181
C      -0.9440063227     -0.1096682131      1.0461069038
H       1.4711356238     -0.1991311886     -1.3329588638
H      -0.4131319031     -2.5516807155     -1.6449864661
H       1.3082885528     -2.1313942843     -2.1090212248
H      -1.2267977621      0.5916990996      1.9159576099
H      -0.6579791168     -1.0973335919      1.3710294830
H      -2.0547784086     -0.2091114265      0.7161030942
12
Frame=486  time=243.500fs  energy=-306.16664638Ha  molecule=COOCCCHHHHHH
C      -0.0704128756      0.3013327490      0.0967783119
O       0.4859824895      1.4858781645      0.1183642674
O       0.3445749456      2.5636069225      1.0220965016
C       0.4463805774     -0.5405028779     -1.0247467138
C       0.3765842231     -1.8380466259     -1.5440824348
C      -0.9410893231     -0.1186733353      1.0497156119
H       1.4686965199     -0.2246470007     -1.3439182185
H      -0.4130216183     -2.5671474896     -1.6571718568
H       1.3208211015     -2.1213073689     -2.1114485110
H      -1.2171555084      0.5669014040      1.8800335344
H      -0.6650927069     -1.0993185803      1.3735444070
H      -2.0362363534     -0.1913840059      0.7055552275
12
Frame=487  time=244.000fs  energy=-306.16659987Ha  molecule=COOCCCHHHHHH
C      -0.0711018189      0.3002150273      0.0990685886
O       0.4810242830      1.4884746870      0.1248935175
O       0.3394903280      2.5654416154      1.0186239705
C       0.4477058874     -0.5357938812     -1.0278413586
C       0.3849996924     -1.8352160243     -1.5458164848
C      -0.9392905709     -0.1276539766      1.0540808469
H       1.4627245042     -0.2473231751     -1.3541489753
H      -0.4139733601     -2.5829413040     -1.6682128030
H       1.3291001893     -2.1100952736     -2.1124790669
H      -1.2024446253      0.5431807858      1.8428009878
H      -0.6731329775     -1.1033082247      1.3762966402
H      -2.0141526402     -0.1762611719      0.6920495396
12
Frame=488  time=244.500fs  energy=-306.16583055Ha  molecule=COOCCCHHHHHH
C      -0.0711663073      0.2996903895      0.1008578026
O       0.4760694422      1.4909592543      0.1314586322
O       0.3343488021      2.5669671841      1.0149870713
C       0.4493143080     -0.5315116292     -1.0308395847
C       0.3936046027     -1.8322088896     -1.5476625930
C      -0.9384984293     -0.1367399556      1.0589161756
H       1.4539715109     -0.2662879061     -1.3635978486
H      -0.4144819761     -2.5975482309     -1.6778118543
H       1.3333749449     -2.0979785658     -2.1122836455
H      -1.1838406679      0.5227841841      1.8072926838
H      -0.6817444499     -1.1097448870      1.3792729611
H      -1.9892759261     -0.1639650513      0.6757409069
12
Frame=489  time=245.000fs  energy=-306.16453662Ha  molecule=COOCCCHHHHHH
C      -0.0706043533      0.2997163801      0.1021481005
O       0.4711383619      1.4933289542      0.1380327241
O       0.3291529449      2.5682054135      1.0112045934
C       0.4511396619     -0.5277019561     -1.0337075032
C       0.4022507109     -1.8291195059     -1.5496218587
C      -0.9385306416     -0.1461232290      1.0638600934
H       1.4431829444     -0.2807309535     -1.3722753022
H      -0.4132894564     -2.6096733311     -1.6856940189
H       1.3340160747     -2.0852905082     -2.1111496842
H      -1.1629986507      0.5084718196      1.7771127853
H      -0.6906351464     -1.1189799280      1.3825648369
H      -1.9626223364     -0.1545129397      0.6569766587
12
Frame=490  time=245.500fs  energy=-306.16346884Ha  molecule=COOCCCHHHHHH
C      -0.0694276392      0.3002352685      0.1029435308
O       0.4662470822      1.4955788522      0.1445896950
O       0.3239067326      2.5691852975      1.0072973748
C       0.4531369550     -0.5243950790     -1.0364151889
C       0.4108079625     -1.8260177609     -1.5516858946
C      -0.9391920694     -0.1560104363      1.0685706898
H       1.4309666361     -0.2900039107     -1.3802150595
H      -0.4094242289     -2.6183078422     -1.6916496684
H       1.3314915238     -2.0723703510     -2.1094284443
H      -1.1414192997      0.5029163799      1.7556882559
H      -0.6995998407     -1.1311142691      1.3863267060
H      -1.9353616226     -0.1478331927      0.6360037883
12
Frame=491  time=246.000fs  energy=-306.16339994Ha  molecule=COOCCCHHHHHH
C      -0.0676548892      0.3011860621      0.1032600133
O       0.4614121845      1.4976971764      0.1510958763
O       0.3186136662      2.5699409377      1.0032886941
C       0.4552760513     -0.5216089357     -1.0389407596
C       0.4191611328     -1.8229441337     -1.5538300748
C      -0.9403297286     -0.1665548427      1.0728073323
H       1.4177755764     -0.2936456629     -1.3874516649
H      -0.4022358501     -2.6227580781     -1.6955440779
H       1.3264399631     -2.0595069729     -2.1075517609
H      -1.1200509149      0.5079178383      1.7454177560
H      -0.7085434139     -1.1459530673      1.3906654131
H      -1.9085692013     -0.1438916917      0.6129369241
12
Frame=492  time=246.500fs  energy=-306.16453292Ha  molecule=COOCCCHHHHHH
C      -0.0653094787      0.3025256621      0.1031384190
O       0.4566584196      1.4996724122      0.1575069864
O       0.3132749546      2.5705064865      0.9992042918
C       0.4575292044     -0.5193617331     -1.0412738313
C       0.4272029939     -1.8199115123     -1.5560126040
C      -0.9418446648     -0.1778045075      1.0764694829
H       1.4040546787     -0.2913507792     -1.3940690759
H      -0.3914090664     -2.6226512689     -1.6973012013
H       1.3197474905     -2.0469461363     -2.1060596252
H      -1.0993515600      0.5237341910      1.7469452349
H      -0.7174426526     -1.1631484869      1.3956405184
H      -1.8831607597     -0.1426292224      0.5880039849
12
Frame=493  time=247.000fs  energy=-306.16638382Ha  molecule=COOCCCHHHHHH
C      -0.0624163922      0.3042322896      0.1026433403
O       0.4520190855      1.5014969788      0.1637719948
O       0.3078882026      2.5709126544      0.9950720904
C       0.4598569081     -0.5176773929     -1.0434142236
C       0.4348358191     -1.8169117468     -1.5581788297
C      -0.9436896664     -0.1896859000      1.0795982949
H       1.3904217947     -0.2828374738     -1.4002186524
H      -0.3769653493     -2.6179390432     -1.6968947379
H       1.3125087793     -2.0349199622     -2.1055876920
H      -1.0793619263      0.5489267151      1.7590594631
H      -0.7262985484     -1.1822603841      1.4012824764
H      -1.8599057390     -0.1439411291      0.5615997354
12
Frame=494  time=247.500fs  energy=-306.16812455Ha  molecule=COOCCCHHHHHH
C      -0.0589967325      0.3062739725      0.1018415481
O       0.4475315657      1.5031673320      0.1698389484
O       0.3024470332      2.5711878632      0.9909228069
C       0.4622018716     -0.5165821174     -1.0453695738
C       0.4419832285     -1.8139171259     -1.5602662711
C      -0.9458490787     -0.2020129209      1.0823488583
H       1.3777206775     -0.2677180056     -1.4060777214
H      -0.3592570495     -2.6089083996     -1.6943479855
H       1.3058805535     -2.0236673283     -2.1068122737
H      -1.0598797324      0.5807209489      1.7793401340
H      -0.7351158171     -1.2026872346      1.4075150278
H      -1.8394841994     -0.1477658401      0.5341374453
12
Frame=495  time=248.000fs  energy=-306.16909113Ha  molecule=COOCCCHHHHHH
C      -0.0550654184      0.3085867992      0.1007841207
O       0.4432328603      1.5046850809      0.1756602310
O       0.2969427043      2.5713606574      0.9867895370
C       0.4645019843     -0.5160978956     -1.0471540956
C       0.4486045182     -1.8108720568     -1.5622087544
C      -0.9483199094     -0.2144842362      1.0849681613
H       1.3668465752     -0.2455638672     -1.4118163105
H      -0.3389498532     -2.5962018038     -1.6897423649
H       1.3009321551     -2.0134405944     -2.1103877837
H      -1.0407260211      0.6151471012      1.8044718059
H      -0.7439117686     -1.2236978424      1.4141322570
H      -1.8224379355     -0.1541067256      0.5061037645
12
Frame=496  time=248.500fs  energy=-306.16919019Ha  molecule=COOCCCHHHHHH
C      -0.0506407043      0.3111115002      0.0995231942
O       0.4391572247      1.5060536733      0.1811904295
O       0.2913664368      2.5714585659      0.9827057557
C       0.4667236859     -0.5162379117     -1.0487881338
C       0.4547049334     -1.8076840400     -1.5639402472
C      -0.9510980058     -0.2267837340      1.0876904255
H       1.3584050377     -0.2161285810     -1.4175999553
H      -0.3170063908     -2.5808318957     -1.6832362625
H       1.2985209002     -2.0045073158     -2.1169002097
H      -1.0219947564      0.6482348052      1.8311419136
H      -0.7527689736     -1.2446896113      1.4208761077
H      -1.8089895789     -0.1630597705      0.4782119376
12
Frame=497  time=249.000fs  energy=-306.16867125Ha  molecule=COOCCCHHHHHH
C      -0.0457603976      0.3138121410      0.0981248477
O       0.4353330203      1.5072733350      0.1863849366
O       0.2857106321      2.5715088072      0.9787045052
C       0.4688939342     -0.5169986595     -1.0503057369
C       0.4603461693     -1.8042266522     -1.5654032998
C      -0.9541642068     -0.2386227518      1.0906886105
H       1.3523904754     -0.1795369544     -1.4235101417
H      -0.2947031418     -2.5641868726     -1.6750621976
H       1.2991671391     -1.9970956161     -2.1267783435
H      -1.0039629486      0.6763670980      1.8565700726
H      -0.7619017516     -1.2650645646      1.4275476492
H      -1.7990498714     -0.1748603818      0.4512403157
12
Frame=498  time=249.500fs  energy=-306.16798187Ha  molecule=COOCCCHHHHHH
C      -0.0404899541      0.3166544013      0.0966451703
O       0.4317813004      1.5083435571      0.1912051225
O       0.2799690582      2.5715397329      0.9748169521
C       0.4711047480     -0.5183533110     -1.0517603708
C       0.4656511976     -1.8003478919     -1.5665595745
C      -0.9574717654     -0.2497902097      1.0940626744
H       1.3481380081     -0.1363442316     -1.4294586308
H      -0.2736137717     -2.5479846406     -1.6654866362
H       1.3029659573     -1.9913034968     -2.1401776389
H      -0.9870921991      0.6965971055      1.8789279239
H      -0.7715700601     -1.2840835613      1.4341321909
H      -1.7923280202     -0.1896089495      0.4258048483
12
Frame=499  time=250.000fs  energy=-306.16749794Ha  molecule=COOCCCHHHHHH
C      -0.0349111900      0.3195904292      0.0951153163
O       0.4285179465      1.5092647614      0.1956214771
O       0.2741350961      2.5715779735      0.9710708115
C       0.4734867387     -0.5202441442     -1.0532121607
C       0.4707938583     -1.7958870529     -1.5673992638
C      -0.9609717261     -0.2601868782      1.0978341542
H       1.3445317000     -0.0874928072     -1.4351949263
H      -0.2554576445     -2.5340960467     -1.6547486505
H       1.3095680231     -1.9870570273     -2.1569189233
H      -0.9719420607      0.7071640229      1.8973556945
H      -0.7819266348     -1.3010905220      1.4407524849
H      -1.7883105119     -0.2071059510      0.4024521628
12
Frame=500  time=250.500fs  energy=-306.16741154Ha  molecule=COOCCCHHHHHH
C      -0.0290953536      0.3225732619      0.0935535384
O       0.4255513492      1.5100309833      0.1996137277
O       0.2682008249      2.5716439830      0.9674885522
C       0.4761760041     -0.5225756852     -1.0547127269
C       0.4759712623     -1.7907075769     -1.5679490035
C      -0.9646320601     -0.2697861235      1.1019708281
H       1.3402702263     -0.0342743825     -1.4403827858
H      -0.2417789953     -2.5242105756     -1.6430032688
H       1.3182194968     -1.9841310768     -2.1764969305
H      -0.9590055563      0.7072828934      1.9114980578
H      -0.7929983861     -1.3156240064      1.4475209507
H      -1.7863887549     -0.2270245376      0.3818028241
12
Frame=501  time=251.000fs  energy=-306.16780347Ha  molecule=COOCCCHHHHHH
C      -0.0231010192      0.3255630671      0.0919842053
O       0.4228804965      1.5106282696      0.2031702026
O       0.2621588178      2.5717524768      0.9640860492
C       0.4792927957     -0.5252094785     -1.0562992271
C       0.4813638443     -1.7847393908     -1.5682740000
C      -0.9684240174     -0.2785840815      1.1064313621
H       1.3341071391      0.0216722412     -1.4447200200
H      -0.2335496593     -2.5194267920     -1.6302833528
H       1.3278659352     -1.9821826032     -2.1981462231
H      -0.9486861524      0.6966033003      1.9211032589
H      -0.8046967262     -1.3273670307      1.4544546133
H      -1.7860688893     -0.2490053550      0.3644120483
12
Frame=502  time=251.500fs  energy=-306.16858292Ha  molecule=COOCCCHHHHHH
C      -0.0169830801      0.3285147733      0.0904444758
O       0.4204968004      1.5110437633      0.2062883423
O       0.2560046514      2.5719171960      0.9608734610
C       0.4829284844     -0.5279631333     -1.0579891560
C       0.4870987225     -1.7780084655     -1.5684711648
C      -0.9723148893     -0.2865881196      1.1111730377
H       1.3250260255      0.0783548893     -1.4480778693
H      -0.2308712512     -2.5199404129     -1.6165018703
H       1.3373038419     -1.9807511629     -2.2209308418
H      -0.9412893410      0.6751897346      1.9260643544
H      -0.8168135525     -1.3362614137      1.4615052172
H      -1.7870647129     -0.2726967291      0.3505922258
12
Frame=503  time=252.000fs  energy=-306.16944146Ha  molecule=COOCCCHHHHHH
C      -0.0107991004      0.3313617499      0.0889801178
O       0.4183860790      1.5112744091      0.2089756516
O       0.2497381844      2.5721553258      0.9578573525
C       0.4871365284     -0.5306196731     -1.0597750799
C       0.4932284347     -1.7706363061     -1.5686514341
C      -0.9762708358     -0.2938273572      1.1161337259
H       1.3123797706      0.1335289129     -1.4506112939
H      -0.2329163207     -2.5249922289     -1.6015116174
H       1.3453498418     -1.9792787762     -2.2438566919
H      -0.9370061679      0.6437474950      1.9266008805
H      -0.8290471541     -1.3426409195      1.4686214391
H      -1.7892368816     -0.2977637023      0.3403938195
12
Frame=504  time=252.500fs  energy=-306.17000775Ha  molecule=COOCCCHHHHHH
C      -0.0046136423      0.3340113109      0.0876391531
O       0.4165316489      1.5113291076      0.2112483248
O       0.2433615450      2.5724879652      0.9550437267
C       0.4919286632     -0.5329511555     -1.0616251872
C       0.4997324573     -1.7628161547     -1.5689199508
C      -0.9802635356     -0.3003728463      1.1212149554
H       1.2960066499      0.1850252877     -1.4527616129
H      -0.2381541000     -2.5331192159     -1.5851957578
H       1.3509681776     -1.9771926831     -2.2659836990
H      -0.9359168778      0.6037497124      1.9233441701
H      -0.8410417102     -1.3471509080      1.4757438362
H      -1.7924266403     -0.3238393280      0.3337520289
12
Frame=505  time=253.000fs  energy=-306.17008149Ha  molecule=COOCCCHHHHHH
C       0.0015069570      0.3363611662      0.0864665049
O       0.4149230879      1.5112223932      0.2131205312
O       0.2368732266      2.5729360719      0.9524426998
C       0.4972829442     -0.5347415045     -1.0634900615
C       0.5065406004     -1.7547803037     -1.5693657406
C      -0.9842786718     -0.3063452318      1.1262861951
H       1.2761489625      0.2310778451     -1.4550849562
H      -0.2447818415     -2.5425930960     -1.5675250199
H       1.3533571299     -1.9739792399     -2.2865091093
H      -0.9380426875      0.5570855945      1.9171994033
H      -0.8524192611     -1.3503037759      1.4827463941
H      -1.7963269141     -0.3504897092      0.3307184440
12
Frame=506  time=253.500fs  energy=-306.16964193Ha  molecule=COOCCCHHHHHH
C       0.0075095195      0.3383104591      0.0854947154
O       0.4135667891      1.5109657884      0.2145878778
O       0.2302645505      2.5735184415      0.9500714071
C       0.5031590171     -0.5357878923     -1.0653078448
C       0.5135585126     -1.7467698909     -1.5700574918
C      -0.9883148430     -0.3119235445      1.1311894855
H       1.2531947106      0.2704943466     -1.4579754261
H      -0.2511502431     -2.5518074935     -1.5485432033
H       1.3520485868     -1.9692431013     -2.3048645623
H      -0.9433839100      0.5060455466      1.9095509990
H      -0.8627728150     -1.3523078454      1.4893844247
H      -1.8006550935     -0.3772958937      0.3313965368
12
Frame=507  time=254.000fs  energy=-306.16887157Ha  molecule=COOCCCHHHHHH
C       0.0133552899      0.3397555424      0.0847368726
O       0.4124830096      1.5105731826      0.2156303250
O       0.2235264222      2.5742533827      0.9479462373
C       0.5095103128     -0.5359052337     -1.0670133459
C       0.5206825354     -1.7390112619     -1.5710403715
C      -0.9923649059     -0.3173206161      1.1357575567
H       1.2275079558      0.3027047893     -1.4615107601
H      -0.2559851733     -2.5594687636     -1.5283255602
H       1.3469629953     -1.9627508438     -2.3207860870
H      -0.9519774504      0.4530646649      1.9022920022
H      -0.8717047605     -1.3531588342      1.4953818863
H      -1.8053408440     -0.4039024398      0.3357149405
12
Frame=508  time=254.500fs  energy=-306.16791605Ha  molecule=COOCCCHHHHHH
C       0.0190123505      0.3406070129      0.0842010064
O       0.4116912299      1.5100679864      0.2162302363
O       0.2166564930      2.5751542041      0.9460731534
C       0.5162872330     -0.5349420964     -1.0685478928
C       0.5278092961     -1.7317015954     -1.5723359587
C      -0.9964184953     -0.3227512668      1.1398162961
H       1.1994458247      0.3276512842     -1.4655455286
H      -0.2583588271     -2.5645985378     -1.5069785477
H       1.3383227383     -1.9544333103     -2.3342806350
H      -0.9638299345      0.4004462755      1.8974308741
H      -0.8788934295     -1.3528700188      1.5005553580
H      -1.8103987616     -0.4300015018      0.3435389868
12
Frame=509  time=255.000fs  energy=-306.16693096Ha  molecule=COOCCCHHHHHH
C       0.0244525999      0.3408032964      0.0839072506
O       0.4112004516      1.5094762440      0.2163825494
O       0.2096574221      2.5762237767      0.9444484994
C       0.5234342781     -0.5327844702     -1.0698608780
C       0.5348436432     -1.7249994552     -1.5739440642
C      -1.0004842982     -0.3284499031      1.1431628489
H       1.1694470534      0.3456058679     -1.4698998421
H      -0.2575861209     -2.5664731713     -1.4846487315
H       1.3265083028     -1.9443582267     -2.3455415197
H      -0.9786660152      0.3509601595      1.8971203838
H      -0.8840424558     -1.3517839254      1.5047873324
H      -1.8158563583     -0.4553493256      0.3547038433
12
Frame=510  time=255.500fs  energy=-306.16629890Ha  molecule=COOCCCHHHHHH
C       0.0296492385      0.3403038094      0.0838806672
O       0.4110075466      1.5088192175      0.2160962793
O       0.2025342145      2.5774563000      0.9430627708
C       0.5308868676     -0.5293575219     -1.0709067501
C       0.5416999630     -1.7190156550     -1.5758418599
C      -1.0045891611     -0.3346261300      1.1456014114
H       1.1381018996      0.3570386444     -1.4745075740
H      -0.2531712752     -2.5645976272     -1.4615133196
H       1.3120018432     -1.9326946785     -2.3549123922
H      -0.9959738983      0.3073150967      1.9033400340
H      -0.8868456802     -1.3504196930      1.5080249666
H      -1.8217005302     -0.4797669300      0.3689651402
12
Frame=511  time=256.000fs  energy=-306.16636676Ha  molecule=COOCCCHHHHHH
C       0.0345691043      0.3390813770      0.0841465904
O       0.4111005371      1.5081090789      0.2153889466
O       0.1952934778      2.5788409211      0.9419028999
C       0.5385697400     -0.5246345353     -1.0716436819
C       0.5482984610     -1.7137999945     -1.5779767249
C      -1.0087490826     -0.3413949647      1.1470020583
H       1.1061813028      0.3625715783     -1.4795045248
H      -0.2448137413     -2.5587212514     -1.4377607430
H       1.2954159367     -1.9196946285     -2.3629163259
H      -1.0152755132      0.2712868020      1.9173385469
H      -0.8870041511     -1.3493693630      1.5102778178
H      -1.8278736062     -0.5031100920      0.3859620918
12
Frame=512  time=256.500fs  energy=-306.16721417Ha  molecule=COOCCCHHHHHH
C       0.0391725741      0.3371228117      0.0847349174
O       0.4114638223      1.5073500583      0.2142798339
O       0.1879432181      2.5803644471      0.9409534870
C       0.5463958389     -0.5186496531     -1.0720346421
C       0.5545622448     -1.7093296014     -1.5802598685
C      -1.0129456320     -0.3487743445      1.1473179779
H       1.0746170093      0.3629833442     -1.4852515335
H      -0.2324287546     -2.5488659430     -1.4135718038
H       1.2775398544     -1.9056972988     -2.3703093588
H      -1.0363209116      0.2436159253      1.9395067709
H      -0.8842515918     -1.3492653247      1.5115380082
H      -1.8343708226     -0.5252571640      0.4052499900
12
Frame=513  time=257.000fs  energy=-306.16857608Ha  molecule=COOCCCHHHHHH
C       0.0434205258      0.3344318909      0.0856786666
O       0.4120822554      1.5065463697      0.2127879978
O       0.1804932763      2.5820135238      0.9401969560
C       0.5542661074     -0.5115087578     -1.0720479199
C       0.5604200265     -1.7055067743     -1.5825687333
C      -1.0171221450     -0.3566922143      1.1466100305
H       1.0444690869      0.3592498726     -1.4923306044
H      -0.2161562112     -2.5353481861     -1.3891071555
H       1.2593306271     -1.8911291389     -2.3780909108
H      -1.0591239164      0.2239799681      1.9691604645
H      -0.8783892440     -1.3507539434      1.5117295083
H      -1.8413492419     -0.5461333543      0.4263506710
12
Frame=514  time=257.500fs  energy=-306.16991389Ha  molecule=COOCCCHHHHHH
C       0.0472788348      0.3310338880      0.0870111195
O       0.4129435640      1.5057107779      0.2109327273
O       0.1729556054      2.5837747190      0.9396133812
C       0.5620697270     -0.5033981515     -1.0716532926
C       0.5658168471     -1.7021663453     -1.5847609593
C      -1.0211973102     -0.3649959232      1.1450738164
H       1.0169115870      0.3526393873     -1.5015607481
H      -0.1963511900     -2.5187889090     -1.3645060584
H       1.2418007927     -1.8764877001     -2.3874160599
H      -1.0838319959      0.2110040392      2.0042901115
H      -0.8693201614     -1.3544546238      1.5106990425
H      -1.8491716160     -0.5657518932      0.4487663709
12
Frame=515  time=258.000fs  energy=-306.17079535Ha  molecule=COOCCCHHHHHH
C       0.0507253103      0.3269797867      0.0887570812
O       0.4140386083      1.5048710032      0.2087363473
O       0.1653432855      2.5856323552      0.9391811509
C       0.5696840512     -0.4945876923     -1.0708101994
C       0.5707319405     -1.6990927530     -1.5867009584
C      -1.0250978037     -0.3734907672      1.1430157367
H       0.9932267048      0.3448336816     -1.5140516269
H      -0.1735556210     -2.5001012154     -1.3398940928
H       1.2258176003     -1.8623143607     -2.3994038284
H      -1.1104910372      0.2025721118      2.0418483792
H      -0.8570611269     -1.3608331238      1.5082957752
H      -1.8583456899     -0.5842301476      0.4719923733
12
Frame=516  time=258.500fs  energy=-306.17126907Ha  molecule=COOCCCHHHHHH
C       0.0537559802      0.3223420045      0.0909230471
O       0.4153576160      1.5040678307      0.2062297956
O       0.1576686303      2.5875678567      0.9388790041
C       0.5769835083     -0.4854097279     -1.0694610526
C       0.5751951920     -1.6960462825     -1.5882905490
C      -1.0287863189     -0.3820066820      1.1407497947
H       0.9747194159      0.3378558566     -1.5312103782
H      -0.1484664710     -2.4804188641     -1.3153639498
H       1.2119000361     -1.8491428974     -2.4148943149
H      -1.1389098530      0.1965463305      2.0788429154
H      -0.8417066296     -1.3700617335      1.5044841296
H      -1.8693924870     -0.6017517248      0.4955675329
12
Frame=517  time=259.000fs  energy=-306.17170737Ha  molecule=COOCCCHHHHHH
C       0.0563785301      0.3172025450      0.0935035359
O       0.4168829700      1.5033378591      0.2034544553
O       0.1499433092      2.5895636568      0.9386871309
C       0.5838711405     -0.4761818018     -1.0675574434
C       0.5792895223     -1.6927978158     -1.5894898842
C      -1.0322578549     -0.3904323855      1.1385236576
H       0.9624204321      0.3334797040     -1.5544405176
H      -0.1219020753     -2.4609371673     -1.2909002689
H       1.2000936488     -1.8373878468     -2.4342056326
H      -1.1687007903      0.1912580912      2.1130343981
H      -0.8233874189     -1.3819929511      1.4993068468
H      -1.8827163394     -0.6185111148      0.5191146075
12
Frame=518  time=259.500fs  energy=-306.17231730Ha  molecule=COOCCCHHHHHH
C       0.0586034091      0.3116450938      0.0964897445
O       0.4185838565      1.5026905838      0.2004558749
O       0.1421804244      2.5916066867      0.9385858234
C       0.5903168709     -0.4670983154     -1.0651165767
C       0.5831375076     -1.6891625336     -1.5903233708
C      -1.0355229604     -0.3987087039      1.1365202220
H       0.9566702055      0.3323877973     -1.5844152150
H      -0.0947679338     -2.4427767598     -1.2662913508
H       1.1899621821     -1.8272106134     -2.4569594107
H      -1.1993591233      0.1855222519      2.1428275263
H      -0.8022602878     -1.3962213179      1.4927609471
H      -1.8984838087     -0.6346606309      0.5423260992
12
Frame=519  time=260.000fs  energy=-306.17291113Ha  molecule=COOCCCHHHHHH
C       0.0604440357      0.3057568460      0.0998682016
O       0.4204177652      1.5020995662      0.1972748740
O       0.1343950607      2.5936866093      0.9385539655
C       0.5963640149     -0.4581936840     -1.0622582446
C       0.5868810687     -1.6850111251     -1.5908695121
C      -1.0385984122     -0.4068132481      1.1348821593
H       0.9569471080      0.3339624606     -1.6204352373
H      -0.0680188161     -2.4269802093     -1.2411165940
H       1.1807063968     -1.8184760677     -2.4820887415
H      -1.2302952839      0.1784851831      2.1669128092
H      -0.7785039316     -1.4121632286      1.4847342038
H      -1.9165621282     -0.6502580556      0.5649476014
12
Frame=520  time=260.500fs  energy=-306.17322144Ha  molecule=COOCCCHHHHHH
C       0.0619222013      0.2996341302      0.1036139768
O       0.4223373761      1.5015142778      0.1939443962
O       0.1266027677      2.5957926875      0.9385691520
C       0.6020972818     -0.4494058179     -1.0591806998
C       0.5906568955     -1.6802624291     -1.5912357806
C      -1.0415047218     -0.4147550653      1.1337194527
H       0.9621273490      0.3368957273     -1.6605566639
H      -0.0425413921     -2.4144985456     -1.2148608841
H       1.1713854964     -1.8108445795     -2.5080989040
H      -1.2608631550      0.1694921183      2.1841569563
H      -0.7523490454     -1.4290673609      1.4750610658
H      -1.9365647089     -0.6652552210      0.5867865422
12
Frame=521  time=261.000fs  energy=-306.17319011Ha  molecule=COOCCCHHHHHH
C       0.0630682753      0.2933818786      0.1076914368
O       0.4242971896      1.5008793400      0.1904924921
O       0.1188174045      2.5979130325      0.9386097043
C       0.6076070989     -0.4406525840     -1.0561017563
C       0.5945702593     -1.6748784869     -1.5915277522
C      -1.0442633911     -0.4225765369      1.1330989315
H       0.9709206036      0.3398511586     -1.7023478662
H      -0.0189451192     -2.4060441482     -1.1871200010
H       1.1611371814     -1.8039378777     -2.5334506730
H      -1.2904339842      0.1581059200      2.1938313912
H      -0.7241448938     -1.4460305795      1.4636020186
H      -1.9579444140     -0.6795562870      0.6077166842
12
Frame=522  time=261.500fs  energy=-306.17290100Ha  molecule=COOCCCHHHHHH
C       0.0639146964      0.2871080765      0.1120655954
O       0.4262570792      1.5001459343      0.1869446614
O       0.1110495459      2.6000356601      0.9386573757
C       0.6129781224     -0.4318643157     -1.0532237555
C       0.5986776736     -1.6688611264     -1.5918249647
C      -1.0468957868     -0.4303460544      1.1330449695
H       0.9821230857      0.3417143364     -1.7434921099
H       0.0025993518     -2.4019426705     -1.1577831067
H       1.1492855896     -1.7974885893     -2.5568166378
H      -1.3184439655      0.1441423886      2.1957167754
H      -0.6943910232     -1.4620847838      1.4502736344
H      -1.9800602968     -0.6930875388      0.6276561313
12
Frame=523  time=262.000fs  energy=-306.17244921Ha  molecule=COOCCCHHHHHH
C       0.0644887077      0.2809181777      0.1167120129
O       0.4281831321      1.4992741372      0.1833234087
O       0.1033060020      2.6021496101      0.9386991350
C       0.6182924641     -0.4229933568     -1.0507303016
C       0.6029827513     -1.6622444806     -1.5921662481
C      -1.0494237462     -0.4381432990      1.1335506230
H       0.9946671111      0.3416560566     -1.7819565307
H       0.0223870683     -2.4020864319     -1.1271206595
H       1.1353523919     -1.7914226690     -2.5771571415
H      -1.3443804252      0.1276375352      2.1899889788
H      -0.6636999780     -1.4763061289      1.4350553487
H      -2.0022172755     -0.7058219468      0.6465217316
12
Frame=524  time=262.500fs  energy=-306.17191170Ha  molecule=COOCCCHHHHHH
C       0.0648091244      0.2749111143      0.1216171589
O       0.4300465026      1.4982317787      0.1796481282
O       0.0955904284      2.6042453974      0.9387272945
C       0.6236309550     -0.4140193413     -1.0487896484
C       0.6074411102     -1.6550902862     -1.5925417400
C      -1.0518696583     -0.4460460043      1.1345852570
H       1.0076150263      0.3391762350     -1.8159757099
H       0.0411005129     -2.4059474134     -1.0957849672
H       1.1190470605     -1.7858439985     -2.5937229286
H      -1.3677523083      0.1088008044      2.1770839960
H      -0.6327199890     -1.4879185250      1.4180008743
H      -2.0237043758     -0.7177675269      0.6641893374
12
Frame=525  time=263.000fs  energy=-306.17135969Ha  molecule=COOCCCHHHHHH
C       0.0648889867      0.2691779077      0.1267705173
O       0.4318211462      1.4969937177      0.1759374858
O       0.0879047583      2.6063149395      0.9387380375
C       0.6290679073     -0.4049517784     -1.0475493672
C       0.6119721317     -1.6474848546     -1.5928929089
C      -1.0542551304     -0.4541220894      1.1360944136
H       1.0201788350      0.3341152212     -1.8440817559
H       0.0596550886     -2.4126494323     -1.0647303118
H       1.1002715658     -1.7809433376     -2.6060616150
H      -1.3881027905      0.0879943766      2.1576627075
H      -0.6020547664     -1.4963898448      1.3992545829
H      -2.0438441394     -0.7289504629      0.6804872930
12
Frame=526  time=263.500fs  energy=-306.17084945Ha  molecule=COOCCCHHHHHH
C       0.0647412306      0.2638014550      0.1321555663
O       0.4334817610      1.4955420688      0.1722128430
O       0.0802508962      2.6083509603      0.9387290325
C       0.6346638520     -0.3958260698     -1.0471261645
C       0.6164740283     -1.6395334736     -1.5931201379
C      -1.0565972831     -0.4624278045      1.1379955408
H       1.0317565395      0.3266147191     -1.8651865729
H       0.0790166900     -2.4211022022     -1.0350771826
H       1.0791300420     -1.7769014230     -2.6140372557
H      -1.4050731525      0.0657263790      2.1326471107
H      -0.5722032070     -1.5014882872      1.3790616682
H      -2.0620515379     -0.7394035734      0.6952270367
12
Frame=527  time=264.000fs  energy=-306.17039847Ha  molecule=COOCCCHHHHHH
C       0.0643831889      0.2588543114      0.1377447089
O       0.4350031395      1.4938667326      0.1684999145
O       0.0726319445      2.6103456013      0.9386970908
C       0.6404603158     -0.3866927042     -1.0475989498
C       0.6208371528     -1.6313529456     -1.5930933742
C      -1.0589032072     -0.4710093933      1.1401767906
H       1.0419481738      0.3170446498     -1.8786198895
H       0.1000568115     -2.4301393332     -1.0079747954
H       1.0559257100     -1.7738353292     -2.6178467378
H      -1.4184655944      0.0426210355      2.1032319804
H      -0.5435410497     -1.5032527420      1.3577644228
H      -2.0778828037     -0.7491664187      0.7082420159
12
Frame=528  time=264.500fs  energy=-306.16997297Ha  molecule=COOCCCHHHHHH
C       0.0638388675      0.2543933774      0.1434962911
O       0.4363608913      1.4919656394      0.1648278760
O       0.0650525653      2.6122887798      0.9386366485
C       0.6464764624     -0.3776064691     -1.0490054476
C       0.6249550113     -1.6230618887     -1.5926642976
C      -1.0611658283     -0.4799062586      1.1425010088
H       1.0505377634      0.3059310932     -1.8840857702
H       0.1234599107     -2.4386287310     -0.9844863906
H       1.0311353392     -1.7717915459     -2.6180151333
H      -1.4282551916      0.0193878600      2.0708863915
H      -0.5163508693     -1.5018812020      1.3357796484
H      -2.0910421000     -0.7583114502      0.7193767897
12
Frame=529  time=265.000fs  energy=-306.16949577Ha  molecule=COOCCCHHHHHH
C       0.0631394051      0.2504540370      0.1493516151
O       0.4375322444      1.4898440541      0.1612274977
O       0.0575187899      2.6141676684      0.9385393082
C       0.6527063934     -0.3686220841     -1.0513378012
C       0.6287342409     -1.6147692793     -1.5916808175
C      -1.0633624023     -0.4891568191      1.1448083048
H       1.0574709346      0.2939183921     -1.8816118281
H       0.1496720537     -2.4455616828     -0.9654997431
H       1.0053585499     -1.7707645158     -2.6153545614
H      -1.4345866588     -0.0031427623      2.0374373747
H      -0.4908644833     -1.4976154632      1.3135587698
H      -2.1013377336     -0.7669790004      0.7284240764
12
Frame=530  time=265.500fs  energy=-306.16888106Ha  molecule=COOCCCHHHHHH
C       0.0623217082      0.2470480246      0.1552339843
O       0.4384959550      1.4875134298      0.1577300737
O       0.0500379389      2.6159675835      0.9383940148
C       0.6591170885     -0.3597980182     -1.0545343910
C       0.6321035272     -1.6065653042     -1.5900045337
C      -1.0654508463     -0.4988077652      1.1469117694
H       1.0628657714      0.2817862589     -1.8715851496
H       0.1788840312     -2.4501177355     -0.9516595169
H       0.9792457496     -1.7707165349     -2.6108735431
H      -1.4378383913     -0.0239340491      2.0051998280
H      -0.4672815181     -1.4906888689      1.2915461120
H      -2.1086279347     -0.7753711158      0.7351013838
12
Frame=531  time=266.000fs  energy=-306.16810762Ha  molecule=COOCCCHHHHHH
C       0.0614255410      0.2441672974      0.1610533608
O       0.4392316325      1.4849908082      0.1543674750
O       0.0426187266      2.6176726663      0.9381873854
C       0.6656469441     -0.3512056934     -1.0584683746
C       0.6350207762     -1.5985189117     -1.5875312373
C      -1.0673624833     -0.5089198775      1.1485951550
H       1.0670688871      0.2705249505     -1.8549058684
H       0.2110347026     -2.4517098573     -0.9433093375
H       0.9534208595     -1.7715762656     -2.6056387074
H      -1.4387294897     -0.0417270357      1.9769620387
H      -0.4457691606     -1.4813262716      1.2701562328
H      -2.1128070057     -0.7836964787      0.7391193189
12
Frame=532  time=266.500fs  energy=-306.16728244Ha  molecule=COOCCCHHHHHH
C       0.0604894340      0.2417935323      0.1667193648
O       0.4397197232      1.4822978106      0.1511718192
O       0.0352710982      2.6192651432      0.9379040839
C       0.6722047006     -0.3429388301     -1.0629380838
C       0.6374773306     -1.5906812146     -1.5842109768
C      -1.0690099168     -0.5195528415      1.1496409767
H       1.0707354566      0.2614382218     -1.8331982289
H       0.2458278174     -2.4500410542     -0.9404541372
H       0.9284210601     -1.7732101087     -2.6006158285
H      -1.4382365859     -0.0552574446      1.9555466948
H      -0.4264517666     -1.4697624551      1.2497797533
H      -2.1138274893     -0.7921245335      0.7402633855
12
Frame=533  time=267.000fs  energy=-306.16661266Ha  molecule=COOCCCHHHHHH
C       0.0595440574      0.2399097214      0.1721604508
O       0.4399428375      1.4794575732      0.1481737079
O       0.0280055832      2.6207249187      0.9375277075
C       0.6786736381     -0.3351138298     -1.0676774643
C       0.6394983207     -1.5830865481     -1.5800605209
C      -1.0703182755     -0.5307334220      1.1498807510
H       1.0748477006      0.2561517699     -1.8088398206
H       0.2827636255     -2.4451811159     -0.9427490298
H       0.9046612357     -1.7754107750     -2.5965355886
H      -1.4372581543     -0.0636048664      1.9431315021
H      -0.4093758846     -1.4562804534      1.2307909951
H      -2.1116990895     -0.8007862710      0.7384092550
12
Frame=534  time=267.500fs  energy=-306.16630658Ha  molecule=COOCCCHHHHHH
C       0.0586057520      0.2385065204      0.1773362554
O       0.4398868238      1.4764906676      0.1454012467
O       0.0208323860      2.6220317521      0.9370425102
C       0.6849275071     -0.3278499936     -1.0724008382
C       0.6411385505     -1.5757474819     -1.5751660118
C      -1.0712541091     -0.5424337316      1.1492281556
H       1.0805820330      0.2564044991     -1.7845672027
H       0.3211677728     -2.4376437278     -0.9494705728
H       0.8824233064     -1.7779318340     -2.5938173276
H      -1.4362997144     -0.0664227756      1.9407911310
H      -0.3944597246     -1.4412485141      1.2135249622
H      -2.1064613549     -0.8097864137      0.7335154237
12
Frame=535  time=268.000fs  energy=-306.16642585Ha  molecule=COOCCCHHHHHH
C       0.0576757140      0.2375800032      0.1822339023
O       0.4395408386      1.4734124051      0.1428797336
O       0.0137607868      2.6231686461      0.9364348883
C       0.6908478565     -0.3212426756     -1.0768478880
C       0.6424732276     -1.5686474708     -1.5696792573
C      -1.0718378406     -0.5545593692      1.1476943219
H       1.0890995995      0.2637635650     -1.7629253668
H       0.3602269361     -2.4284497484     -0.9594820936
H       0.8618812181     -1.7805088767     -2.5925544910
H      -1.4352841507     -0.0640724628      1.9482570345
H      -0.3814608415     -1.4251416503      1.1982576158
H      -2.0981863801     -0.8192116198      0.7256183701
12
Frame=536  time=268.500fs  energy=-306.16684894Ha  molecule=COOCCCHHHHHH
C       0.0567428915      0.2371244152      0.1868574440
O       0.4388973705      1.4702342730      0.1406308961
O       0.0067990556      2.6241232893      0.9356936690
C       0.6963381820     -0.3153452581     -1.0808115701
C       0.6435853720     -1.5617334838     -1.5638049214
C      -1.0721381688     -0.5669453082      1.1453799968
H       1.1013220211      0.2793401767     -1.7458235253
H       0.3990691073     -2.4190879614     -0.9712691096
H       0.8431496402     -1.7828617559     -2.5925717922
H      -1.4335464495     -0.0576101831      1.9639902896
H      -0.3699567818     -1.4085916253      1.1852122481
H      -2.0870269349     -0.8291571230      0.7148084384
12
Frame=537  time=269.000fs  energy=-306.16738703Ha  molecule=COOCCCHHHHHH
C       0.0557870409      0.2371262900      0.1912209482
O       0.4379523882      1.4669689814      0.1386718256
O      -0.0000454578      2.6248862520      0.9348095116
C       0.7013414771     -0.3101545069     -1.0841628344
C       0.6445529429     -1.5549233107     -1.5577770515
C      -1.0722514012     -0.5793705512      1.1424434591
H       1.1177014615      0.3035117180     -1.7341948833
H       0.4368841497     -2.4112816105     -0.9830926418
H       0.8263213423     -1.7847066344     -2.5935287304
H      -1.4300618990     -0.0485493724      1.9856301923
H      -0.3593445835     -1.3924328684      1.1745602883
H      -2.0732589773     -0.8397563117      0.7012030510
12
Frame=538  time=269.500fs  energy=-306.16785297Ha  molecule=COOCCCHHHHHH
C       0.0547846816      0.2375639141      0.1953409518
O       0.4367051645      1.4636356195      0.1370128403
O      -0.0067658820      2.6254474267      0.9337739407
C       0.7058602910     -0.3055942459     -1.0868712036
C       0.6454384971     -1.5481312652     -1.5518254358
C      -1.0722710508     -0.5915988783      1.1390566752
H       1.1379867564      0.3356793311     -1.7277475543
H       0.4730393599     -2.4066072140     -0.9932717224
H       0.8114784753     -1.7857699447     -2.5950249665
H      -1.4238469117     -0.0384634335      2.0106528361
H      -0.3489022968     -1.3776655345      1.1664083700
H      -2.0572655382     -0.8511613442      0.6849458222
12
Frame=539  time=270.000fs  energy=-306.16804827Ha  molecule=COOCCCHHHHHH
C       0.0537198585      0.2384123692      0.1992231884
O       0.4351569815      1.4602623793      0.1356569324
O      -0.0133549596      2.6257931306      0.9325781262
C       0.7099599389     -0.3015148447     -1.0889940883
C       0.6462863649     -1.5412956527     -1.5461444485
C      -1.0722635799     -0.6034230954      1.1353746245
H       1.1611518174      0.3742475534     -1.7250591700
H       0.5071280088     -2.4061707419     -1.0004751325
H       0.7986926258     -1.7857842239     -2.5966801296
H      -1.4142564086     -0.0286873563      2.0368676676
H      -0.3379449109     -1.3653147052      1.1608134723
H      -2.0394754879     -0.8634987760      0.6662142778
12
Frame=540  time=270.500fs  energy=-306.16781130Ha  molecule=COOCCCHHHHHH
C       0.0525934766      0.2396467775      0.2028531592
O       0.4333094735      1.4568873013      0.1346027541
O      -0.0198044740      2.6259053721      0.9312118933
C       0.7137439389     -0.2977178312     -1.0906297177
C       0.6471255431     -1.5344070057     -1.5408811135
C      -1.0722612848     -0.6146812638      1.1315349823
H       1.1856388424      0.4169840288     -1.7241059054
H       0.5389563911     -2.4104232307     -1.0039070142
H       0.7880296460     -1.7844552871     -2.5981419573
H      -1.4009906430     -0.0203225289      2.0624787713
H      -0.3260013017     -1.3562289507      1.1578378354
H      -2.0203354273     -0.8768588411      0.6452077588
12
Frame=541  time=271.000fs  energy=-306.16708289Ha  molecule=COOCCCHHHHHH
C       0.0514203651      0.2412346120      0.2062017692
O       0.4311645206      1.4535592037      0.1338490905
O      -0.0261060816      2.6257645789      0.9296646457
C       0.7173282592     -0.2939820845     -1.0918808083
C       0.6479728117     -1.5275311513     -1.5361378011
C      -1.0722619412     -0.6252473249      1.1276708600
H       1.2096966086      0.4614054470     -1.7227944878
H       0.5685001727     -2.4190498961     -1.0033706501
H       0.7795481354     -1.7814288851     -2.5990121614
H      -1.3839861089     -0.0144132187      2.0858714423
H      -0.3128811750     -1.3509278967      1.1575803585
H      -2.0003295827     -0.8912926799      0.6221456638
12
Frame=542  time=271.500fs  energy=-306.16599521Ha  molecule=COOCCCHHHHHH
C       0.0502151461      0.2431274835      0.2092431514
O       0.4287255648      1.4503374036      0.1333968372
O      -0.0322529464      2.6253529563      0.9279275011
C       0.7208259437     -0.2900915843     -1.0928392951
C       0.6488361808     -1.5208045602     -1.5319768768
C      -1.0722240677     -0.6350234032      1.1239106316
H       1.2316838198      0.5051129070     -1.7193337487
H       0.5958328871     -2.4310123030     -0.9992099391
H       0.7732851866     -1.7763429334     -2.5988203901
H      -1.3633780805     -0.0120141112      2.1054967705
H      -0.2986773854     -1.3495501388      1.1601546949
H      -1.9799733689     -0.9068053637      0.5972895973
12
Frame=543  time=272.000fs  energy=-306.16482518Ha  molecule=COOCCCHHHHHH
C       0.0489830514      0.2452648260      0.2119658752
O       0.4259975586      1.4472880642      0.1332493286
O      -0.0382402753      2.6246556693      0.9259941728
C       0.7243307093     -0.2858692664     -1.0935733880
C       0.6497182172     -1.5144086579     -1.5284216423
C      -1.0720615968     -0.6439459159      1.1203643902
H       1.2503520904      0.5462189311     -1.7124873077
H       0.6210414080     -2.4447553702     -0.9921526212
H       0.7692536668     -1.7689527594     -2.5971397789
H      -1.3395222666     -0.0140777890      2.1199823990
H      -0.2837880400     -1.3518841328      1.1656441253
H      -1.9597543274     -0.9233668341      0.5709547711
12
Frame=544  time=272.500fs  energy=-306.16383850Ha  molecule=COOCCCHHHHHH
C       0.0477226512      0.2475807353      0.2143685614
O       0.4229849712      1.4444807047      0.1334139517
O      -0.0440648646      2.6236609865      0.9238610030
C       0.7279084242     -0.2811913755     -1.0941258119
C       0.6506193100     -1.5085343185     -1.5254569103
C      -1.0716487269     -0.6519931223      1.1171134844
H       1.2649299728      0.5834664046     -1.7015892110
H       0.6441633121     -2.4584805506     -0.9831187649
H       0.7674572191     -1.7592072316     -2.5937272636
H      -1.3130086544     -0.0213174951      2.1282863351
H      -0.2688918521     -1.3574585782      1.1740456519
H      -1.9400669335     -0.9409188958      0.5435132422
12
Frame=545  time=273.000fs  energy=-306.16320868Ha  molecule=COOCCCHHHHHH
C       0.0464314491      0.2500067526      0.2164522541
O       0.4196902792      1.4419856186      0.1339032145
O      -0.0497248362      2.6223606590      0.9215272384
C       0.7315968159     -0.2759850193     -1.0945175492
C       0.6515411707     -1.5033435112     -1.5230353689
C      -1.0708362373     -0.6591842954      1.1142094021
H       1.2750634804      0.6160670695     -1.6864656866
H       0.6651656231     -2.4704438882     -0.9730441117
H       0.7679078834     -1.7472476543     -2.5885917078
H      -1.2846483530     -0.0341447449      2.1297556482
H      -0.2548229786     -1.3656590761      1.1852145912
H      -1.9211785133     -0.9593567395      0.5154071275
12
Frame=546  time=273.500fs  energy=-306.16299375Ha  molecule=COOCCCHHHHHH
C       0.0451081353      0.2524731811      0.2182179395
O       0.4161139594      1.4398698396      0.1347335782
O      -0.0552199254      2.6207507774      0.9189956317
C       0.7354100714     -0.2702187174     -1.0947532219
C       0.6524894411     -1.4989417467     -1.5210862251
C      -1.0694699903     -0.6655768092      1.1116718877
H       1.2807180775      0.6434903870     -1.6673488986
H       0.6839585123     -2.4791962967     -0.9627588218
H       0.7706327516     -1.7333672071     -2.5820030616
H      -1.2554472143     -0.0526226509      2.1241778374
H      -0.2424074986     -1.3758309254      1.1988371592
H      -1.9032290742     -0.9785028881      0.4871544530
12
Frame=547  time=274.000fs  energy=-306.16312062Ha  molecule=COOCCCHHHHHH
C       0.0437530009      0.2549128778      0.2196671512
O       0.4122549690      1.4381915474      0.1359230612
O      -0.0605518674      2.6188326162      0.9162727684
C       0.7393438905     -0.2638947976     -1.0948262386
C       0.6534751428     -1.4953695051     -1.5195208258
C      -1.0674039777     -0.6712677263      1.1094778285
H       1.2820974272      0.6653467439     -1.6447959650
H       0.7004217941     -2.4836836623     -0.9529432876
H       0.7756672273     -1.7179598722     -2.5744701425
H      -1.2265673557     -0.0763880986      2.1119096472
H      -0.2323512489     -1.3873459374      1.2144521954
H      -1.8862489019     -0.9980960317      0.4593376039
12
Frame=548  time=274.500fs  energy=-306.16341002Ha  molecule=COOCCCHHHHHH
C       0.0423694635      0.2572664402      0.2208012242
O       0.4081108346      1.4369958872      0.1374892663
O      -0.0657243140      2.6166124412      0.9133683907
C       0.7433782379     -0.2570476825     -1.0947216397
C       0.6545148945     -1.4926087010     -1.5182370621
C      -1.0645084022     -0.6763949251      1.1075458355
H       1.2795815885      0.6813894485     -1.6195961066
H       0.7144260666     -2.4832285969     -0.9441366266
H       0.7830449648     -1.7014690385     -2.5666844895
H      -1.1992560448     -0.1045994879      2.0940065894
H      -0.2252006233     -1.3996373966      1.2315150122
H      -1.8701781531     -1.0178022790      0.4325905041
12
Frame=549  time=275.000fs  energy=-306.16366156Ha  molecule=COOCCCHHHHHH
C       0.0409683120      0.2594855068      0.2216165651
O       0.4036774350      1.4363149813      0.1394485614
O      -0.0707421082      2.6140994358      0.9102935257
C       0.7474774676     -0.2497462561     -1.0944149374
C       0.6556289470     -1.4905945077     -1.5171276973
C      -1.0606794719     -0.6811274089      1.1057301086
H       1.2736696307      0.6915848686     -1.5926590747
H       0.7258457680     -2.4774787943     -0.9367480650
H       0.7927986576     -1.6843347242     -2.5594214891
H      -1.1747337110     -0.1359774639      2.0722266356
H      -0.2213241456     -1.4122447667      1.2494650852
H      -1.8548737145     -1.0372572722      0.4075857805
12
Frame=550  time=275.500fs  energy=-306.16373874Ha  molecule=COOCCCHHHHHH
C       0.0395737466      0.2615356761      0.2220970945
O       0.3989485055      1.4361719452      0.1418162010
O      -0.0756100845      2.6113020302      0.9070581357
C       0.7515886134     -0.2420964692     -1.0938671118
C       0.6568369663     -1.4892245361     -1.5160939889
C      -1.0558498835     -0.6856438935      1.1038329574
H       1.2649420979      0.6961852275     -1.5649317752
H       0.7345703734     -2.4663874149     -0.9310388454
H       0.8049762022     -1.6669462611     -2.5534207907
H      -1.1540880318     -0.1689315729      2.0488869318
H      -0.2208964276     -1.4249058356      1.2677614098
H      -1.8401086108     -1.0561421032      0.3850005598
12
Frame=551  time=276.000fs  energy=-306.16359704Ha  molecule=COOCCCHHHHHH
C       0.0382248849      0.2634006043      0.2222122407
O       0.3939147127      1.4365859048      0.1446063909
O      -0.0803319141      2.6082245404      0.9036697942
C       0.7556405073     -0.2342413932     -1.0930207105
C       0.6581538001     -1.4883612203     -1.5150615823
C      -1.0499878810     -0.6901149419      1.1016257686
H       1.2540763859      0.6957727373     -1.5373996626
H       0.7405189103     -2.4502537785     -0.9270659769
H       0.8196536807     -1.6496254025     -2.5492874449
H      -1.1382274082     -0.2016975022      2.0266973935
H      -0.2239399543     -1.4376285363      1.2858936610
H      -1.8255914598     -1.0742535204      0.3654549471
12
Frame=552  time=276.500fs  energy=-306.16331060Ha  molecule=COOCCCHHHHHH
C       0.0369685418      0.2650828383      0.2219288423
O       0.3885638836      1.4375739282      0.1478309332
O      -0.0849100699      2.6048668773      0.9001344837
C       0.7595466957     -0.2263571099     -1.0918029119
C       0.6595882669     -1.4878272502     -1.5139961388
C      -1.0430897618     -0.6947019372      1.0988593301
H       1.2419051730      0.6912896763     -1.5111522771
H       0.7436636401     -2.4298411830     -0.9245946117
H       0.8369136894     -1.6326548241     -2.5474267623
H      -1.1278574669     -0.2324346711      2.0086740934
H      -0.2303981280     -1.4506244749      1.3034022871
H      -1.8110051569     -1.0915081987      0.3494580415
12
Frame=553  time=277.000fs  energy=-306.16310104Ha  molecule=COOCCCHHHHHH
C       0.0358488646      0.2666006853      0.2212296104
O       0.3828835713      1.4391461351      0.1514966929
O      -0.0893468829      2.6012278412      0.8964583853
C       0.7632117462     -0.2186441304     -1.0901340383
C       0.6611459447     -1.4873998999     -1.5129167021
C      -1.0351774513     -0.6995482925      1.0953002130
H       1.2294530430      0.6840550866     -1.4874209166
H       0.7440696142     -2.4065243182     -0.9230369038
H       0.8567886937     -1.6163237988     -2.5479830834
H      -1.1234332444     -0.2594980190      1.9976897586
H      -0.2401473942     -1.4641194492      1.3198970659
H      -1.7960998105     -1.1078959748      0.3373731566
12
Frame=554  time=277.500fs  energy=-306.16321700Ha  molecule=COOCCCHHHHHH
C       0.0349002349      0.2679816411      0.2201226858
O       0.3768655539      1.4412945231      0.1556018334
O      -0.0936458433      2.5973104832      0.8926492910
C       0.7665384313     -0.2113142052     -1.0879360446
C       0.6628338347     -1.4868169881     -1.5119010135
C      -1.0262938412     -0.7047541642      1.0908023349
H       1.2178881166      0.6757131733     -1.4675093328
H       0.7419215823     -2.3822771952     -0.9214896283
H       0.8792047676     -1.6009343202     -2.5507511302
H      -1.1251740344     -0.2818343915      1.9956308036
H      -0.2529421988     -1.4781796841      1.3350168142
H      -1.7808181414     -1.1234284875      0.3294159270
12
Frame=555  time=278.000fs  energy=-306.16378567Ha  molecule=COOCCCHHHHHH
C       0.0341474475      0.2692521787      0.2186386558
O       0.3705119049      1.4439824188      0.1601296451
O      -0.0978134684      2.5931286597      0.8887183062
C       0.7694342689     -0.2045707794     -1.0851398610
C       0.6646648131     -1.4858038640     -1.5110767348
C      -1.0165012852     -0.7103684345      1.0853527411
H       1.2084011446      0.6680619416     -1.4526459839
H       0.7374916209     -2.3593621402     -0.9188693174
H       0.9039536494     -1.5867390662     -2.5551069152
H      -1.1331031414     -0.2991635250      2.0028776029
H      -0.2683611057     -1.4926015371      1.3483925710
H      -1.7653461279     -1.1380919484      0.3256729852
12
Frame=556  time=278.500fs  energy=-306.16473362Ha  molecule=COOCCCHHHHHH
C       0.0336141554      0.2704376703      0.2168208309
O       0.3638372200      1.4471366360      0.1650454463
O      -0.1018609676      2.5887120134      0.8846816184
C       0.7718163436     -0.1985843718     -1.0816900246
C       0.6666611720     -1.4841142497     -1.5105974213
C      -1.0058927986     -0.7163912766      1.0790985159
H       1.2020910008      0.6627846110     -1.4438798298
H       0.7310567982     -2.3398419262     -0.9141089377
H       0.9307070069     -1.5738677792     -2.5600706354
H      -1.1470096782     -0.3119848787      2.0180310267
H      -0.2857565986     -1.5069395271      1.3596683076
H      -1.7500945791     -1.1518349744      0.3260952614
12
Frame=557  time=279.000fs  energy=-306.16588959Ha  molecule=COOCCCHHHHHH
C       0.0333339555      0.2715767436      0.2147105093
O       0.3568642170      1.4506491266      0.1703010637
O      -0.1058041776      2.5841056549      0.8805612970
C       0.7736154726     -0.1934759508     -1.0775447641
C       0.6688545552     -1.4815699017     -1.5106074351
C      -0.9946073248     -0.7227787444      1.0723396536
H       1.1998780514      0.6612369264     -1.4420303863
H       0.7228079127     -2.3251253781     -0.9063806257
H       0.9590697952     -1.5623386596     -2.5645191000
H      -1.1663720057     -0.3213689276      2.0380569714
H      -0.3042039295     -1.5207560792      1.3685411614
H      -1.7356325450     -1.1646208774      0.3304580671
12
Frame=558  time=279.500fs  energy=-306.16720682Ha  molecule=COOCCCHHHHHH
C       0.0333557920      0.2727274143      0.2123270734
O       0.3496179262      1.4543973569      0.1758432994
O      -0.1096615877      2.5793642024      0.8763843543
C       0.7747853227     -0.1893075375     -1.0726782193
C       0.6712817215     -1.4780838315     -1.5112095367
C      -0.9828287634     -0.7294572639      1.0654436502
H       1.2023580785      0.6642913037     -1.4475634540
H       0.7127835729     -2.3157211191     -0.8952612099
H       0.9886390618     -1.5521520989     -2.5674192809
H      -1.1903682048     -0.3285212868      2.0593165308
H      -0.3225637389     -1.5339322224      1.3748036142
H      -1.7225342958     -1.1765139827      0.3383392560
12
Frame=559  time=280.000fs  energy=-306.16870313Ha  molecule=COOCCCHHHHHH
C       0.0337342429      0.2739462472      0.2096593260
O       0.3421223032      1.4582756519      0.1816231403
O      -0.1134512264      2.5745432051      0.8721793887
C       0.7753144630     -0.1860689220     -1.0670906583
C       0.6739794369     -1.4736579433     -1.5124496409
C      -0.9707576108     -0.7363320924      1.0587465451
H       1.2096174073      0.6721255579     -1.4604137876
H       0.7008548600     -2.3112944957     -0.8807663716
H       1.0190367776     -1.5433656486     -2.5679505386
H      -1.2180075700     -0.3344629233      2.0786132956
H      -0.3396863325     -1.5468003167      1.3783389521
H      -1.7111767703     -1.1877222483      0.3491851694
12
Frame=560  time=280.500fs  energy=-306.17023871Ha  molecule=COOCCCHHHHHH
C       0.0345051258      0.2752501127      0.2066813913
O       0.3344026269      1.4622205700      0.1875992861
O      -0.1171893827      2.5696933751      0.8679735577
C       0.7752353923     -0.1836638733     -1.0608263138
C       0.6769806055     -1.4683640891     -1.5143164808
C      -0.9585736581     -0.7432895780      1.0525066554
H       1.2210926686      0.6839746907     -1.4798383113
H       0.6867798876     -2.3109187609     -0.8633284125
H       1.0499062063     -1.5360683867     -2.5654736596
H      -1.2482453833     -0.3399798234      2.0934676854
H      -0.3546136399     -1.5600185856      1.3791028002
H      -1.7016071843     -1.1985179458      0.3624172498
12
Frame=561  time=281.000fs  energy=-306.17143173Ha  molecule=COOCCCHHHHHH
C       0.0356636457      0.2765928465      0.2033792119
O       0.3264931267      1.4662133810      0.1937313556
O      -0.1208934503      2.5648616630      0.8637935189
C       0.7746354841     -0.1819002502     -1.0540004055
C       0.6803095443     -1.4623270696     -1.5167397683
C      -0.9464105335     -0.7502136385      1.0468863997
H       1.2354565705      0.6978942734     -1.5042527860
H       0.6703395686     -2.3133069795     -0.8438542624
H       1.0808838191     -1.5302681780     -2.5594393510
H      -1.2800682895     -0.3456303405      2.1021408917
H      -0.3666621372     -1.5742775923      1.3771646077
H      -1.6935611839     -1.2090703648      0.3774635714
12
Frame=562  time=281.500fs  energy=-306.17191705Ha  molecule=COOCCCHHHHHH
C       0.0371598636      0.2778787315      0.1997688132
O       0.3184399398      1.4702630890      0.1999746475
O      -0.1245861380      2.5600959109      0.8596695711
C       0.7736581348     -0.1805202239     -1.0468106154
C       0.6839722502     -1.4557220945     -1.5195800742
C      -0.9343552749     -0.7570069218      1.0419581343
H       1.2507772168      0.7110615488     -1.5313182618
H       0.6515077454     -2.3169208569     -0.8238321295
H       1.1116092125     -1.5258387020     -2.5494584211
H      -1.3125450237     -0.3517541458      2.1036271669
H      -0.3753694095     -1.5900304471      1.3727808940
H      -1.6866338324     -1.2193349033      0.3937030166
12
Frame=563  time=282.000fs  energy=-306.17167362Ha  molecule=COOCCCHHHHHH
C       0.0389041027      0.2789949286      0.1959066714
O       0.3102957922      1.4743916598      0.2062836922
O      -0.1282969408      2.5554470011      0.8556394158
C       0.7724779549     -0.1792782285     -1.0395010022
C       0.6879492797     -1.4487651978     -1.5226375630
C      -0.9224681245     -0.7636024660      1.0377334954
H       1.2651355611      0.7207493574     -1.5586140450
H       0.6305152852     -2.3200680789     -0.8052150302
H       1.1418061791     -1.5226397700     -2.5355308682
H      -1.3448241869     -0.3585161835      2.0975604173
H      -0.3803983325     -1.6073969365      1.3664092423
H      -1.6804805459     -1.2290937124      0.4104150459
12
Frame=564  time=282.500fs  energy=-306.17096302Ha  molecule=COOCCCHHHHHH
C       0.0407757379      0.2798324454      0.1918886505
O       0.3021180454      1.4786234246      0.2126083372
O      -0.1320609692      2.5509682709      0.8517490421
C       0.7712728254     -0.1779877233     -1.0323152013
C       0.6922004411     -1.4416715318     -1.5256926212
C      -0.9108014320     -0.7699650020      1.0341979894
H       1.2770474130      0.7249391180     -1.5841541303
H       0.6077775040     -2.3211389442     -0.7900170396
H       1.1713494417     -1.5206638353     -2.5181200010
H      -1.3760990386     -0.3659636000      2.0840587041
H      -0.3815000322     -1.6262119631      1.3586409874
H      -1.6748955025     -1.2380767783      0.4267643389
12
Frame=565  time=283.000fs  energy=-306.17012905Ha  molecule=COOCCCHHHHHH
C       0.0426426857      0.2802981063      0.1878276140
O       0.2939707952      1.4829717093      0.2188848460
O      -0.1359177479      2.5467156900      0.8480511404
C       0.7702039257     -0.1765304419     -1.0254723220
C       0.6966731245     -1.4346143658     -1.5285431844
C      -0.8994058769     -0.7760894334      1.0313317502
H       1.2854450961      0.7224327283     -1.6063301700
H       0.5838049637     -2.3188727022     -0.7799445161
H       1.2002665122     -1.5200521895     -2.4980318033
H      -1.4055831828     -0.3740630465      2.0635862236
H      -0.3785462099     -1.6460781319      1.3501211804
H      -1.6697696851     -1.2460311081      0.4418159020
12
Frame=566  time=283.500fs  energy=-306.16950280Ha  molecule=COOCCCHHHHHH
C       0.0443831936      0.2803257992      0.1838271818
O       0.2859225875      1.4874277787      0.2250372689
O      -0.1399103628      2.5427490502      0.8446025079
C       0.7694038075     -0.1748526737     -1.0191587621
C       0.7013080214     -1.4277110083     -1.5310194757
C      -0.8883263513     -0.7819992379      1.0291119266
H       1.2895646706      0.7127570559     -1.6237617294
H       0.5591358961     -2.3124666769     -0.7762306175
H       1.2287058909     -1.5210272628     -2.4762603622
H      -1.4325320322     -0.3827362392      2.0368392342
H      -0.3715792538     -1.6663989118      1.3414774840
H      -1.6650192170     -1.2527236013      0.4546322183
12
Frame=567  time=284.000fs  energy=-306.16936429Ha  molecule=COOCCCHHHHHH
C       0.0458994350      0.2798823845      0.1799674276
O       0.2780411093      1.4919576986      0.2309858046
O      -0.1440839215      2.5391320062      0.8414610052
C       0.7689715566     -0.1729516930     -1.0135260978
C       0.7060443298     -1.4210241736     -1.5329874941
C      -0.8775949340     -0.7877399591      1.0275055453
H       1.2888849604      0.6959670613     -1.6352621955
H       0.5342515698     -2.3015596896     -0.7795539655
H       1.2568963335     -1.5238227351     -2.4538633988
H      -1.4562859067     -0.3919091944      2.0046123799
H      -0.3608294762     -1.6864616091      1.3332410264
H      -1.6605289064     -1.2579426878      0.4644336741
12
Frame=568  time=284.500fs  energy=-306.16989057Ha  molecule=COOCCCHHHHHH
C       0.0471249853      0.2789670698      0.1762992081
O       0.2703884199      1.4965057733      0.2366545183
O      -0.1484827805      2.5359298548      0.8386818587
C       0.7689690739     -0.1708595873     -1.0086897134
C       0.7108273148     -1.4145670990     -1.5343514781
C      -0.8672276753     -0.7933676037      1.0264625784
H       1.2830913530      0.6724639266     -1.6398292229
H       0.5094827101     -2.2861867934     -0.7899888585
H       1.2850970577     -1.5286392143     -2.4318570907
H      -1.4762988066     -0.4015359223      1.9676996486
H      -0.3466903054     -1.7055628886      1.3257710241
H      -1.6561102476     -1.2615386606      0.4707078607
12
Frame=569  time=285.000fs  energy=-306.17106292Ha  molecule=COOCCCHHHHHH
C       0.0480294925      0.2776063347      0.1728414463
O       0.2630163866      1.5010022301      0.2419782132
O      -0.1531467629      2.5332054840      0.8363133783
C       0.7694106986     -0.1686386984     -1.0047190296
C       0.7156192676     -1.4083095428     -1.5350593511
C      -0.8572246403     -0.7989399415      1.0259101159
H       1.2721142491      0.6429527967     -1.6367146257
H       0.4849476875     -2.2667373481     -0.8070273881
H       1.3135307882     -1.5356216099     -2.4111020989
H      -1.4921734760     -0.4115565706      1.9269288557
H      -0.3296734463     -1.7230961890      1.3192124507
H      -1.6514705224     -1.2634841458      0.4732046075
12
Frame=570  time=285.500fs  energy=-306.17247232Ha  molecule=COOCCCHHHHHH
C       0.0486186208      0.2758465372      0.1695815804
O       0.2559611883      1.5053732034      0.2469108463
O      -0.1581072810      2.5310155570      0.8343929799
C       0.7702401596     -0.1664036709     -1.0016044249
C       0.7204107882     -1.4021894480     -1.5351129858
C      -0.8475693763     -0.8045164323      1.0257473331
H       1.2563927150      0.6087137978     -1.6258128682
H       0.4605321428     -2.2438952685     -0.8296679898
H       1.3423150716     -1.5448345483     -2.3921914492
H      -1.5037335611     -0.4218085774      1.8833113949
H      -0.3103632034     -1.7385654896      1.3135065597
H      -1.6462006817     -1.2639134785      0.4718529490
12
Frame=571  time=286.000fs  energy=-306.17316775Ha  molecule=COOCCCHHHHHH
C       0.0489220917      0.2737466323      0.1664857856
O       0.2492392043      1.5095481192      0.2514323564
O      -0.1633851828      2.5294103151      0.8329456224
C       0.7713017241     -0.1643747162     -0.9991977286
C       0.7252248404     -1.3961407168     -1.5345833177
C      -0.8382325530     -0.8101627779      1.0258505800
H       1.2374346739      0.5723650775     -1.6084913902
H       0.4358981976     -2.2185605294     -0.8565089567
H       1.3714278959     -1.5562209783     -2.3753958318
H      -1.5110895972     -0.4319600600      1.8381556847
H      -0.2893623780     -1.7515588876      1.3084576534
H      -1.6397860485     -1.2631060512      0.4666550119
12
Frame=572  time=286.500fs  energy=-306.17233780Ha  molecule=COOCCCHHHHHH
C       0.0489673331      0.2713701396      0.1635237318
O       0.2428534244      1.5134623079      0.2555417512
O      -0.1689951616      2.5284387951      0.8319902987
C       0.7723462101     -0.1629071378     -0.9971919225
C       0.7301120031     -1.3901210033     -1.5336162018
C      -0.8291836988     -0.8159512118      1.0260903128
H       1.2181486234      0.5383929497     -1.5881285975
H       0.4105612310     -2.1918274426     -0.8858795012
H       1.4006597626     -1.5695859332     -2.3606250314
H      -1.5146309305     -0.4415215338      1.7930313588
H      -0.2672130027     -1.7617331496      1.3038283021
H      -1.6316471763     -1.2614002521      0.4575949102
12
Frame=573  time=287.000fs  energy=-306.17025498Ha  molecule=COOCCCHHHHHH
C       0.0487566934      0.2687870147      0.1606933332
O       0.2368104139      1.5170506071      0.2592357054
O      -0.1749588848      2.5281556717      0.8315561770
C       0.7731261112     -0.1623678814     -0.9952539380
C       0.7351497390     -1.3841092525     -1.5324061359
C      -0.8203872481     -0.8219567266      1.0263313600
H       1.2018992490      0.5115696592     -1.5688543134
H       0.3840295326     -2.1650267452     -0.9160935151
H       1.4294890882     -1.5846128397     -2.3473731479
H      -1.5150164045     -0.4498997762      1.7496749845
H      -0.2443708791     -1.7688165478      1.2994022873
H      -1.6212065873     -1.2590708503      0.4446642569
12
Frame=574  time=287.500fs  energy=-306.16796807Ha  molecule=COOCCCHHHHHH
C       0.0482653755      0.2660993387      0.1580278731
O       0.2311280807      1.5202289378      0.2624940612
O      -0.1813100582      2.5286189073      0.8316865780
C       0.7734549643     -0.1630442681     -0.9931115144
C       0.7404460927     -1.3781062526     -1.5311646803
C      -0.8117724493     -0.8282553205      1.0264089072
H       1.1916330660      0.4957450425     -1.5543684222
H       0.3558068018     -2.1397334039     -0.9456389286
H       1.4571058573     -1.6007784969     -2.3348900459
H      -1.5132417527     -0.4564276804      1.7099274978
H      -0.2213297344     -1.7725922098      1.2950863655
H      -1.6079774084     -1.2562629465      0.4280294137
12
Frame=575  time=288.000fs  energy=-306.16677140Ha  molecule=COOCCCHHHHHH
C       0.0474562647      0.2634232929      0.1555791152
O       0.2258319037      1.5229076368      0.2652830357
O      -0.1880817404      2.5298719134      0.8324213688
C       0.7732216796     -0.1651094295     -0.9905743209
C       0.7461319443     -1.3721155333     -1.5300919615
C      -0.8032309629     -0.8349157140      1.0261348716
H       1.1893975710      0.4933964642     -1.5473077924
H       0.3253330594     -2.1175648123     -0.9732748128
H       1.4826666503     -1.6174010814     -2.3224993603
H      -1.5106365340     -0.4604149186      1.6756240599
H      -0.1986382935     -1.7729255289      1.2909875081
H      -1.5916897088     -1.2530695085      0.4081124160
12
Frame=576  time=288.500fs  energy=-306.16728589Ha  molecule=COOCCCHHHHHH
C       0.0463015883      0.2608411528      0.1533893922
O       0.2209446133      1.5250259227      0.2675724309
O      -0.1952913040      2.5319292540      0.8337798069
C       0.7724270681     -0.1685287152     -0.9876043181
C       0.7523360317     -1.3661676553     -1.5293490330
C      -0.7946573619     -0.8419839747      1.0253387230
H       1.1957489725      0.5049142305     -1.5482548287
H       0.2920907293     -2.0997893734     -0.9981846289
H       1.5054419173     -1.6338115624     -2.3096890495
H      -1.5086175040     -0.4612720282      1.6483654456
H      -0.1767524654     -1.7698090076      1.2873200256
H      -1.5723340656     -1.2496250305      0.3855191869
12
Frame=577  time=289.000fs  energy=-306.16898032Ha  molecule=COOCCCHHHHHH
C       0.0447883416      0.2583921479      0.1514855111
O       0.2164795569      1.5265625628      0.2693441667
O      -0.2029353471      2.5347716992      0.8357559715
C       0.7711975109     -0.1730276853     -0.9843390345
C       0.7591586352     -1.3603429259     -1.5290418978
C      -0.7859892301     -0.8494666942      1.0238983315
H       1.2096015310      0.5284069240     -1.5554802406
H       0.2557760744     -2.0871424415     -1.0200697455
H       1.5248562860     -1.6494203883     -2.2960934197
H      -1.5082419964     -0.4586873741      1.6291957259
H      -0.1559791783     -1.7633798984      1.2843406048
H      -1.5501370247     -1.2461266915      0.3609742414
12
Frame=578  time=289.500fs  energy=-306.17063658Ha  molecule=COOCCCHHHHHH
C       0.0429062752      0.2560966246      0.1498960273
O       0.2124423175      1.5275218222      0.2705881214
O      -0.2109955180      2.5383509402      0.8383247169
C       0.7697548994     -0.1781630752     -0.9810385274
C       0.7666415400     -1.3547490220     -1.5292074483
C      -0.7772227262     -0.8573136751      1.0217485826
H       1.2286198482      0.5600860659     -1.5656660711
H       0.2165728243     -2.0797860969     -1.0392727455
H       1.5405991162     -1.6637610656     -2.2815546985
H      -1.5097882247     -0.4528005709      1.6183257569
H      -0.1365109220     -1.7539392135      1.2824117741
H      -1.5256111874     -1.2427903186      0.3353050687
12
Frame=579  time=290.000fs  energy=-306.17118886Ha  molecule=COOCCCHHHHHH
C       0.0406371941      0.2539762402      0.1486685348
O       0.2088348902      1.5279173234      0.2712991193
O      -0.2194485665      2.5426052771      0.8414517504
C       0.7683607971     -0.1834280241     -0.9780107516
C       0.7747375642     -1.3495321126     -1.5298074966
C      -0.7684074043     -0.8654140800      1.0188721505
H       1.2498946139      0.5951649115     -1.5748969096
H       0.1755431332     -2.0770837280     -1.0568596800
H       1.5526526513     -1.6765329170     -2.2661541602
H      -1.5126436904     -0.4442553840      1.6151113921
H      -0.1184091618     -1.7419638750      1.2820036075
H      -1.4995907294     -1.2397596352      0.3093980930
12
Frame=580  time=290.500fs  energy=-306.17036515Ha  molecule=COOCCCHHHHHH
C       0.0379566941      0.2520480675      0.1478652855
O       0.2056533656      1.5277743904      0.2714845927
O      -0.2282695503      2.5474687025      0.8450974492
C       0.7672620037     -0.1883343187     -0.9755376069
C       0.7832963395     -1.3449046026     -1.5307365749
C      -0.7596354260     -0.8736084337      1.0152880988
H       1.2706465281      0.6288789686     -1.5796474964
H       0.1348437617     -2.0774021804     -1.0744745813
H       1.5611879550     -1.6875958473     -2.2501521549
H      -1.5155573449     -0.4340774769      1.6183051117
H      -0.1015392394     -1.7281255128      1.2835526393
H      -1.4731038069     -1.2370907925      0.2840878213
12
Frame=581  time=291.000fs  energy=-306.16876340Ha  molecule=COOCCCHHHHHH
C       0.0348496991      0.2503228686      0.1475337046
O       0.2028799051      1.5271314914      0.2711726289
O      -0.2374283865      2.5528717363      0.8492146035
C       0.7666374618     -0.1924992599     -0.9737831370
C       0.7920941142     -1.3411191231     -1.5318618729
C      -0.7510235079     -0.8817053824      1.0110437759
H       1.2888778505      0.6577422502     -1.5776673246
H       0.0972778652     -2.0786091912     -1.0938808593
H       1.5665532767     -1.6969547798     -2.2340178740
H      -1.5170285478     -0.4234283404      1.6264533304
H      -0.0856147003     -1.7132665289      1.2874004696
H      -1.4471810764     -1.2348874275      0.2600147002
12
Frame=582  time=291.500fs  energy=-306.16721233Ha  molecule=COOCCCHHHHHH
C       0.0313259049      0.2488132077      0.1476849654
O       0.2004762765      1.5260352363      0.2704149877
O      -0.2468873931      2.5587398210      0.8537471833
C       0.7665788315     -0.1956709094     -0.9727786778
C       0.8009052384     -1.3384010873     -1.5330763820
C      -0.7426944431     -0.8895092800      1.0062125629
H       1.3035846879      0.6799464157     -1.5680860567
H       0.0653041866     -2.0789065825     -1.1163350327
H       1.5692975915     -1.7047282143     -2.2184342347
H      -1.5156338576     -0.4134268899      1.6381520090
H      -0.0703078494     -1.6982596437      1.2938061804
H      -1.4226243809     -1.2333828301      0.2375512391
12
Frame=583  time=292.000fs  energy=-306.16628496Ha  molecule=COOCCCHHHHHH
C       0.0274198431      0.2475369274      0.1482979101
O       0.1983872102      1.5245373470      0.2692806453
O      -0.2566031026      2.5649932752      0.8586333648
C       0.7671161141     -0.1977005908     -0.9724814013
C       0.8095423055     -1.3368959261     -1.5343084142
C      -0.7347623181     -0.8968488350      1.0008885387
H       1.3144604781      0.6947621032     -1.5509228794
H       0.0405548329     -2.0771946513     -1.1424482371
H       1.5701499501     -1.7111089847     -2.2042076107
H      -1.5102215999     -0.4050884208      1.6521350391
H      -0.0553423873     -1.6838356376      1.3029458279
H      -1.3999052487     -1.2328571021      0.2168770789
12
Frame=584  time=292.500fs  energy=-306.16628084Ha  molecule=COOCCCHHHHHH
C       0.0231798811      0.2465151197      0.1493341793
O       0.1965486795      1.5226900185      0.2678450383
O      -0.2665294403      2.5715501273      0.8638097310
C       0.7682536024     -0.1985033739     -0.9728303209
C       0.8178571072     -1.3366637907     -1.5355084862
C      -0.7273201812     -0.9035926716      0.9951752616
H       1.3214906703      0.7018701198     -1.5265609973
H       0.0239251754     -2.0729803500     -1.1723584627
H       1.5699691608     -1.7163378450     -2.1921783056
H      -1.5000044598     -0.3992938511      1.6673086273
H      -0.0405490258     -1.6704880733      1.3148688768
H      -1.3791875703     -1.2335083578      0.1981139279
12
Frame=585  time=293.000fs  energy=-306.16729327Ha  molecule=COOCCCHHHHHH
C       0.0186605640      0.2457698372      0.1507478535
O       0.1948948304      1.5205393254      0.2661815777
O      -0.2766206609      2.5783308875      0.8692151531
C       0.7699854757     -0.1980419413     -0.9737665006
C       0.8257364297     -1.3376895755     -1.5366390852
C      -0.7204297942     -0.9096533713      0.9891764398
H       1.3247587407      0.7010938099     -1.4955277472
H       0.0157331904     -2.0662225609     -1.2058752315
H       1.5696801721     -1.7206684122     -2.1831533158
H      -1.4845989089     -0.3967483718      1.6827680359
H      -0.0258839119     -1.6584649891      1.3294522992
H      -1.3604014872     -1.2353930088      0.1814004950
12
Frame=586  time=293.500fs  energy=-306.16915582Ha  molecule=COOCCCHHHHHH
C       0.0139228399      0.2453251696      0.1524855100
O       0.1933615672      1.5181188435      0.2643573510
O      -0.2868339631      2.5852640256      0.8747943060
C       0.7722876852     -0.1963402891     -0.9752224378
C       0.8331076036     -1.3398922646     -1.5376731763
C      -0.7141165745     -0.9149820105      0.9829935674
H       1.3245125555      0.6925446622     -1.4585759845
H       0.0157681899     -2.0572656404     -1.2425676885
H       1.5701854704     -1.7243053687     -2.1778284835
H      -1.4640108762     -0.3979451059      1.6977947855
H      -0.0114127365     -1.6478386189      1.3463982921
H      -1.3433479043     -1.2384552227      0.1668848222
12
Frame=587  time=294.000fs  energy=-306.17131400Ha  molecule=COOCCCHHHHHH
C       0.0090375030      0.2452094362      0.1544815332
O       0.1918876806      1.5154452720      0.2624317492
O      -0.2971317092      2.5922903811      0.8805005632
C       0.7750908936     -0.1935213471     -0.9770922760
C       0.8399558500     -1.3431317633     -1.5386009675
C      -0.7083702011     -0.9195545939      0.9767270690
H       1.3214533222      0.6771150683     -1.4169506249
H       0.0232166654     -2.0468493140     -1.2818075276
H       1.5722608855     -1.7273447045     -2.1767084844
H      -1.4385699885     -0.4031526867      1.7118319397
H       0.0027295388     -1.6386260964      1.3652848869
H      -1.3278158527     -1.2426198676      0.1546715752
12
Frame=588  time=294.500fs  energy=-306.17285065Ha  molecule=COOCCCHHHHHH
C       0.0040829903      0.2454489481      0.1566581396
O       0.1904156995      1.5125211595      0.2604563194
O      -0.3074821940      2.5993627527      0.8862965671
C       0.7782491263     -0.1898428914     -0.9792046595
C       0.8463440034     -1.3472134893     -1.5394381202
C      -0.7031464558     -0.9233582054      0.9704763495
H       1.3171236564      0.6570721079     -1.3726362618
H       0.0365357579     -2.0361223576     -1.3227691046
H       1.5764968721     -1.7297802883     -2.1800899211
H      -1.4088531167     -0.4124162798      1.7244446875
H       0.0163677072     -1.6308863042      1.3856314993
H      -1.3137053566     -1.2479129616      0.1447935150
12
Frame=589  time=295.000fs  energy=-306.17294039Ha  molecule=COOCCCHHHHHH
C      -0.0008672337      0.2460406594      0.1589360150
O       0.1888930450      1.5093566935      0.2584780780
O      -0.3178580667      2.6064363512      0.8921507449
C       0.7815211589     -0.1857029763     -0.9813230982
C       0.8524195667     -1.3518893202     -1.5402238160
C      -0.6983685759     -0.9263890001      0.9643430818
H       1.3142444420      0.6363023957     -1.3284529042
H       0.0534660845     -2.0265771068     -1.3644743306
H       1.5832557865     -1.7315709552     -2.1880756372
H      -1.3756528418     -0.4255388132      1.7352777515
H       0.0292753681     -1.6247146725      1.4068877014
H      -1.3010941912     -1.2545452362      0.1372383322
12
Frame=590  time=295.500fs  energy=-306.17167883Ha  molecule=COOCCCHHHHHH
C      -0.0057551595      0.2469193005      0.1612472110
O       0.1872712528      1.5060014372      0.2565465985
O      -0.3282339889      2.6134574722      0.8980329295
C       0.7845878975     -0.1815857926     -0.9831887709
C       0.8584005587     -1.3568658312     -1.5410041592
C      -0.6939283531     -0.9286644741      0.9584348289
H       1.3165923660      0.6196058809     -1.2877928272
H       0.0713733988     -2.0198734817     -1.4060209860
H       1.5924940306     -1.7326267114     -2.2004537528
H      -1.3400008769     -0.4420495436      1.7440376780
H       0.0411399947     -1.6201441422      1.4283343167
H      -1.2901461510     -1.2628592756      0.1319819201
12
Frame=591  time=296.000fs  energy=-306.17019313Ha  molecule=COOCCCHHHHHH
C      -0.0105382236      0.2479736623      0.1635440944
O       0.1855032516      1.5025411443      0.2547152605
O      -0.3385854101      2.6203665453      0.9039134880
C       0.7871393000     -0.1779255201     -0.9845953323
C       0.8645299432     -1.3618550251     -1.5418210365
C      -0.6896877398     -0.9302333028      0.9528476195
H       1.3279271842      0.6109365650     -1.2537497935
H       0.0878382310     -2.0175137818     -1.4468201112
H       1.6036458657     -1.7326600950     -2.2165569479
H      -1.3031547151     -0.4612450631      1.7505794475
H       0.0515611539     -1.6170668086      1.4490990781
H      -1.2809732842     -1.2731739472      0.1289656632
12
Frame=592  time=296.500fs  energy=-306.16962244Ha  molecule=COOCCCHHHHHH
C      -0.0151745823      0.2491053051      0.1657918570
O       0.1835456676      1.4990699319      0.2530332635
O      -0.3488886350      2.6271050774      0.9097640261
C       0.7889772470     -0.1750005706     -0.9854483189
C       0.8710215033     -1.3666362446     -1.5427184245
C      -0.6854951890     -0.9311694710      0.9476425112
H       1.3506564429      0.6122160618     -1.2281162197
H       0.1010169290     -2.0206032338     -1.4865874089
H       1.6158021918     -1.7311100907     -2.2353016903
H      -1.2665136323     -0.4822985765      1.7550908346
H       0.0601632132     -1.6152785168      1.4683390737
H      -1.2736342931     -1.2857201614      0.1280246271
12
Frame=593  time=297.000fs  energy=-306.17005719Ha  molecule=COOCCCHHHHHH
C      -0.0196046421      0.2502671364      0.1679530197
O       0.1813641013      1.4956753791      0.2515391667
O      -0.3591215927      2.6336158998      0.9155576576
C       0.7901031048     -0.1728731494     -0.9857936729
C       0.8780231976     -1.3710788490     -1.5437430203
C      -0.6812038167     -0.9315621473      0.9428340438
H       1.3846815301      0.6228089264     -1.2107411805
H       0.1096746872     -2.0298620579     -1.5252598119
H       1.6280032273     -1.7272707520     -2.2553896999
H      -1.2315530916     -0.5043374325      1.7582477546
H       0.0667039404     -1.6145261453      1.4853583574
H      -1.2681624689     -1.3006484413      0.1288585643
12
Frame=594  time=297.500fs  energy=-306.17061000Ha  molecule=COOCCCHHHHHH
C      -0.0237568253      0.2514554818      0.1699878859
O       0.1789342755      1.4924313602      0.2502621424
O      -0.3692656317      2.6398478673      0.9212704852
C       0.7907246043     -0.1713989084     -0.9857761455
C       0.8855906052     -1.3751312549     -1.5449359030
C      -0.6766752076     -0.9315075381      0.9383842739
H       1.4273210378      0.6396958132     -1.1999785117
H       0.1132358815     -2.0455617393     -1.5628756647
H       1.6395333307     -1.7204878385     -2.2756027460
H      -1.1997881688     -0.5264640179      1.7612334287
H       0.0710781688     -1.6145170353      1.4995768670
H      -1.2645156622     -1.3180178209      0.1310941472
12
Frame=595  time=298.000fs  energy=-306.17045101Ha  molecule=COOCCCHHHHHH
C      -0.0275734935      0.2526725802      0.1718629194
O       0.1762429272      1.4893910415      0.2492232705
O      -0.3793079331      2.6457676095      0.9268850345
C       0.7911773788     -0.1702998397     -0.9855596922
C       0.8936698196     -1.3788181301     -1.5463348510
C      -0.6717877425     -0.9311071876      0.9342106169
H       1.4743777906      0.6584497933     -1.1937726560
H       0.1120489108     -2.0672046351     -1.5994104192
H       1.6500021851     -1.7102566950     -2.2949336052
H      -1.1726510504     -0.5477879397      1.7655281449
H       0.0732886927     -1.6149310548      1.5104723150
H      -1.2625115989     -1.3377639535      0.1344164995
12
Frame=596  time=298.500fs  energy=-306.16951840Ha  molecule=COOCCCHHHHHH
C      -0.0310250970      0.2539086153      0.1735519943
O       0.1732896482      1.4865899788      0.2484339793
O      -0.3892417502      2.6513624295      0.9323912422
C       0.7917875252     -0.1693080108     -0.9852673386
C       0.9021065786     -1.3822521416     -1.5479909315
C      -0.6664611222     -0.9304678402      0.9302191287
H       1.5218222146      0.6751517552     -1.1904065688
H       0.1075219922     -2.0933012200     -1.6346497707
H       1.6592378388     -1.6962673148     -2.3125674156
H      -1.1512473690     -0.5675447578      1.7724697361
H       0.0734489208     -1.6154379840      1.5175781802
H      -1.2618220148     -1.3596859766      0.1386917842
12
Frame=597  time=299.000fs  energy=-306.16813886Ha  molecule=COOCCCHHHHHH
C      -0.0341065491      0.2551509461      0.1750406448
O       0.1700836902      1.4840557977      0.2478987948
O      -0.3990637201      2.6566318277      0.9377828037
C       0.7927712530     -0.1682643363     -0.9849679604
C       0.9106951570     -1.3856195524     -1.5499811359
C      -0.6606796259     -0.9296859265      0.9263476698
H       1.5668951007      0.6875836590     -1.1886713635
H       0.1017436850     -2.1216172791     -1.6681157378
H       1.6672505410     -1.6784090599     -2.3279229311
H      -1.1361468079     -0.5852548364      1.7827463544
H       0.0718212576     -1.6157640453      1.5205104369
H      -1.2620523430     -1.3834710919      0.1440270594
12
Frame=598  time=299.500fs  energy=-306.16662783Ha  molecule=COOCCCHHHHHH
C      -0.0368260499      0.2563843775      0.1763278848
O       0.1666380451      1.4818125562      0.2476192544
O      -0.4087712597      2.6615782072      0.9430538245
C       0.7942522240     -0.1670929920     -0.9847035317
C       0.9192440800     -1.3891127928     -1.5523903388
C      -0.6545005495     -0.9288303133      0.9225958175
H       1.6078549188      0.6947186965     -1.1877173049
H       0.0967871242     -2.1498068680     -1.6991423126
H       1.6741884946     -1.6567398952     -2.3406761034
H      -1.1273438208     -0.6007805132      1.7961035074
H       0.0688525368     -1.6157638330      1.5189838347
H      -1.2627934291     -1.4086923164      0.1507198051
12
Frame=599  time=300.000fs  energy=-306.16523305Ha  molecule=COOCCCHHHHHH
C      -0.0391909040      0.2575856682      0.1774148357
O       0.1629643041      1.4798824993      0.2475972481
O      -0.4183622403      2.6662030032      0.9481987676
C       0.7962958372     -0.1657730081     -0.9845071936
C       0.9276150673     -1.3928666366     -1.5552816818
C      -0.6480431316     -0.9279421728      0.9190274437
H       1.6435931293      0.6961436952     -1.1869623647
H       0.0942245341     -2.1759536599     -1.7270615581
H       1.6802447684     -1.6314425673     -2.3507136177
H      -1.1243676014     -0.6142526735      1.8114303848
H       0.0651549426     -1.6154242862      1.5128152396
H      -1.2636263787     -1.4348044039      0.1591314275
12
Frame=600  time=300.500fs  energy=-306.16413466Ha  molecule=COOCCCHHHHHH
C      -0.0412000489      0.2587245544      0.1782934469
O       0.1590699792      1.4782851528      0.2478372052
O      -0.4278360371      2.6705078922      0.9532140158
C       0.7989317604     -0.1643202218     -0.9844044242
C       0.9357193154     -1.3969433545     -1.5586845219
C      -0.6414638459     -0.9270474194      0.9157481102
H       1.6734333085      0.6917524542     -1.1860654467
H       0.0951106575     -2.1986877936     -1.7513260977
H       1.6856129978     -1.6028067018     -2.3580924148
H      -1.1264562235     -0.6259340911      1.8271222516
H       0.0614350047     -1.6148156950      1.5019256602
H      -1.2641641313     -1.4611846583      0.1695926879
12
Frame=601  time=301.000fs  energy=-306.16347178Ha  molecule=COOCCCHHHHHH
C      -0.0428459264      0.2597688721      0.1789455864
O       0.1549591057      1.4770349204      0.2483454478
O      -0.4371943296      2.6744969475      0.9580988851
C       0.8021696486     -0.1627706932     -0.9844105161
C       0.9434975710     -1.4013458829     -1.5625966663
C      -0.6349304126     -0.9261690147      0.9128747985
H       1.6970010238      0.6815916195     -1.1848895395
H       0.1001521227     -2.2170824976     -1.7715444303
H       1.6905182761     -1.5712437249     -2.3630487721
H      -1.1327190968     -0.6360977204      1.8415006432
H       0.0584107019     -1.6140345692      1.4863435375
H      -1.2641103525     -1.4871973010      0.1823500543
12
Frame=602  time=301.500fs  energy=-306.16333949Ha  molecule=COOCCCHHHHHH
C      -0.0441196408      0.2606886558      0.1793480081
O       0.1506351209      1.4761400548      0.2491273475
O      -0.4464407643      2.6781767157      0.9628552363
C       0.8060085101     -0.1611676959     -0.9845289783
C       0.9509062415     -1.4060344125     -1.5669906191
C      -0.6286034051     -0.9253320882      0.9105154305
H       1.7141103934      0.6658123669     -1.1834325480
H       0.1098095673     -2.2305665285     -1.7874801328
H       1.6952654313     -1.5372965461     -2.3660179923
H      -1.1422385567     -0.6449602640      1.8531095197
H       0.0567454328     -1.6131681522      1.4662087814
H      -1.2632836419     -1.5122549887      0.1975067753
12
Frame=603  time=302.000fs  energy=-306.16376514Ha  molecule=COOCCCHHHHHH
C      -0.0450140025      0.2614586060      0.1794762237
O       0.1461034192      1.4756037112      0.2501849165
O      -0.4555796719      2.6815541799      0.9674860521
C       0.8104411783     -0.1595541507     -0.9847510815
C       0.9579132749     -1.4109405985     -1.5718220927
C      -0.6226281336     -0.9245616923      0.9087604471
H       1.7246727973      0.6446901170     -1.1817478997
H       0.1243185678     -2.2388881369     -1.7990394250
H       1.7002449988     -1.5016181230     -2.3676082032
H      -1.1541102118     -0.6526647817      1.8608388370
H       0.0570213775     -1.6123036678      1.4417944957
H      -1.2616116965     -1.5358655215      0.2149705979
12
Frame=604  time=302.500fs  energy=-306.16468876Ha  molecule=COOCCCHHHHHH
C      -0.0455230706      0.2620598203      0.1793043402
O       0.1413722082      1.4754260517      0.2515161241
O      -0.4646146780      2.6846342474      0.9719938596
C       0.8154531819     -0.1579731089     -0.9850552315
C       0.9645030252     -1.4159757775     -1.5770410223
C      -0.6171342198     -0.9238766989      0.9076786260
H       1.7286765467      0.6186811451     -1.1799000035
H       0.1436630286     -2.2421267128     -1.8062621993
H       1.7058739544     -1.4649103983     -2.3684979665
H      -1.1674582837     -0.6592905123      1.8639418374
H       0.0597528546     -1.6115836677      1.4135531113
H      -1.2591138253     -1.5576559187      0.2344458813
12
Frame=605  time=303.000fs  energy=-306.16594778Ha  molecule=COOCCCHHHHHH
C      -0.0456390856      0.2624806996      0.1788010272
O       0.1364519624      1.4756062511      0.2531153985
O      -0.4735479149      2.6874183172      0.9763797619
C       0.8210137270     -0.1564780699     -0.9854043876
C       0.9706868874     -1.4210284193     -1.5826011353
C      -0.6122361860     -0.9232848149      0.9073128839
H       1.7262645702      0.5884730034     -1.1779876127
H       0.1675342887     -2.2407314387     -1.8093212066
H       1.7124867775     -1.4278401136     -2.3692799807
H      -1.1814575173     -0.6648736514      1.8620251579
H       0.0653991764     -1.6112639060      1.3821476062
H      -1.2558723620     -1.5773764252      0.2554672867
12
Frame=606  time=303.500fs  energy=-306.16727503Ha  molecule=COOCCCHHHHHH
C      -0.0453492609      0.2627163297      0.1779249778
O       0.1313537687      1.4761438346      0.2549747501
O      -0.4823801729      2.6899047111      0.9806435028
C       0.8270577699     -0.1551512113     -0.9857416193
C       0.9765118117     -1.4259523750     -1.5884610457
C      -0.6080287654     -0.9227825303      0.9076774228
H       1.7179112125      0.5549949886     -1.1762415820
H       0.1953359191     -2.2355131263     -1.8085139367
H       1.7202265909     -1.3909836660     -2.3703373482
H      -1.1953646611     -0.6694304602      1.8550406207
H       0.0743352565     -1.6117113032      1.3484189928
H      -1.2519978342     -1.5948973471      0.2774357305
12
Frame=607  time=304.000fs  energy=-306.16833640Ha  molecule=COOCCCHHHHHH
C      -0.0446366277      0.2627669383      0.1766281146
O       0.1260866739      1.4770382309      0.2570853264
O      -0.4911119955      2.6920910471      0.9847845504
C       0.8334692575     -0.1541159375     -0.9859903100
C       0.9820621610     -1.4305575465     -1.5945738596
C      -0.6045762441     -0.9223614714      0.9087570043
H       1.7046241661      0.5193824821     -1.1751356327
H       0.2262264041     -2.2275782739     -1.8042436568
H       1.7289949541     -1.3548430719     -2.3718406048
H      -1.2085444160     -0.6729732359      1.8432688451
H       0.0867828006     -1.6133052326      1.3132806126
H      -1.2476084693     -1.6102042495      0.2996364253
12
Frame=608  time=304.500fs  energy=-306.16880947Ha  molecule=COOCCCHHHHHH
C      -0.0434885464      0.2626383243      0.1748748977
O       0.1206557343      1.4782842752      0.2594382728
O      -0.4997451840      2.6939779025      0.9888035180
C       0.8400952045     -0.1535144083     -0.9860710756
C       0.9874635269     -1.4346166049     -1.6008737468
C      -0.6019031614     -0.9220193956      0.9105087759
H       1.6878882183      0.4828549433     -1.1753426494
H       0.2590472737     -2.2183823966     -1.7970404336
H       1.7384849210     -1.3199128710     -2.3738600709
H      -1.2204765864     -0.6755057242      1.8272807436
H       0.1027517877     -1.6162657997      1.2775805544
H      -1.2428372431     -1.6233805989      0.3212581860
12
Frame=609  time=305.000fs  energy=-306.16838447Ha  molecule=COOCCCHHHHHH
C      -0.0419094844      0.2623460685      0.1726699527
O       0.1150636021      1.4798665414      0.2620236491
O      -0.5082834870      2.6955713806      0.9927027034
C       0.8467788879     -0.1534637127     -0.9859308346
C       0.9928977639     -1.4378860273     -1.6072752812
C      -0.5999951153     -0.9217671097      0.9128697292
H       1.6694053177      0.4466717784     -1.1775007052
H       0.2920926583     -2.2100162149     -1.7876728129
H       1.7482585435     -1.2867176103     -2.3764695748
H      -1.2307453004     -0.6770030206      1.8078828961
H       0.1220394332     -1.6205257270      1.2420274208
H      -1.2378558390     -1.6345782604      0.3414327819
12
Frame=610  time=305.500fs  energy=-306.16689676Ha  molecule=COOCCCHHHHHH
C      -0.0399258389      0.2619206290      0.1700647158
O       0.1093130338      1.4817620218      0.2648303853
O      -0.5167313682      2.6968802148      0.9964854230
C       0.8533287078     -0.1540773110     -0.9855481745
C       0.9986090782     -1.4401289907     -1.6136928496
C      -0.5988073256     -0.9216256368      0.9157658342
H       1.6514683280      0.4126937833     -1.1821089888
H       0.3230259953     -2.2053600123     -1.7772039632
H       1.7578287072     -1.2558086047     -2.3797578823
H      -1.2390472793     -0.6773977668      1.7860957856
H       0.1442619969     -1.6257508911      1.2072285717
H      -1.2328718123     -1.6439838085      0.3593004464
12
Frame=611  time=306.000fs  energy=-306.16477819Ha  molecule=COOCCCHHHHHH
C      -0.0375737126      0.2614121285      0.1671260558
O       0.1034021937      1.4839482128      0.2678518578
O      -0.5250915934      2.6979069719      1.0001552773
C       0.8594937370     -0.1555122442     -0.9849010523
C       1.0048550920     -1.4411539631     -1.6200734143
C      -0.5982701847     -0.9216286715      0.9191095318
H       1.6372292103      0.3838079310     -1.1896659994
H       0.3493746193     -2.2074553947     -1.7666770527
H       1.7667608515     -1.2278085432     -2.3838448709
H      -1.2452741870     -0.6765662365      1.7632005677
H       0.1688444894     -1.6314167094      1.1737153327
H      -1.2280692471     -1.6517585419      0.3741100898
12
Frame=612  time=306.500fs  energy=-306.16310670Ha  molecule=COOCCCHHHHHH
C      -0.0348827316      0.2608876738      0.1639053792
O       0.0973207167      1.4864046460      0.2710879463
O      -0.5333649836      2.6986456302      1.0037161994
C       0.8649756743     -0.1579834722     -0.9839363819
C       1.0118134157     -1.4408693297     -1.6264153261
C      -0.5982809954     -0.9218338557      0.9227877813
H       1.6305360160      0.3637114263     -1.2008716197
H       0.3695557949     -2.2182939519     -1.7566875283
H       1.7746714554     -1.2034423452     -2.3888570419
H      -1.2496345285     -0.6743301655      1.7407644736
H       0.1949538574     -1.6368384694      1.1419027138
H      -1.2235433671     -1.6579686185      0.3853229906
12
Frame=613  time=307.000fs  energy=-306.16296925Ha  molecule=COOCCCHHHHHH
C      -0.0318788420      0.2604010212      0.1604391103
O       0.0910610393      1.4891146013      0.2745340899
O      -0.5415529414      2.6990901675      1.0071725812
C       0.8695389064     -0.1616713604     -0.9825933243
C       1.0195322510     -1.4392945623     -1.6327550277
C      -0.5986891402     -0.9223147976      0.9266559572
H       1.6344754785      0.3554276186     -1.2163920315
H       0.3834942085     -2.2381805559     -1.7473797215
H       1.7811161077     -1.1834265596     -2.3947671720
H      -1.2527103286     -0.6705123717      1.7205353450
H       0.2215191362     -1.6412422806      1.1121033437
H      -1.2193182349     -1.6625881500      0.3926633061
12
Frame=614  time=307.500fs  energy=-306.16420254Ha  molecule=COOCCCHHHHHH
C      -0.0285865395      0.2599650596      0.1567469379
O       0.0846311143      1.4920712066      0.2781716256
O      -0.5496567708      2.6992376307      1.0105272262
C       0.8731947749     -0.1665860069     -0.9808633832
C       1.0279350134     -1.4365290558     -1.6391408603
C      -0.5993002132     -0.9231426764      0.9305470156
H       1.6489228146      0.3594181589     -1.2360865433
H       0.3925013449     -2.2657944041     -1.7386062468
H       1.7856208072     -1.1683169295     -2.4013421826
H      -1.2553683305     -0.6649965330      1.7042194911
H       0.2473445537     -1.6438786835      1.0845906316
H      -1.2153968293     -1.6655543060      0.3961126438
12
Frame=615  time=308.000fs  energy=-306.16561710Ha  molecule=COOCCCHHHHHH
C      -0.0250176411      0.2595618716      0.1528265930
O       0.0780507313      1.4952709460      0.2819710304
O      -0.5576764470      2.6990873338      1.0137809110
C       0.8761991553     -0.1725614966     -0.9788090856
C       1.0368576797     -1.4327215597     -1.6456125049
C      -0.5999085747     -0.9243717759      0.9342972418
H       1.6703517690      0.3735096278     -1.2586812608
H       0.3987422621     -2.2985742264     -1.7300173346
H       1.7878991624     -1.1584995033     -2.4083620775
H      -1.2584924439     -0.6577573166      1.6931851938
H       0.2712489204     -1.6441091683      1.0596182446
H      -1.2117851885     -1.6668102062      0.3958575616
12
Frame=616  time=308.500fs  energy=-306.16643569Ha  molecule=COOCCCHHHHHH
C      -0.0211661806      0.2591744554      0.1486584246
O       0.0713366697      1.4986996116      0.2859033697
O      -0.5656127660      2.6986414460      1.0169357968
C       0.8788836192     -0.1793800422     -0.9765225831
C       1.0461093096     -1.4280174042     -1.6521747158
C      -0.6003474380     -0.9260277218      0.9377738548
H       1.6941007268      0.3945007610     -1.2824013029
H       0.4043846152     -2.3336735871     -1.7212233908
H       1.7879947763     -1.1542031698     -2.4158519359
H      -1.2626146297     -0.6488590141      1.6881744629
H       0.2922424982     -1.6414866542      1.0373835637
H      -1.2084993698     -1.6663192977      0.3922154513
12
Frame=617  time=309.000fs  energy=-306.16650932Ha  molecule=COOCCCHHHHHH
C      -0.0170243404      0.2588082632      0.1442198016
O       0.0644986244      1.5023274413      0.2899446380
O      -0.5734690878      2.6979029425      1.0199972367
C       0.8815403206     -0.1868644564     -0.9740911612
C       1.0554699339     -1.4225762101     -1.6587859030
C      -0.6005200908     -0.9281017900      0.9408844665
H       1.7162290065      0.4194822602     -1.3056973357
H       0.4114805103     -2.3681602882     -1.7119078421
H       1.7862547424     -1.1554188848     -2.4240731262
H      -1.2676978767     -0.6384687867      1.6892306930
H       0.3096243405     -1.6358311060      1.0180668670
H      -1.2055403064     -1.6640794645      0.3855693088
12
Frame=618  time=309.500fs  energy=-306.16605702Ha  molecule=COOCCCHHHHHH
C      -0.0126072278      0.2584944369      0.1395139692
O       0.0575490057      1.5061080117      0.2940681629
O      -0.5812501653      2.6968737175      1.0229712173
C       0.8843933667     -0.1948662106     -0.9716047863
C       1.0647000460     -1.4166087803     -1.6653752535
C      -0.6003997418     -0.9305547330      0.9435791172
H       1.7339708687      0.4461170900     -1.3274121668
H       0.4220121628     -2.3989612701     -1.7018959877
H       1.7832346524     -1.1618434521     -2.4333988293
H      -1.2731662764     -0.6269012587      1.6958419042
H       0.3229390069     -1.6272150915      1.0019496856
H      -1.2028778046     -1.6601326308      0.3763041206
12
Frame=619  time=310.000fs  energy=-306.16548555Ha  molecule=COOCCCHHHHHH
C      -0.0079643538      0.2582747051      0.1345929389
O       0.0505092740      1.5099851386      0.2982393629
O      -0.5889600402      2.6955545525      1.0258614313
C       0.8876298475     -0.2032155317     -0.9691728043
C       1.0735960759     -1.4103462677     -1.6718659621
C      -0.6000140676     -0.9333225834      0.9458479541
H       1.7453301880      0.4725332881     -1.3465555194
H       0.4374329756     -2.4235858382     -1.6912090681
H       1.7796254371     -1.1729644337     -2.4442983538
H      -1.2781014452     -0.6146197004      1.7071265532
H       0.3319344775     -1.6158839720      0.9894310662
H      -1.2004867484     -1.6545500188      0.3647783452
12
Frame=620  time=310.500fs  energy=-306.16525858Ha  molecule=COOCCCHHHHHH
C      -0.0031699778      0.2581871355      0.1295482057
O       0.0434075200      1.5139045026      0.3024183531
O      -0.5966012748      2.6939451649      1.0286689433
C       0.8914105605     -0.2117262473     -0.9669123327
C       1.0820147969     -1.4040076701     -1.6781918835
C      -0.5994249967     -0.9363229057      0.9477085843
H       1.7488833698      0.4973648647     -1.3622379194
H       0.4584807610     -2.4404673637     -1.6799948956
H       1.7761495800     -1.1881653781     -2.4572821701
H      -1.2815058813     -0.6021713586      1.7220244548
H       0.3365839858     -1.6022045403      0.9809174817
H      -1.1983662933     -1.6474127840      0.3513379972
12
Frame=621  time=311.000fs  energy=-306.16564225Ha  molecule=COOCCCHHHHHH
C       0.0016947817      0.2582662153      0.1244854956
O       0.0362759427      1.5178164045      0.3065622362
O      -0.6041754224      2.6920447693      1.0313933188
C       0.8958368378     -0.2202415963     -0.9649171982
C       1.0898712879     -1.3977790006     -1.6843050511
C      -0.5987132355     -0.9394612690      0.9491910942
H       1.7440164205      0.5198952594     -1.3739019919
H       0.4852542868     -2.4489092978     -1.6684153056
H       1.7734658016     -1.2066679494     -2.4727315429
H      -1.2824978293     -0.5901136708      1.7394630468
H       0.3371124721     -1.5866777709      0.9767351278
H      -1.1965202633     -1.6388071604      0.3363310616
12
Frame=622  time=311.500fs  energy=-306.16658572Ha  molecule=COOCCCHHHHHH
C       0.0065519143      0.2585488371      0.1195087089
O       0.0291498166      1.5216714225      0.3106258023
O      -0.6116838573      2.6898533332      1.0340338325
C       0.9009557209     -0.2286323786     -0.9632489599
C       1.0971364509     -1.3918015172     -1.6901828219
C      -0.5979697944     -0.9426351349      0.9503294571
H       1.7307348507      0.5397399298     -1.3813966727
H       0.5173139970     -2.4490108978     -1.6565718209
H       1.7721168853     -1.2274270379     -2.4907493625
H      -1.2803943529     -0.5789715793      1.7584443658
H       0.3339922992     -1.5699699832      0.9771206122
H      -1.1949504961     -1.6288360349      0.3201221643
12
Frame=623  time=312.000fs  energy=-306.16785458Ha  molecule=COOCCCHHHHHH
C       0.0113293337      0.2590774347      0.1147145740
O       0.0220657622      1.5254169199      0.3145631535
O      -0.6191285034      2.6873726000      1.0365903570
C       0.9067827583     -0.2367658309     -0.9619418657
C       1.1038390236     -1.3861692150     -1.6958391267
C      -0.5972911706     -0.9457363876      0.9511592212
H       1.7093246850      0.5564678259     -1.3848700358
H       0.5538009287     -2.4415898612     -1.6444900520
H       1.7724673858     -1.2492034275     -2.5111126927
H      -1.2747379199     -0.5692111924      1.7780762460
H       0.3279183283     -1.5529225882      0.9822469949
H      -1.1936705683     -1.6176305087      0.3031095672
12
Frame=624  time=312.500fs  energy=-306.16920514Ha  molecule=COOCCCHHHHHH
C       0.0159640095      0.2598986106      0.1101896600
O       0.0150592654      1.5289981164      0.3183304457
O      -0.6265122887      2.6846059390      1.0390638933
C       0.9133101773     -0.2444796754     -0.9610013784
C       1.1100683685     -1.3809371117     -1.7013394643
C      -0.5967786885     -0.9486574344      0.9517192267
H       1.6801923040      0.5695414944     -1.3846099137
H       0.5936111975     -2.4280587958     -1.6321674351
H       1.7745947795     -1.2708510050     -2.5332880666
H      -1.2653001062     -0.5612094943      1.7975824003
H       0.3197780962     -1.5365155510      0.9922202202
H      -1.1927069408     -1.6053292489      0.2857466469
12
Frame=625  time=313.000fs  energy=-306.17047627Ha  molecule=COOCCCHHHHHH
C       0.0204079304      0.2610575633      0.1060058192
O       0.0081627134      1.5323642744      0.3218883089
O      -0.6338391266      2.6815564225      1.0414566051
C       0.9205037626     -0.2515726773     -0.9603966607
C       1.1159714342     -1.3761349225     -1.7068096733
C      -0.5965420051     -0.9513041829      0.9520561787
H       1.6438233454      0.5785016809     -1.3808783698
H       0.6355923180     -2.4102851575     -1.6196601552
H       1.7781918642     -1.2916474991     -2.5564784022
H      -1.2520533732     -0.5552238236      1.8162931856
H       0.3106087856     -1.5217537499      1.0070167149
H      -1.1920667880     -1.5920127422      0.2685576536
12
Frame=626  time=313.500fs  energy=-306.17159700Ha  molecule=COOCCCHHHHHH
C       0.0246332058      0.2625876650      0.1022172812
O       0.0014053023      1.5354754017      0.3252019365
O      -0.6411133172      2.6782238145      1.0437712185
C       0.9282972807     -0.2578266013     -0.9600600561
C       1.1217302685     -1.3717667816     -1.7124120787
C      -0.5966965555     -0.9536060820      0.9522253032
H       1.6007970490      0.5832085212     -1.3738169479
H       0.6786580177     -2.3904781396     -1.6071086958
H       1.7826658573     -1.3114125574     -2.5798214646
H      -1.2351020538     -0.5513982066      1.8335992152
H       0.3015170880     -1.5094969266      1.0264289923
H      -1.1917199872     -1.5776596792      0.2521122597
12
Frame=627  time=314.000fs  energy=-306.17248328Ha  molecule=COOCCCHHHHHH
C       0.0286323166      0.2644988459      0.0988652676
O      -0.0051862327      1.5383017065      0.3282394316
O      -0.6483388315      2.6746034356      1.0460102936
C       0.9365761843     -0.2630841849     -0.9598991392
C       1.1275148512     -1.3677983627     -1.7182861032
C      -0.5973394022     -0.9555050751      0.9522763471
H       1.5520101531      0.5840781729     -1.3636375828
H       0.7218777084     -2.3707985341     -1.5946075238
H       1.7874017391     -1.3302730467     -2.6026329992
H      -1.2146072740     -0.5498410007      1.8488687987
H       0.2935521953     -1.5003391173      1.0501197536
H      -1.1916813960     -1.5622421994      0.2369432857
12
Frame=628  time=314.500fs  energy=-306.17286617Ha  molecule=COOCCCHHHHHH
C       0.0324122809      0.2667749822      0.0959887077
O      -0.0115901214      1.5408170868      0.3309735527
O      -0.6555189812      2.6706890193      1.0481760959
C       0.9451579403     -0.2673572861     -0.9598156059
C       1.1334509018     -1.3641350061     -1.7244997948
C      -0.5985076589     -0.9569333639      0.9522329889
H       1.4990852319      0.5822763655     -1.3511120842
H       0.7644923787     -2.3528918337     -1.5820124185
H       1.7918496952     -1.3482253809     -2.6243129015
H      -1.1907854460     -0.5507104450      1.8614097075
H       0.2875348693     -1.4945750262      1.0777037591
H      -1.1921264549     -1.5459198770      0.2234455258
12
Frame=629  time=315.000fs  energy=-306.17243629Ha  molecule=COOCCCHHHHHH
C       0.0359818840      0.2693854069      0.0936332683
O      -0.0177955614      1.5429950918      0.3333885900
O      -0.6626561981      2.6664769021      1.0502707288
C       0.9538115010     -0.2708509764     -0.9597247748
C       1.1396295992     -1.3605977009     -1.7310479726
C      -0.6001535867     -0.9578171046      0.9520926526
H       1.4444444591      0.5796402171     -1.3378606552
H       0.8057424014     -2.3381190545     -1.5688844028
H       1.7954502273     -1.3649007277     -2.6441217753
H      -1.1640044942     -0.5541919767      1.8705556323
H       0.2838891818     -1.4921929803      1.1087007263
H      -1.1933540593     -1.5290898383      0.2118390521
12
Frame=630  time=315.500fs  energy=-306.17122929Ha  molecule=COOCCCHHHHHH
C       0.0393444366      0.2723061812      0.0918487077
O      -0.0238062010      1.5448097541      0.3354852030
O      -0.6697514281      2.6619675219      1.0522955839
C       0.9623074475     -0.2738675913     -0.9595591057
C       1.1461226263     -1.3569585631     -1.7378894591
C      -0.6021574632     -0.9581128707      0.9518485127
H       1.3908509410      0.5783549688     -1.3261130282
H       0.8448229301     -2.3279857979     -1.5546226871
H       1.7976766097     -1.3796681678     -2.6612540659
H      -1.1348896717     -0.5603563559      1.8758282700
H       0.2825820773     -1.4929106733      1.1424592222
H      -1.1956509856     -1.5122139891      0.2022373093
12
Frame=631  time=316.000fs  energy=-306.16969622Ha  molecule=COOCCCHHHHHH
C       0.0425022254      0.2755358638      0.0906794937
O      -0.0296372063      1.5462381573      0.3372773129
O      -0.6768037366      2.6571645024      1.0542507215
C       0.9704534361     -0.2767137797     -0.9592619581
C       1.1529728021     -1.3530258842     -1.7449743833
C      -0.6043504922     -0.9578347972      0.9514992491
H       1.3408404075      0.5806318932     -1.3182467369
H       0.8811313809     -2.3237925882     -1.5386644364
H       1.7981532825     -1.3918230501     -2.6750578326
H      -1.1043841561     -0.5690017334      1.8771141433
H       0.2831885399     -1.4962858368      1.1781620803
H      -1.1992376183     -1.4956903256      0.1947283742
12
Frame=632  time=316.500fs  energy=-306.16835595Ha  molecule=COOCCCHHHHHH
C       0.0454654409      0.2790933184      0.0901550290
O      -0.0353080977      1.5472628765      0.3387842257
O      -0.6838109656      2.6520739203      1.0561353125
C       0.9781215487     -0.2796406820     -0.9587990329
C       1.1601767407     -1.3487050690     -1.7522354919
C      -0.6065319801     -0.9570518187      0.9510407963
H       1.2961653104      0.5882104838     -1.3162177888
H       0.9144809327     -2.3259365671     -1.5206699862
H       1.7967495208     -1.4007612420     -2.6852345380
H      -1.0737459881     -0.5795738893      1.8748307750
H       0.2849921414     -1.5018189172      1.2148287106
H      -1.2042471106     -1.4798768647      0.1893877708
12
Frame=633  time=317.000fs  energy=-306.16736097Ha  molecule=COOCCCHHHHHH
C       0.0482605337      0.2830003123      0.0902807721
O      -0.0408341227      1.5478696974      0.3400209838
O      -0.6907706406      2.6467034731      1.0579483667
C       0.9852592809     -0.2827774517     -0.9581775871
C       1.1676845112     -1.3440261900     -1.7595743170
C      -0.6084937930     -0.9558674331      0.9504628243
H       1.2574816429      0.6018039975     -1.3210349828
H       0.9450839846     -2.3336353130     -1.5006627159
H       1.7935832444     -1.4060278554     -2.6918779248
H      -1.0444079211     -0.5912375441      1.8699418554
H       0.2870740081     -1.5089669410      1.2513190537
H      -1.2106861430     -1.4651276492      0.1862658880
12
Frame=634  time=317.500fs  energy=-306.16645105Ha  molecule=COOCCCHHHHHH
C       0.0509240031      0.2872617042      0.0910436155
O      -0.0462185755      1.5480413624      0.3409891483
O      -0.6976805641      2.6410606756      1.0596891653
C       0.9918721579     -0.2860871870     -0.9574581019
C       1.1754155000     -1.3391394087     -1.7668597207
C      -0.6100468373     -0.9543934959      0.9497483747
H       1.2245370648      0.6208379267     -1.3325854502
H       0.9733898495     -2.3451344022     -1.4790563587
H       1.7889376734     -1.4072295950     -2.6953465448
H      -1.0177770769     -0.6030444239      1.8638213971
H       0.2884397573     -1.5171355299      1.2863976798
H      -1.2184094668     -1.4517792328      0.1853864906
12
Frame=635  time=318.000fs  energy=-306.16530355Ha  molecule=COOCCCHHHHHH
C       0.0534858460      0.2918541615      0.0924249026
O      -0.0514516705      1.5477577331      0.3416757464
O      -0.7045394522      2.6351513888      1.0613578146
C       0.9979934835     -0.2893873144     -0.9567494214
C       1.1832765843     -1.3342685882     -1.7739350347
C      -0.6110395800     -0.9527299549      0.9488721691
H       1.1966553961      0.6436477621     -1.3498519343
H       0.9999094163     -2.3581641910     -1.4565466400
H       1.7832059124     -1.4040269777     -2.6961974294
H      -0.9950871052     -0.6140720920      1.8580805882
H       0.2881903025     -1.5257250025      1.3188612887
H      -1.2271382189     -1.4401106551      0.1867350746
12
Frame=636  time=318.500fs  energy=-306.16388803Ha  molecule=COOCCCHHHHHH
C       0.0559587844      0.2967298065      0.0944071464
O      -0.0565163857      1.5470045706      0.3420616301
O      -0.7113477725      2.6289800853      1.0629561209
C       1.0036617592     -0.2924369466     -0.9561786086
C       1.1911729495     -1.3296414143     -1.7806305092
C      -0.6113633047     -0.9509572285      0.9478071484
H       1.1731644609      0.6682025520     -1.3714121179
H       1.0250977580     -2.3704783397     -1.4339347010
H       1.7769141669     -1.3962586582     -2.6952581357
H      -0.9773174554     -0.6235046771      1.8543407145
H       0.2856146124     -1.5341952671      1.3476502737
H      -1.2365298428     -1.4303280714      0.1902537655
12
Frame=637  time=319.000fs  energy=-306.16245276Ha  molecule=COOCCCHHHHHH
C       0.0583409341      0.3018297964      0.0969722867
O      -0.0613949377      1.5457806180      0.3421304972
O      -0.7181079009      2.6225516126      1.0644877746
C       1.0089149034     -0.2950240454     -0.9558474710
C       1.1990104215     -1.3254386994     -1.7867782401
C      -0.6109479842     -0.9491354311      0.9465405993
H       1.1535147800      0.6928681224     -1.3959106504
H       1.0493219071     -2.3802871804     -1.4120038829
H       1.7707657652     -1.3840431647     -2.6937051273
H      -0.9651775871     -0.6306758934      1.8539495906
H       0.2801945958     -1.5421062016      1.3718759875
H      -1.2462638901     -1.4225864150      0.1958671145
12
Frame=638  time=319.500fs  energy=-306.16127979Ha  molecule=COOCCCHHHHHH
C       0.0606241435      0.3070903026      0.1000993093
O      -0.0660732468      1.5440986485      0.3418737784
O      -0.7248227704      2.6158728812      1.0659568500
C       1.0137920770     -0.2969746607     -0.9558183723
C       1.2066950874     -1.3217852352     -1.7922210206
C      -0.6097606019     -0.9473009921      0.9450916053
H       1.1372030854      0.7164387742     -1.4221707175
H       1.0728872520     -2.3863968246     -1.3914924630
H       1.7656124149     -1.3677420669     -2.6929908464
H      -0.9590900904     -0.6351163219      1.8576824546
H       0.2716389725     -1.5491417739      1.3908187187
H      -1.2561011012     -1.4170012691      0.2034976639
12
Frame=639  time=320.000fs  energy=-306.16056359Ha  molecule=COOCCCHHHHHH
C       0.0628005829      0.3124352418      0.1037636110
O      -0.0705450480      1.5419871657      0.3412938702
O      -0.7314940758      2.6089535356      1.0673658025
C       1.0183313399     -0.2981315086     -0.9561339225
C       1.2141401909     -1.3187632983     -1.7968206895
C      -0.6078095119     -0.9454610715      0.9435240077
H       1.1237554727      0.7378429153     -1.4490963906
H       1.0960577684     -2.3880957222     -1.3730804827
H       1.7623011152     -1.3478302492     -2.6945655431
H      -0.9591368876     -0.6366084792      1.8655063958
H       0.2599470639     -1.5551360949      1.4039595553
H      -1.2658953532     -1.4136284617      0.2130483885
12
Frame=640  time=320.500fs  energy=-306.16038402Ha  molecule=COOCCCHHHHHH
C       0.0648676067      0.3177647348      0.1079345361
O      -0.0748149255      1.5394949608      0.3404066730
O      -0.7381214964      2.6018057839      1.0687146471
C       1.0225644218     -0.2983604519     -0.9568344186
C       1.2212819608     -1.3164228370     -1.8004757097
C      -0.6051491447     -0.9435922809      0.9419472475
H       1.1127742849      0.7561097319     -1.4756699507
H       1.1190399190     -2.3850007852     -1.3573383396
H       1.7614514591     -1.3247677342     -2.6994986617
H      -0.9650294792     -0.6351946733      1.8765484787
H       0.2454397005     -1.5600943846      1.4110185213
H      -1.2755547404     -1.4124326873      0.2243731006
12
Frame=641  time=321.000fs  energy=-306.16069657Ha  molecule=COOCCCHHHHHH
C       0.0668296750      0.3229488303      0.1125730410
O      -0.0788975955      1.5366931657      0.3392407386
O      -0.7447034453      2.5944437899      1.0700019074
C       1.0265118377     -0.2975644681     -0.9579588506
C       1.2280938527     -1.3147824262     -1.8031394795
C      -0.6018779577     -0.9416470254      0.9404997522
H       1.1039792471      0.7704505960     -1.5010460979
H       1.1419575386     -2.3769765860     -1.3446776184
H       1.7632874714     -1.2989439040     -2.7081962691
H      -0.9761574618     -0.6311175098      1.8893342396
H       0.2287359951     -1.5641848641      1.4119555763
H      -1.2849760074     -1.4132678550      0.2372538879
12
Frame=642  time=321.500fs  energy=-306.16135654Ha  molecule=COOCCCHHHHHH
C       0.0686970964      0.3278307882      0.1176317514
O      -0.0828137604      1.5336718607      0.3378323796
O      -0.7512384862      2.5868828886      1.0712263441
C       1.0301805505     -0.2956867212     -0.9595378285
C       1.2345907313     -1.3138232130     -1.8048287167
C      -0.5981281960     -0.9395649855      0.9393207558
H       1.0972113799      0.7802962507     -1.5246214502
H       1.1648466488     -2.3641356833     -1.3353293554
H       1.7675932813     -1.2707124506     -2.7203179657
H      -0.9916943602     -0.6247341635      1.9021844707
H       0.2106824627     -1.5676981615      1.4069440346
H      -1.2939945663     -1.4158768625      0.2513965211
12
Frame=643  time=322.000fs  energy=-306.16216023Ha  molecule=COOCCCHHHHHH
C       0.0704837564      0.3322354865      0.1230567324
O      -0.0865864109      1.5305356241      0.3362205854
O      -0.7577259497      2.5791387860      1.0723877540
C       1.0335661767     -0.2927087233     -0.9615888481
C       1.2408228123     -1.3134784272     -1.8056198210
C      -0.5940523592     -0.9372839568      0.9385258226
H       1.0923962486      0.7853054144     -1.5460295455
H       1.1876698469     -2.3468993857     -1.3293274538
H       1.7737833636     -1.2404702682     -2.7348806409
H      -1.0107019802     -0.6164494230      1.9135494657
H       0.1922594882     -1.5709988941      1.3963384070
H      -1.3023717079     -1.4199104859      0.2664493712
12
Frame=644  time=322.500fs  energy=-306.16289554Ha  molecule=COOCCCHHHHHH
C       0.0722042715      0.3359760663      0.1287914266
O      -0.0902398324      1.5274020536      0.3344446734
O      -0.7641654675      2.5712269839      1.0734864409
C       1.0366591939     -0.2886479851     -0.9641188397
C       1.2468625808     -1.3136246946     -1.8056344983
C      -0.5898118980     -0.9347453706      0.9381952846
H       1.0894913452      0.7853547992     -1.5650747877
H       1.2103423950     -2.3260716166     -1.3264881001
H       1.7810542329     -1.2087230628     -2.7505079261
H      -1.0321980078     -0.6066799669      1.9221566050
H       0.1745058321     -1.5744941903      1.3806512808
H      -1.3098186935     -1.4249574451      0.2820373572
12
Frame=645  time=323.000fs  energy=-306.16339895Ha  molecule=COOCCCHHHHHH
C       0.0738703777      0.3388592566      0.1347825180
O      -0.0937994421      1.5244000855      0.3325428226
O      -0.7705563963      2.5631623935      1.0745224714
C       1.0394517427     -0.2835544106     -0.9671311242
C       1.2527900348     -1.3140828453     -1.8050201006
C      -0.5855706816     -0.9318930526      0.9383726325
H       1.0884378865      0.7805217833     -1.5816344797
H       1.2327643580     -2.3028583747     -1.3264037932
H       1.7885599724     -1.1761108789     -2.7657366826
H      -1.0551871979     -0.5958414871      1.9270208133
H       0.1584941170     -1.5786307004      1.3605556795
H      -1.3160522712     -1.4305766960      0.2977846769
12
Frame=646  time=323.500fs  energy=-306.16360518Ha  molecule=COOCCCHHHHHH
C       0.0754881487      0.3406948770      0.1409846006
O      -0.0972900106      1.5216634604      0.3305488457
O      -0.7768977408      2.5549584267      1.0754955478
C       1.0419412073     -0.2775038297     -0.9706306605
C       1.2586824400     -1.3146287892     -1.8039343551
C      -0.5814905329     -0.9286690073      0.9390688673
H       1.0891248452      0.7710644622     -1.5955595572
H       1.2548465360     -2.2788130280     -1.3284533751
H       1.7955392744     -1.1433945810     -2.7792512696
H      -1.0786737839     -0.5843489846      1.9274191463
H       0.1453246478     -1.5838986051      1.3368865965
H      -1.3208631865     -1.4363342317      0.3133100561
12
Frame=647  time=324.000fs  energy=-306.16358129Ha  molecule=COOCCCHHHHHH
C       0.0770578482      0.3413118699      0.1473605653
O      -0.1007327327      1.5193198293      0.3284881708
O      -0.7831880945      2.5466249931      1.0764051019
C       1.0441294480     -0.2705885228     -0.9746242633
C       1.2646093360     -1.3150080966     -1.8025385360
C      -0.5777236336     -0.9250136668      0.9402708676
H       1.0913797803      0.7573901660     -1.6066221340
H       1.2765235931     -2.2557592532     -1.3318086880
H       1.8013693637     -1.1114060898     -2.7899859269
H      -1.1016717803     -0.5726234037      1.9228855320
H       0.1360595791     -1.5908002562      1.3105961000
H      -1.3241654391     -1.4418456639      0.3282126658
12
Frame=648  time=324.500fs  energy=-306.16353454Ha  molecule=COOCCCHHHHHH
C       0.0785762455      0.3405779225      0.1538779205
O      -0.1041430560      1.5174780375      0.3263757788
O      -0.7894250248      2.5381661830      1.0772499515
C       1.0460193380     -0.2629068928     -0.9791164023
C       1.2706281128     -1.3149536886     -1.8009913075
C      -0.5743989813     -0.9208748946      0.9419506211
H       1.0949984828      0.7400174202     -1.6145524007
H       1.2977669548     -2.2356924129     -1.3354694577
H       1.8055753802     -1.0809598646     -2.7971322038
H      -1.1232283705     -0.5610934257      1.9132257983
H       0.1315606787     -1.5997601341      1.2826552590
H      -1.3260018240     -1.4468137484      0.3420830058
12
Frame=649  time=325.000fs  energy=-306.16374876Ha  molecule=COOCCCHHHHHH
C       0.0800392068      0.3384169938      0.1605045591
O      -0.1075297415      1.5162148956      0.3242168091
O      -0.7956042394      2.5295794162      1.0780276877
C       1.0476107234     -0.2545564746     -0.9841028321
C       1.2767781209     -1.3142145673     -1.7994321920
C      -0.5716037940     -0.9162248310      0.9440727583
H       1.0997999375      0.7195618298     -1.6191526700
H       1.3186027411     -2.2205476271     -1.3384109294
H       1.8078271088     -1.0527508166     -2.8001128926
H      -1.1424759147     -0.5501721023      1.8985316863
H       0.1322662500     -1.6109754758      1.2539195669
H      -1.3265007374     -1.4510466115      0.3545469343
12
Frame=650  time=325.500fs  energy=-306.16442726Ha  molecule=COOCCCHHHHHH
C       0.0814423533      0.3348195651      0.1672070784
O      -0.1108944475      1.5155642969      0.3220084677
O      -0.8017193758      2.5208568499      1.0787345144
C       1.0488967208     -0.2456330879     -0.9895637551
C       1.2830774712     -1.3125923957     -1.7979572921
C      -0.5693680060     -0.9110777217      0.9465975320
H       1.1056764506      0.6967626846     -1.6204231508
H       1.3391117605     -2.2118368448     -1.3398324478
H       1.8079345656     -1.0272905207     -2.7985616945
H      -1.1587008568     -0.5402041312      1.8791826879
H       0.1380241816     -1.6242649782      1.2250227281
H      -1.3258063341     -1.4544485699      0.3653100850
12
Frame=651  time=326.000fs  energy=-306.16555740Ha  molecule=COOCCCHHHHHH
C       0.0827797476      0.3298434366      0.1739516247
O      -0.1142314548      1.5155127476      0.3197418203
O      -0.8077627799      2.5119879655      1.0793659252
C       1.0498603803     -0.2362322176     -0.9954585474
C       1.2895257892     -1.3099681520     -1.7966012910
C      -0.5676621384     -0.9054976789      0.9494763046
H       1.1126190654      0.6725037386     -1.6186226734
H       1.3593970422     -2.2103539794     -1.3393696073
H       1.8058482072     -1.0049079249     -2.7923318779
H      -1.1714016286     -0.5314058297      1.8558431383
H       0.1481042976     -1.6390246328      1.1963765422
H      -1.3240208854     -1.4569923181      0.3741695603
12
Frame=652  time=326.500fs  energy=-306.16690267Ha  molecule=COOCCCHHHHHH
C       0.0840428367      0.3236068639      0.1807046833
O      -0.1175274768      1.5160018047      0.3174027852
O      -0.8137269375      2.5029619488      1.0799179519
C       1.0504721725     -0.2264449855     -1.0017231838
C       1.2961105373     -1.3063126158     -1.7953325801
C      -0.5664103400     -0.8995899340      0.9526409375
H       1.1207080288      0.6477639985     -1.6142219205
H       1.3795351900     -2.2160510781     -1.3371869209
H       1.8016717328     -0.9857937045     -2.7815426191
H      -1.1803341459     -0.5238219266      1.8294690622
H       0.1614042515     -1.6543520131      1.1682657182
H      -1.3211775216     -1.4586900809      0.3809972401
12
Frame=653  time=327.000fs  energy=-306.16806375Ha  molecule=COOCCCHHHHHH
C       0.0852223785      0.3162776058      0.1874309328
O      -0.1207613139      1.5169348439      0.3149719830
O      -0.8196060607      2.4937696205      1.0803885464
C       1.0506901500     -0.2163541062     -1.0082641951
C       1.3028132622     -1.3016869979     -1.7940622440
C      -0.5655103255     -0.8934809765      0.9559939773
H       1.1300520669      0.6235848548     -1.6078177962
H       1.3995375793     -2.2280516634     -1.3339513337
H       1.7956791883     -0.9700462859     -2.7666295703
H      -1.1855547859     -0.5173143208      1.8013170739
H       0.1767280093     -1.6692748241      1.1409564897
H      -1.3172353247     -1.4595689873      0.3857187181
12
Frame=654  time=327.500fs  energy=-306.16855983Ha  molecule=COOCCCHHHHHH
C       0.0863130098      0.3080591775      0.1940893447
O      -0.1239040758      1.5181878110      0.3124242343
O      -0.8253975803      2.4844050482      1.0807789477
C       1.0504658189     -0.2060552942     -1.0149408422
C       1.3096123995     -1.2962326481     -1.7926638150
C      -0.5648476571     -0.8873024412      0.9594065085
H       1.1406906349      0.6013206130     -1.6002052886
H       1.4193365518     -2.2448056687     -1.3306820767
H       1.7883318580     -0.9576898686     -2.7483799330
H      -1.1874499719     -0.5115855830      1.7729257187
H       0.1929596292     -1.6829244837      1.1147650149
H      -1.3120893087     -1.4596435545      0.3883017033
12
Frame=655  time=328.000fs  energy=-306.16802456Ha  molecule=COOCCCHHHHHH
C       0.0873164410      0.2991715024      0.2006320308
O      -0.1269225491      1.5196261555      0.3097307488
O      -0.8311031580      2.4748660978      1.0810946822
C       1.0497524816     -0.1957023540     -1.0215512097
C       1.3164803265     -1.2901432024     -1.7909898403
C      -0.5642974643     -0.8811897035      0.9627247258
H       1.1525705549      0.5831087149     -1.5926123739
H       1.4387787367     -2.2643916479     -1.3284951921
H       1.7803174536     -0.9486745335     -2.7280027104
H      -1.1867440679     -0.5062092348      1.7460602349
H       0.2090748810     -1.6945587194      1.0900738215
H      -1.3055956100     -1.4588890268      0.3887609670
12
Frame=656  time=328.500fs  energy=-306.16653014Ha  molecule=COOCCCHHHHHH
C       0.0882429066      0.2898273391      0.2070035790
O      -0.1297858978      1.5211259294      0.3068652239
O      -0.8367282478      2.4651527320      1.0813450422
C       1.0485043484     -0.1855379944     -1.0278377411
C       1.3233807371     -1.2836300762     -1.7888769233
C      -0.5637198450     -0.8752880802      0.9657821194
H       1.1656709924      0.5720954953     -1.5868521908
H       1.4576046495     -2.2847688540     -1.3283898999
H       1.7725715025     -0.9428937325     -2.7071796796
H      -1.1844780873     -0.5006395985      1.7226254335
H       0.2241144395     -1.7035048669      1.0672976264
H      -1.2976227886     -1.4572415005      0.3871693884
12
Frame=657  time=329.000fs  energy=-306.16486889Ha  molecule=COOCCCHHHHHH
C       0.0891099045      0.2802175411      0.2131419645
O      -0.1324706273      1.5225884087      0.3038092610
O      -0.8422799633      2.4552639252      1.0815407018
C       1.0466710851     -0.1758646274     -1.0335189718
C       1.3302754479     -1.2768993844     -1.7861569932
C      -0.5629649477     -0.8697473499      0.9684156335
H       1.1801460874      0.5719094182     -1.5851156652
H       1.4754612059     -2.3039128911     -1.3311685146
H       1.7661524600     -0.9401490877     -2.6878901688
H      -1.1819072397     -0.4942471132      1.7045065111
H       0.2372280232     -1.7091608022      1.0468445789
H      -1.2881242746     -1.4546302388      0.3836541128
12
Frame=658  time=329.500fs  energy=-306.16408429Ha  molecule=COOCCCHHHHHH
C       0.0899428881      0.2705067641      0.2189797875
O      -0.1349619613      1.5239401073      0.3005550856
O      -0.8477634399      2.4451959531      1.0816894056
C       1.0442024956     -0.1668907931     -1.0383914798
C       1.3371345521     -1.2701397061     -1.7826770927
C      -0.5618958412     -0.8647001485      0.9704876653
H       1.1962200046      0.5848611388     -1.5888490777
H       1.4919721260     -2.3200580884     -1.3374015687
H       1.7620265679     -0.9400356015     -2.6720605130
H      -1.1802483981     -0.4864523474      1.6932930754
H       0.2477497311     -1.7110624693      1.0291082157
H      -1.2771649453     -1.4510038312      0.3783717554
12
Frame=659  time=330.000fs  energy=-306.16451181Ha  molecule=COOCCCHHHHHH
C       0.0907809839      0.2608357882      0.2244390328
O      -0.1372540193      1.5251232666      0.2971074546
O      -0.8531782860      2.4349433533      1.0817917662
C       1.0410660345     -0.1585917827     -1.0424217318
C       1.3439405765     -1.2635111889     -1.7783120303
C      -0.5604200338     -0.8602374671      0.9719092781
H       1.2138249441      0.6104588453     -1.5976049816
H       1.5067977300     -2.3318965383     -1.3474186498
H       1.7609484118     -0.9419813142     -2.6613222781
H      -1.1803572728     -0.4769250860      1.6900026779
H       0.2552506819     -1.7089342922      1.0144600395
H      -1.2648792469     -1.4463319792      0.3714597754
12
Frame=660  time=330.500fs  energy=-306.16575649Ha  molecule=COOCCCHHHHHH
C       0.0916748480      0.2513287986      0.2294303013
O      -0.1393497126      1.5260865084      0.2934840717
O      -0.8585191468      2.4245020339      1.0818421360
C       1.0372675557     -0.1507290737     -1.0457296950
C       1.3506902853     -1.2571288320     -1.7729823833
C      -0.5585119415     -0.8563931945      0.9726574158
H       1.2323910890      0.6456628444     -1.6091628787
H       1.5196448394     -2.3385958237     -1.3613001360
H       1.7634029765     -0.9454792230     -2.6568472996
H      -1.1824906087     -0.4657346653      1.6949104781
H       0.2595580971     -1.7026765997      1.0032082620
H      -1.2514381344     -1.4406122338      0.3629983560
12
Frame=661  time=331.000fs  energy=-306.16737188Ha  molecule=COOCCCHHHHHH
C       0.0926716079      0.2420970549      0.2338699736
O      -0.1412580444      1.5267819102      0.2897102178
O      -0.8637804066      2.4138720538      1.0818344878
C       1.0328505851     -0.1430177558     -1.0484844137
C       1.3573962417     -1.2510470123     -1.7666771481
C      -0.5562201621     -0.8531398925      0.9727841354
H       1.2510846135      0.6867638709     -1.6209014976
H       1.5302568778     -2.3397519309     -1.3788405486
H       1.7695482513     -0.9502675270     -2.6591538969
H      -1.1861800344     -0.4533904434      1.7074229075
H       0.2607463716     -1.6923490380      0.9955620591
H      -1.2370490479     -1.4338723012      0.3530172240
12
Frame=662  time=331.500fs  energy=-306.16900597Ha  molecule=COOCCCHHHHHH
C       0.0938017272      0.2332368584      0.2377023957
O      -0.1429875211      1.5271679129      0.2858069019
O      -0.8689601876      2.4030577179      1.0817676643
C       1.0278822700     -0.1352443639     -1.0508349562
C       1.3640879433     -1.2452591195     -1.7594746977
C      -0.5536515173     -0.8503993051      0.9724033676
H       1.2690737929      0.7307547247     -1.6307283409
H       1.5384416592     -2.3354005369     -1.3995080599
H       1.7791593717     -0.9562979553     -2.6679130037
H      -1.1903529392     -0.4407134112      1.7261461179
H       0.2591172084     -1.6782102271      0.9916477279
H      -1.2219740573     -1.4261492191      0.3415312687
12
Frame=663  time=332.000fs  energy=-306.17032287Ha  molecule=COOCCCHHHHHH
C       0.0950767016      0.2248308835      0.2409054586
O      -0.1445408670      1.5272136745      0.2817824696
O      -0.8740604830      2.3920651526      1.0816458677
C       1.0224438959     -0.1272797488     -1.0528945993
C       1.3708110250     -1.2397119227     -1.7515529435
C      -0.5509341649     -0.8480654725      0.9716518348
H       1.2855866692      0.7755059804     -1.6371852355
H       1.5441190066     -2.3260237095     -1.4224666530
H       1.7916133680     -0.9635617856     -2.6818721672
H      -1.1937603916     -0.4285638646      1.7493302010
H       0.2551739186     -1.6607813729      0.9915662645
H      -1.2065376641     -1.4174875605      0.3285477213
12
Frame=664  time=332.500fs  energy=-306.17100235Ha  molecule=COOCCCHHHHHH
C       0.0964898576      0.2169542459      0.2434828310
O      -0.1459164435      1.5269005262      0.2776366380
O      -0.8790843069      2.3808996692      1.0814749131
C       1.0166266963     -0.1190453842     -1.0547505336
C       1.3776237022     -1.2343198061     -1.7431696236
C      -0.5481975992     -0.8460188936      0.9706631721
H       1.2999347524      0.8193727187     -1.6392925130
H       1.5473184622     -2.3124841432     -1.4467052755
H       1.8059722094     -0.9719779063     -2.6990212256
H      -1.1952781244     -0.4176923321      1.7752694451
H       0.2495960990     -1.6408595359      0.9954299781
H      -1.1910831794     -1.4079763162      0.3140454254
12
Frame=665  time=333.000fs  energy=-306.17090210Ha  molecule=COOCCCHHHHHH
C       0.0980195842      0.2096796855      0.2454557674
O      -0.1471140189      1.5262208099      0.2733707621
O      -0.8840333399      2.3695647606      1.0812587804
C       1.0105319414     -0.1104702087     -1.0564860320
C       1.3845910306     -1.2289657811     -1.7346227963
C      -0.5455794041     -0.8441304096      0.9695706707
H       1.3115006158      0.8606774163     -1.6363030025
H       1.5481350003     -2.2959396912     -1.4711822523
H       1.8211493393     -0.9814554050     -2.7169535943
H      -1.1938727659     -0.4088045850      1.8022832530
H       0.2432229567     -1.6194402879      1.0033505892
H      -1.1759361551     -1.3977503460      0.2980156135
12
Frame=666  time=333.500fs  energy=-306.17021156Ha  molecule=COOCCCHHHHHH
C       0.0996391934      0.2030743945      0.2468536921
O      -0.1481396744      1.5251793150      0.2689945883
O      -0.8889078059      2.3580628184      1.0809991929
C       1.0042622197     -0.1014968742     -1.0581755134
C       1.3917719246     -1.2235015627     -1.7262063791
C      -0.5432211040     -0.8422746759      0.9685043665
H       1.3197817958      0.8978085195     -1.6277054803
H       1.5467026068     -2.2778137111     -1.4948941161
H       1.8361227667     -0.9919508889     -2.7333365248
H      -1.1886114404     -0.4025776099      1.8286551642
H       0.2370131137     -1.5975792388      1.0154106891
H      -1.1614175801     -1.3869442606      0.2805516994
12
Frame=667  time=334.000fs  energy=-306.16933017Ha  molecule=COOCCCHHHHHH
C       0.1013272273      0.1971897378      0.2477033525
O      -0.1490064649      1.5237953926      0.2645267963
O      -0.8937075621      2.3463966790      1.0806970247
C       0.9979103893     -0.0921023479     -1.0598728077
C       1.3992023238     -1.2177598402     -1.7181663142
C      -0.5412467346     -0.8403483711      0.9675750835
H       1.3244468689      0.9295189138     -1.6133059953
H       1.5431851351     -2.2597796534     -1.5169017261
H       1.8501205189     -1.0033726788     -2.7463310049
H      -1.1788300575     -0.3995548759      1.8527802110
H       0.2319465301     -1.5762623107      1.0316177686
H      -1.1478280577     -1.3756634729      0.2619015322
12
Frame=668  time=334.500fs  energy=-306.16865606Ha  molecule=COOCCCHHHHHH
C       0.1030703868      0.1920563221      0.2480231894
O      -0.1497311376      1.5220994375      0.2599913988
O      -0.8984328863      2.3345707088      1.0803534092
C       0.9915560468     -0.0822977298     -1.0616134319
C       1.4068869240     -1.2115708062     -1.7106735242
C      -0.5397463575     -0.8382777685      0.9668659310
H       1.3253466554      0.9549278963     -1.5932316710
H       1.5377575862     -2.2436762761     -1.5363637434
H       1.8626765439     -1.0154245889     -2.7547382668
H      -1.1642618833     -0.4000751698      1.8733207828
H       0.2289051559     -1.5563395366      1.0518331090
H      -1.1353785794     -1.3639821496      0.2424792131
12
Frame=669  time=335.000fs  energy=-306.16849416Ha  molecule=COOCCCHHHHHH
C       0.1048604120      0.1876899654      0.2478249246
O      -0.1503299241      1.5201235246      0.2554135966
O      -0.9030843697      2.3225906140      1.0799696789
C       0.9852656798     -0.0721158334     -1.0634192077
C       1.4148040884     -1.2047808742     -1.7038219586
C      -0.5387697817     -0.8360182827      0.9664348669
H       1.3225018867      0.9733926507     -1.5678986170
H       1.5305712620     -2.2312917892     -1.5525908103
H       1.8735802123     -1.0275683701     -2.7579123609
H      -1.1450566932     -0.4042732961      1.8892691409
H       0.2285711025     -1.5384858218      1.0757096671
H      -1.1241383438     -1.3519564653      0.2228484103
12
Frame=670  time=335.500fs  energy=-306.16899989Ha  molecule=COOCCCHHHHHH
C       0.1066905233      0.1841000143      0.2471180581
O      -0.1508163004      1.5178927600      0.2508179605
O      -0.9076625850      2.3104629913      1.0795468414
C       0.9790912651     -0.0616033988     -1.0652952765
C       1.4229186821     -1.1972784449     -1.6976432293
C      -0.5383221924     -0.8335545655      0.9663197391
H       1.3160926256      0.9844926379     -1.5379825054
H       1.5217090520     -2.2239998482     -1.5651041943
H       1.8828032127     -1.0391397315     -2.7556134523
H      -1.1217367610     -0.4120925396      1.8999790725
H       0.2313172153     -1.5231230355      1.1026601883
H      -1.1140276882     -1.3396617421      0.2036674403
12
Frame=671  time=336.000fs  energy=-306.17007400Ha  molecule=COOCCCHHHHHH
C       0.1085545581      0.1812902406      0.2459135789
O      -0.1512020197      1.5154240722      0.2462294993
O      -0.9121686281      2.2981962387      1.0790858976
C       0.9730674098     -0.0508277444     -1.0672227578
C       1.4311925437     -1.1890188050     -1.6921242640
C      -0.5383561665     -0.8309032723      0.9665388320
H       1.3064715403      0.9881456293     -1.5044177739
H       1.5111595717     -2.2223951751     -1.5736564046
H       1.8904516511     -1.0494893726     -2.7479057609
H      -1.0951435915     -0.4232788560      1.9052141867
H       0.2370836364     -1.5103142486      1.1318450538
H      -1.1048380032     -1.3272404143      0.1856210333
12
Frame=672  time=336.500fs  energy=-306.17131509Ha  molecule=COOCCCHHHHHH
C       0.1104495244      0.1792530080      0.2442247943
O      -0.1515014532      1.5127340367      0.2416770812
O      -0.9166058205      2.2858026244      1.0785896140
C       0.9672105018     -0.0398964507     -1.0691555355
C       1.4395856250     -1.1800344876     -1.6872189635
C      -0.5387655490     -0.8281144741      0.9670848071
H       1.2941994296      0.9847669413     -1.4684112627
H       1.4988330261     -2.2261140162     -1.5781951052
H       1.8967557294     -1.0580589252     -2.7351292355
H      -1.0663952178     -0.4373694268      1.9052079302
H       0.2453268840     -1.4997209063      1.1621963508
H      -1.0962755361     -1.3149318173      0.1693659743
12
Frame=673  time=337.000fs  energy=-306.17214688Ha  molecule=COOCCCHHHHHH
C       0.1123793402      0.1779674535      0.2420646490
O      -0.1517373991      1.5098501618      0.2371978602
O      -0.9209815287      2.2732994204      1.0780649607
C       0.9615250456     -0.0289764589     -1.0710297637
C       1.4480482714     -1.1704253029     -1.6828516034
C      -0.5393894875     -0.8252668860      0.9679149764
H       1.2800552800      0.9753531081     -1.4313978073
H       1.4846100117     -2.2338991941     -1.5787932597
H       1.9020935782     -1.0644111864     -2.7179374847
H      -1.0368523549     -0.4536932441      1.9007279858
H       0.2551339974     -1.4907066938      1.1925336499
H      -1.0880509562     -1.3030796588      0.1554672962
12
Frame=674  time=337.500fs  energy=-306.17201775Ha  molecule=COOCCCHHHHHH
C       0.1143535781      0.1774115520      0.2394457690
O      -0.1519437975      1.5068153933      0.2328386848
O      -0.9253069690      2.2607066963      1.0775238433
C       0.9560156182     -0.0183023169     -1.0727840344
C       1.4565099814     -1.1603304534     -1.6789155363
C      -0.5400240821     -0.8224562822      0.9689430821
H       1.2649998169      0.9614924793     -1.3949300367
H       1.4683987899     -2.2438715026     -1.5755822405
H       1.9070337931     -1.0682565682     -2.6973548226
H      -1.0080808192     -0.4714014381      1.8931189452
H       0.2654545617     -1.4825646868      1.2217763718
H      -1.0800270903     -1.2921396272      0.1443115118
12
Frame=675  time=338.000fs  energy=-306.17050384Ha  molecule=COOCCCHHHHHH
C       0.1163744730      0.1775770900      0.2363970631
O      -0.1521631280      1.5036825550      0.2286524761
O      -0.9295943194      2.2480419127      1.0769803912
C       0.9506841893     -0.0082001627     -1.0743665003
C       1.4648726303     -1.1498967195     -1.6752736027
C      -0.5404339630     -0.8197810669      0.9700315227
H       1.2502924074      0.9457436381     -1.3607661825
H       1.4501931497     -2.2538834717     -1.5687409551
H       1.9123499343     -1.0694699024     -2.6747518466
H      -0.9817999640     -0.4895031820      1.8842793822
H       0.2753049901     -1.4747524722      1.2491270245
H      -1.0723457027     -1.2826858288      0.1360839288
12
Frame=676  time=338.500fs  energy=-306.16770588Ha  molecule=COOCCCHHHHHH
C       0.1184208500      0.1784572709      0.2329894436
O      -0.1524428763      1.5005110711      0.2246932841
O      -0.9338553389      2.2353171047      1.0764484386
C       0.9455059846      0.0008772206     -1.0757233103
C       1.4730155679     -1.1392555526     -1.6717651230
C      -0.5403700403     -0.8173306875      0.9709812580
H       1.2378265804      0.9323209796     -1.3311830212
H       1.4301372485     -2.2618606246     -1.5585698447
H       1.9189338832     -1.0680817917     -2.6516567174
H      -0.9598022363     -0.5068446364      1.8766206791
H       0.2839019854     -1.4670430557      1.2741220401
H      -1.0654032186     -1.2753827992      0.1308349820
12
Frame=677  time=339.000fs  energy=-306.16479374Ha  molecule=COOCCCHHHHHH
C       0.1204516091      0.1800159456      0.2293306473
O      -0.1528283547      1.4973649346      0.2210071321
O      -0.9381036040      2.2225423236      1.0759427051
C       0.9404266374      0.0084302202     -1.0768028280
C       1.4808114208     -1.1285059767     -1.6682193872
C      -0.5396156978     -0.8151708674      0.9715636366
H       1.2299690733      0.9264249522     -1.3087424361
H       1.4085304793     -2.2661258091     -1.5455222376
H       1.9276442039     -1.0642322276     -2.6295224834
H      -0.9435981368     -0.5222821513      1.8725897078
H       0.2907061268     -1.4594979027      1.2966233267
H      -1.0596655030     -1.2708780911      0.1285512807
12
Frame=678  time=339.500fs  energy=-306.16338539Ha  molecule=COOCCCHHHHHH
C       0.1224239888      0.1822008078      0.2255241316
O      -0.1533461454      1.4942933732      0.2176185745
O      -0.9423542239      2.2097284320      1.0754782259
C       0.9353949142      0.0140832644     -1.0775780767
C       1.4881414898     -1.1177159598     -1.6644721521
C      -0.5380359035     -0.8133331304      0.9716134367
H       1.2286440942      0.9322912497     -1.2953411474
H       1.3857331078     -2.2655570572     -1.5300810507
H       1.9392425151     -1.0580733739     -2.6096681615
H      -0.9339848886     -0.5350514559      1.8737153546
H       0.2953604611     -1.4522713018      1.3166707429
H      -1.0554372533     -1.2696566581      0.1291916860
12
Frame=679  time=340.000fs  energy=-306.16408560Ha  molecule=COOCCCHHHHHH
C       0.1243038209      0.1849962658      0.2216345424
O      -0.1539907941      1.4913098229      0.2145257672
O      -0.9466200326      2.1968867984      1.0750663955
C       0.9304238800      0.0177416758     -1.0780839629
C       1.4949038398     -1.1069478194     -1.6603859590
C      -0.5355805321     -0.8118263549      0.9710906202
H       1.2342279378      0.9511618886     -1.2912162724
H       1.3620894079     -2.2594752907     -1.5126404217
H       1.9543779736     -1.0497010157     -2.5932400733
H      -0.9310889423     -0.5448550912      1.8802689323
H       0.2976362212     -1.4454439610      1.3342167766
H      -1.0527469813     -1.2719918746      0.1326430976
12
Frame=680  time=340.500fs  energy=-306.16600695Ha  molecule=COOCCCHHHHHH
C       0.1260621353      0.1884396892      0.2176846449
O      -0.1547272845      1.4883895028      0.2117067905
O      -0.9509109616      2.1840317578      1.0747144984
C       0.9256226937      0.0196415286     -1.0784223617
C       1.5010182484     -1.0962722389     -1.6558719532
C      -0.5322633128     -0.8106477229      0.9700780752
H       1.2452707630      0.9805048277     -1.2949345823
H       1.3379320017     -2.2474988842     -1.4935101509
H       1.9735055099     -1.0391288403     -2.5809976835
H      -0.9346170482     -0.5517342848      1.8914664541
H       0.2974510508     -1.4390184312      1.3490231614
H      -1.0513774582     -1.2779598065      0.1386922555
12
Frame=681  time=341.000fs  energy=-306.16780545Ha  molecule=COOCCCHHHHHH
C       0.1276703601      0.1925819727      0.2136744096
O      -0.1555061989      1.4854872680      0.2091280116
O      -0.9552389081      2.1711855184      1.0744312140
C       0.9211635103      0.0202678816     -1.0787209753
C       1.5064341557     -1.0857482498     -1.6509055396
C      -0.5281470008     -0.8097790018      0.9687536351
H       1.2592719251      1.0149359358     -1.3043333697
H       1.3136525331     -2.2295967680     -1.4730336180
H       1.9967473308     -1.0263196330     -2.5730272699
H      -0.9439626460     -0.5559763400      1.9056342514
H       0.2948923307     -1.4330156310      1.3607845412
H      -1.0509920817     -1.2874727558      0.1470911014
12
Frame=682  time=341.500fs  energy=-306.16889559Ha  molecule=COOCCCHHHHHH
C       0.1290986821      0.1974489768      0.2096088369
O      -0.1562801385      1.4825662587      0.2067505925
O      -0.9596222394      2.1583776777      1.0742317243
C       0.9172195425      0.0201518765     -1.0790984179
C       1.5111387771     -1.0753923714     -1.6455304181
C      -0.5233401716     -0.8091859390      0.9673571584
H       1.2738602440      1.0486084310     -1.3175005852
H       1.2897600843     -2.2062393778     -1.4517026776
H       2.0237825672     -1.0112996625     -2.5686057403
H      -0.9582399602     -0.5580417995      1.9204476014
H       0.2902326883     -1.4275416036      1.3692929901
H      -1.0512897284     -1.3003541530      0.1576208586
12
Frame=683  time=342.000fs  energy=-306.16942143Ha  molecule=COOCCCHHHHHH
C       0.1303112843      0.2030500911      0.2055151043
O      -0.1570081272      1.4796056846      0.2045339698
O      -0.9640828597      2.1456359677      1.0741347967
C       0.9139141529      0.0196673336     -1.0796540320
C       1.5151597310     -1.0651841026     -1.6398480363
C      -0.5179946907     -0.8088280958      0.9661495526
H       1.2875527036      1.0776440467     -1.3331457306
H       1.2668289083     -2.1782972118     -1.4301106398
H       2.0538802127     -0.9942335784     -2.5663642112
H      -0.9764001080     -0.5584283811      1.9334090177
H       0.2839854407     -1.4228020165      1.3744816271
H      -1.0520582081     -1.3163900367      0.1700855462
12
Frame=684  time=342.500fs  energy=-306.16968760Ha  molecule=COOCCCHHHHHH
C       0.1312656610      0.2093940707      0.2014342776
O      -0.1576561911      1.4765894449      0.2024425294
O      -0.9686394395      2.1329784863      1.0741555234
C       0.9113233992      0.0190268121     -1.0804658668
C       1.5185591976     -1.0550907765     -1.6339955552
C      -0.5122928801     -0.8086672383      0.9653646909
H       1.2996270523      1.1001975366     -1.3504685539
H       1.2453475770     -2.1467273776     -1.4087713197
H       2.0860449787     -0.9753943778     -2.5646296775
H      -0.9973659208     -0.5575387264      1.9423369153
H       0.2769237651     -1.4190812867      1.3764000443
H      -1.0531299733     -1.3353318482      0.1842717101
12
Frame=685  time=343.000fs  energy=-306.16995736Ha  molecule=COOCCCHHHHHH
C       0.1319212403      0.2164855262      0.1973995627
O      -0.1582019531      1.4734970502      0.2004551366
O      -0.9733030509      2.1204129327      1.0743000904
C       0.9094852022      0.0183444261     -1.0815774177
C       1.5214269661     -1.0450720626     -1.6281232119
C      -0.5064262975     -0.8086716380      0.9651688649
H       1.3098428058      1.1156315442     -1.3690336017
H       1.2255661636     -2.1124045609     -1.3879422861
H       2.1191630625     -0.9550981876     -2.5617349769
H      -1.0201061628     -0.5556084214      1.9456613925
H       0.2700076261     -1.4166931316      1.3752004524
H      -1.0543271497     -1.3568725462      0.1999205729
12
Frame=686  time=343.500fs  energy=-306.17037732Ha  molecule=COOCCCHHHHHH
C       0.1322491052      0.2243077798      0.1934219334
O      -0.1586371407      1.4703032530      0.1985679565
O      -0.9780761653      2.1079397421      1.0745643534
C       0.9084001073      0.0176894640     -1.0829901529
C       1.5238790495     -1.0350707530     -1.6223792924
C      -0.5005762602     -0.8088189301      0.9656433557
H       1.3182236573      1.1238858941     -1.3886284091
H       1.2074200205     -2.0761831704     -1.3675540934
H       2.1520907398     -0.9336888071     -2.5561978807
H      -1.0436633088     -0.5526764664      1.9424896870
H       0.2642600386     -1.4159255017      1.3711123702
H      -1.0554214004     -1.3806080978      0.2167430793
12
Frame=687  time=344.000fs  energy=-306.17098414Ha  molecule=COOCCCHHHHHH
C       0.1322398829      0.2328035485      0.1894866303
O      -0.1589656494      1.4669864178      0.1967887473
O      -0.9829542841      2.0955558009      1.0749361650
C       0.9080337654      0.0171282391     -1.0846700754
C       1.5260545569     -1.0250112640     -1.6168972621
C      -0.4949034213     -0.8090958986      0.9667913234
H       1.3248369594      1.1251038860     -1.4090555515
H       1.1905720087     -2.0390258612     -1.3472814257
H       2.1837143952     -0.9115615010     -2.5468182297
H      -1.0671558519     -0.5485929490      1.9325045266
H       0.2606452298     -1.4170064592      1.3644026388
H      -1.0561069026     -1.4060186733      0.2344599559
12
Frame=688  time=344.500fs  energy=-306.17175721Ha  molecule=COOCCCHHHHHH
C       0.1319092012      0.2418631867      0.1855552409
O      -0.1592005480      1.4635429174      0.1951281645
O      -0.9879289560      2.0832564977      1.0754001704
C       0.9083229210      0.0167470436     -1.0865584330
C       1.5281025715     -1.0148174885     -1.6117815093
C      -0.4895448483     -0.8094959741      0.9685551234
H       1.3296443053      1.1194863344     -1.4299796068
H       1.1745529290     -2.0019950448     -1.3266980510
H       2.2130397763     -0.8891710853     -2.5327740751
H      -1.0897812063     -0.5430540484      1.9158418385
H       0.2599803074     -1.4201000003      1.3553651931
H      -1.0560038247     -1.4325038297      0.2528207974
12
Frame=689  time=345.000fs  energy=-306.17263581Ha  molecule=COOCCCHHHHHH
C       0.1312980366      0.2513228953      0.1815703935
O      -0.1593626494      1.4600019285      0.1935931722
O      -0.9929905631      2.0710351893      1.0759427253
C       0.9091841438      0.0166614440     -1.0885797988
C       1.5301635117     -1.0044430925     -1.6070979665
C      -0.4846127043     -0.8100174578      0.9708339792
H       1.3324518959      1.1072839436     -1.4508837167
H       1.1589343768     -1.9661156298     -1.3054306800
H       2.2392982388     -0.8670176036     -2.5137006171
H      -1.1108333076     -0.5356471284      1.8930114829
H       0.2628788331     -1.4253120103      1.3443484623
H      -1.0546940517     -1.4594513625      0.2715898195
12
Frame=690  time=345.500fs  energy=-306.17350844Ha  molecule=COOCCCHHHHHH
C       0.1304668788      0.2609693926      0.1774619773
O      -0.1594801930      1.4564346148      0.1921842631
O      -0.9981301700      2.0588813061      1.0765550752
C       0.9105234914      0.0170201277     -1.0906482090
C       1.5323531051     -0.9938979121     -1.6028721997
C      -0.4801892907     -0.8106641833      0.9735011229
H       1.3329206891      1.0888490411     -1.4710976275
H       1.1434789054     -1.9322607420     -1.2832769874
H       2.2620261031     -0.8456295489     -2.4897118374
H      -1.1297250220     -0.5259031825      1.8648195799
H       0.2696924096     -1.4326700238      1.3317843623
H      -1.0517694312     -1.4862826373      0.2905278879
12
Frame=691  time=346.000fs  energy=-306.17422251Ha  molecule=COOCCCHHHHHH
C       0.1294865047      0.2705480034      0.1731522086
O      -0.1595883828      1.4529538667      0.1908967768
O      -1.0033410221      2.0467796034      1.0772345219
C       0.9122455360      0.0180032630     -1.0926730471
C       1.5347519576     -0.9832596067     -1.5990915660
C      -0.4763159916     -0.8114481636      0.9764202960
H       1.3306042014      1.0646879108     -1.4898636052
H       1.1282232982     -1.9011096341     -1.2602671352
H       2.2811079602     -0.8255465788     -2.4613719847
H      -1.1460112665     -0.5133617752      1.8322713110
H       0.2804286918     -1.4420587749      1.3181882899
H      -1.0468796433     -1.5124542303      0.3093880328
12
Frame=692  time=346.500fs  energy=-306.17461059Ha  molecule=COOCCCHHHHHH
C       0.1284301502      0.2797738730      0.1685568909
O      -0.1597284301      1.4497049711      0.1897257219
O      -1.0086202057      2.0347124156      1.0779841885
C       0.9142593724      0.0198117813     -1.0945630645
C       1.5374022340     -0.9726694591     -1.5957105961
C      -0.4729794672     -0.8123924285      0.9794571421
H       1.3250165737      1.0354904604     -1.5064407638
H       1.1134623385     -1.8731257452     -1.2366429214
H       2.2967967478     -0.8072958337     -2.4296400765
H      -1.1594395280     -0.4976421942      1.7965155869
H       0.2946832829     -1.4531408642      1.3041334907
H      -1.0397776295     -1.5374512386      0.3279128597
12
Frame=693  time=347.000fs  energy=-306.17450297Ha  molecule=COOCCCHHHHHH
C       0.1273701551      0.2883463173      0.1635857922
O      -0.1599464428      1.4468536940      0.1886711432
O      -1.0139699476      2.0226646341      1.0788118989
C       0.9164779903      0.0226425026     -1.0962266459
C       1.5403111491     -0.9623167428     -1.5926603763
C      -0.4701068948     -0.8135303402      0.9824833411
H       1.3157573596      1.0022063734     -1.5202596442
H       1.0996584389     -1.8485540804     -1.2127767744
H       2.3097213019     -0.7913542068     -2.3957962859
H      -1.1700351549     -0.4785147036      1.7588623037
H       0.3116739157     -1.4653399796      1.2902297015
H      -1.0303583012     -1.5608081767      0.3458324032
12
Frame=694  time=347.500fs  energy=-306.17371502Ha  molecule=COOCCCHHHHHH
C       0.1263778044      0.2959666694      0.1581488809
O      -0.1602920510      1.4445797449      0.1877395670
O      -1.0193974256      2.0106286587      1.0797284355
C       0.9188078579      0.0266330710     -1.0975680048
C       1.5434610949     -0.9524116479     -1.5898634416
C      -0.4675807012     -0.8148977081      0.9853805444
H       1.3027486273      0.9663292925     -1.5311585848
H       1.0873373677     -1.8274979753     -1.1890860889
H       2.3208160572     -0.7780742005     -2.3612854831
H      -1.1781565881     -0.4559751476      1.7207861175
H       0.3304145535     -1.4779450160      1.2771204761
H      -1.0186838601     -1.5821597625      0.3628729262
12
Frame=695  time=348.000fs  energy=-306.17206836Ha  molecule=COOCCCHHHHHH
C       0.1255226969      0.3023598059      0.1521694177
O      -0.1608154243      1.4430750636      0.1869392379
O      -1.0249124984      1.9986059712      1.0807454310
C       0.9211292599      0.0317678153     -1.0984774007
C       1.5468245913     -0.9431482740     -1.5872506168
C      -0.4652645126     -0.8165215073      0.9880484309
H       1.2865958920      0.9304403055     -1.5397092333
H       1.0770004124     -1.8100275762     -1.1659603922
H       2.3310915707     -0.7675576724     -2.3274414234
H      -1.1844672585     -0.4303030842      1.6838618603
H       0.3499261585     -1.4902636888      1.2654576006
H      -1.0049767886     -1.6012983518      0.3787651206
12
Frame=696  time=348.500fs  energy=-306.16967765Ha  molecule=COOCCCHHHHHH
C       0.1248681560      0.3072949146      0.1455964102
O      -0.1615626373      1.4425344416      0.1862733330
O      -1.0305244585      1.9866042544      1.0818737925
C       0.9232947818      0.0378200629     -1.0988282793
C       1.5503709884     -0.9346706900     -1.5847661136
C      -0.4630244592     -0.8184155406      0.9904113336
H       1.2687421612      0.8982958781     -1.5473588323
H       1.0690667667     -1.7961742577     -1.1437112868
H       2.3413625963     -0.7595399598     -2.2952498651
H      -1.1898165909     -0.4020471263      1.6496329235
H       0.3693521744     -1.5016719721      1.2558139581
H      -0.9895571610     -1.6181701547      0.3932502095
12
Frame=697  time=349.000fs  energy=-306.16716739Ha  molecule=COOCCCHHHHHH
C       0.1244622492      0.3106025546      0.1384035917
O      -0.1625704587      1.4431246477      0.1857381199
O      -1.0362394058      1.9746321409      1.0831230464
C       0.9251800920      0.0444525299     -1.0985077976
C       1.5540595357     -0.9270593576     -1.5823592887
C      -0.4607440230     -0.8205864314      0.9924197089
H       1.2509378083      0.8735052353     -1.5559183371
H       1.0638913166     -1.7858011940     -1.1226092456
H       2.3520820680     -0.7534123456     -2.2652657430
H      -1.1950020399     -0.3719141704      1.6193772068
H       0.3879611652     -1.5115418655      1.2486213809
H      -0.9727679135     -1.6327591142      0.4061180829
12
Frame=698  time=349.500fs  energy=-306.16518894Ha  molecule=COOCCCHHHHHH
C       0.1243275715      0.3121951104      0.1305793486
O      -0.1638601673      1.4449427568      0.1853253611
O      -1.0420598151      1.9626966347      1.0845009663
C       0.9267344188      0.0513797105     -1.0974531370
C       1.5578272193     -0.9203417814     -1.5799698686
C      -0.4583354701     -0.8230334440      0.9940457627
H       1.2344862389      0.8581335071     -1.5667713400
H       1.0619277017     -1.7785048362     -1.1030744212
H       2.3633687461     -0.7484956030     -2.2377127711
H      -1.2004814853     -0.3406841464      1.5938866564
H       0.4051155070     -1.5192088092      1.2442508841
H      -0.9549711132     -1.6449845656      0.4172433768
12
Frame=699  time=350.000fs  energy=-306.16406382Ha  molecule=COOCCCHHHHHH
C       0.1244563531      0.3120766091      0.1221317927
O      -0.1654345766      1.4479972421      0.1850245219
O      -1.0479869825      1.9508064610      1.0860135485
C       0.9279705242      0.0583930261     -1.0956502417
C       1.5615863436     -0.9145155426     -1.5775179169
C      -0.4557488669     -0.8257310951      0.9952784383
H       1.2201212977      0.8531121894     -1.5807739905
H       1.0638047985     -1.7736608134     -1.0857650363
H       2.3752284365     -0.7443360096     -2.2127050207
H      -1.2062024789     -0.3092776521      1.5734442329
H       0.4202629283     -1.5240250095      1.2431070525
H      -0.9365797395     -1.6547512586      0.4265540830
12
Frame=700  time=350.500fs  energy=-306.16390713Ha  molecule=COOCCCHHHHHH
C       0.1248141304      0.3103270435      0.1131014497
O      -0.1672805438      1.4522229234      0.1848234183
O      -1.0540234641      1.9389775062      1.0876650771
C       0.9289427496      0.0653392999     -1.0931345499
C       1.5652438402     -0.9095656836     -1.5749132347
C      -0.4529775572     -0.8286136958      0.9961217107
H       1.2081528153      0.8588982130     -1.5984118778
H       1.0701609685     -1.7706213595     -1.0714002652
H       2.3876872867     -0.7407207010     -2.1903518606
H      -1.2115928546     -0.2788931579      1.5579457643
H       0.4329551068     -1.5254163440      1.2456177944
H      -0.9180671630     -1.6620588954      0.4339831488
12
Frame=701  time=351.000fs  energy=-306.16467135Ha  molecule=COOCCCHHHHHH
C       0.1253445294      0.3070858863      0.1035650739
O      -0.1693724440      1.4575024432      0.1847080378
O      -1.0601732867      1.9272331788      1.0894582557
C       0.9297416917      0.0721466016     -1.0900129789
C       1.5687242643     -0.9054729934     -1.5720696113
C      -0.4500543075     -0.8315794495      0.9965927841
H       1.1984647432      0.8753342659     -1.6196551388
H       1.0814669861     -1.7688767063     -1.0605599334
H       2.4007908854     -0.7375872345     -2.1707585817
H      -1.2157025536     -0.2509617201      1.5470215229
H       0.4429077413     -1.5229613327      1.2521843490
H      -0.8999606115     -1.6670683849      0.4394609267
12
Frame=702  time=351.500fs  energy=-306.16610194Ha  molecule=COOCCCHHHHHH
C       0.1259714467      0.3025494367      0.0936295327
O      -0.1716739739      1.4636747654      0.1846618721
O      -1.0664408999      1.9155986453      1.0913948739
C       0.9304840590      0.0788501422     -1.0864731079
C       1.5719769236     -0.9022146944     -1.5689077283
C      -0.4470304858     -0.8345126250      0.9967152360
H       1.1905231112      0.9014434750     -1.6437903321
H       1.0979688364     -1.7680801669     -1.0535818380
H       2.4146359282     -0.7350293958     -2.1540676659
H      -1.2174960250     -0.2268186366      1.5401413066
H       0.4500630591     -1.5164986603      1.2631322550
H      -0.8828198563     -1.6701344043      0.4429281908
12
Frame=703  time=352.000fs  energy=-306.16770748Ha  molecule=COOCCCHHHHHH
C       0.1266004410      0.2969567929      0.0834240495
O      -0.1741407493      1.4705489587      0.1846632196
O      -1.0728294975      1.9040943113      1.0934757547
C       0.9313073709      0.0856085621     -1.0827854092
C       1.5749697830     -0.8997531242     -1.5653555815
C      -0.4439439904     -0.8373082110      0.9965061968
H       1.1833867342      0.9350598150     -1.6691903468
H       1.1197124499     -1.7679537624     -1.0505300024
H       2.4293918686     -0.7333298540     -2.1404916871
H      -1.2161955095     -0.2073531886      1.5367795696
H       0.4545806254     -1.5061569319      1.2786573867
H      -0.8671902217     -1.6718013640      0.4443165223
12
Frame=704  time=352.500fs  energy=-306.16899495Ha  molecule=COOCCCHHHHHH
C       0.1271203150      0.2905531619      0.0731021176
O      -0.1767285882      1.4779353960      0.1846854293
O      -1.0793375320      1.8927318079      1.0956979195
C       0.9323677113      0.0926767826     -1.0792892518
C       1.5776921195     -0.8980226872     -1.5613636232
C      -0.4408014959     -0.8398870143      0.9959705573
H       1.1759210861      0.9726849105     -1.6933984729
H       1.1465404936     -1.7682231491     -1.0511742842
H       2.4451181087     -0.7328298964     -2.1301733940
H      -1.2114783222     -0.1929040142      1.5365980544
H       0.4567646944     -1.4922305726      1.2987298502
H      -0.8535196199     -1.6727306370      0.4434865304
12
Frame=705  time=353.000fs  energy=-306.16984906Ha  molecule=COOCCCHHHHHH
C       0.1274104263      0.2835665124      0.0628407073
O      -0.1794020844      1.4856702982      0.1847009871
O      -1.0859553732      1.8815141150      1.0980514764
C       0.9338199224      0.1003119821     -1.0763373779
C       1.5801648110     -0.8969192876     -1.5569210232
C      -0.4375876973     -0.8421982287      0.9951098350
H       1.1671928072      1.0102535528     -1.7137963756
H       1.1780296991     -1.7687644206     -1.0549662630
H       2.4615785459     -0.7337418702     -2.1230327656
H      -1.2034411215     -0.1833786452      1.5394872936
H       0.4569940893     -1.4750500354      1.3229926558
H      -0.8420510540     -1.6736052977      0.4401990672
12
Frame=706  time=353.500fs  energy=-306.17048966Ha  molecule=COOCCCHHHHHH
C       0.1273606132      0.2762135056      0.0528097272
O      -0.1821355363      1.4936165703      0.1846849483
O      -1.0926679688      1.8704409345      1.1005218820
C       0.9357815282      0.1086596967     -1.0742045177
C       1.5824447685     -0.8962942689     -1.5520562742
C      -0.4342828319     -0.8442160308      0.9939327577
H       1.1567338604      1.0445701209     -1.7284886483
H       1.2134684552     -1.7698779329     -1.0610718186
H       2.4782724937     -0.7361339582     -2.1188023984
H      -1.1924736492     -0.1784256558      1.5454620315
H       0.4556668628     -1.4549928630      1.3507904114
H      -0.8327607885     -1.6750494862      0.4342092649
12
Frame=707  time=354.000fs  energy=-306.17103582Ha  molecule=COOCCCHHHHHH
C       0.1268901625      0.2687041049      0.0431368241
O      -0.1849112257      1.5016538138      0.1846193818
O      -1.0994597231      1.8595146973      1.1030938725
C       0.9383154919      0.1177238682     -1.0730412094
C       1.5846291020     -0.8959597693     -1.5468363125
C      -0.4308708249     -0.8459418342      0.9924572156
H       1.1445608371      1.0739389520     -1.7366824328
H       1.2518632141     -1.7723914544     -1.0684052710
H       2.4944484534     -0.7399511471     -2.1170638023
H      -1.1791779434     -0.1775572059      1.5545366073
H       0.4531548939     -1.4325276112      1.3812780176
H      -0.8253562439     -1.6775123388      0.4254349912
12
Frame=708  time=354.500fs  energy=-306.17142992Ha  molecule=COOCCCHHHHHH
C       0.1259492590      0.2612333850      0.0339036962
O      -0.1877188168      1.5096743489      0.1844975168
O      -1.1063173929      1.8487430344      1.1057533728
C       0.9414432231      0.1274147950     -1.0729041832
C       1.5868499601     -0.8956978052     -1.5413663050
C      -0.4273398264     -0.8474038283      0.9907054803
H       1.1310220738      1.0976747935     -1.7384090659
H       1.2919770366     -1.7775305456     -1.0756658017
H       2.5091376602     -0.7450024459     -2.1172487433
H      -1.1642849759     -0.1802442440      1.5666196377
H       0.4497742030     -1.4082235296      1.4135269077
H      -0.8193168134     -1.6811630888      0.4140796522
12
Frame=709  time=355.000fs  energy=-306.17166006Ha  molecule=COOCCCHHHHHH
C       0.1245086225      0.2539719737      0.0251619953
O      -0.1905547141      1.5175845660      0.1843253475
O      -1.1132318213      1.8381378395      1.1084885362
C       0.9451651490      0.1376035659     -1.0738067132
C       1.5892467932     -0.8952864852     -1.5357688185
C      -0.4236831544     -0.8486462520      0.9887013015
H       1.1166242478      1.1155003436     -1.7341178429
H       1.3325426893     -1.7865637500     -1.0815611559
H       2.5213355730     -0.7510080341     -2.1187261380
H      -1.1485209707     -0.1860157910      1.5814327199
H       0.4457548355     -1.3827299894      1.4466437445
H      -0.8139811854     -1.6858743304      0.4006540571
12
Frame=710  time=355.500fs  energy=-306.17182021Ha  molecule=COOCCCHHHHHH
C       0.1225493054      0.2470638882      0.0169457046
O      -0.1934205753      1.5253071063      0.1841202046
O      -1.1201992426      1.8277120249      1.1112910703
C       0.9494753197      0.1481509500     -1.0757489388
C       1.5919318309     -0.8945406378     -1.5301490876
C      -0.4199010705     -0.8497149897      0.9864719460
H       1.1019344910      1.1272779883     -1.7244521901
H       1.3725360187     -1.8003425300     -1.0851305751
H       2.5302047708     -0.7576685037     -2.1209294376
H      -1.1324677465     -0.1945509391      1.5984825070
H       0.4412218296     -1.3567218729      1.4798862867
H      -0.8086691689     -1.6912962990      0.3858922494
12
Frame=711  time=356.000fs  energy=-306.17200847Ha  molecule=COOCCCHHHHHH
C       0.1200590257      0.2406309299      0.0092730831
O      -0.1963219573      1.5327818460      0.1839076029
O      -1.1272218015      1.8174749933      1.1141576848
C       0.9543684674      0.1589141675     -1.0787269225
C       1.5949738577     -0.8933430160     -1.5245717692
C      -0.4160013275     -0.8506468534      0.9840543162
H       1.0875521942      1.1329973820     -1.7101960013
H       1.4112765344     -1.8190135700     -1.0859191111
H       2.5351831701     -0.7646824924     -2.1234406575
H      -1.1164872330     -0.2057224018      1.6170977460
H       0.4362019127     -1.3308303926      1.5127407093
H      -0.8027982734     -1.6969728181      0.3706037323
12
Frame=712  time=356.500fs  energy=-306.17223188Ha  molecule=COOCCCHHHHHH
C       0.1170350756      0.2347804201      0.0021418196
O      -0.1992682511      1.5399642873      0.1837176621
O      -1.1343065899      1.8074280803      1.1170909359
C       0.9598387590      0.1697479208     -1.0827270338
C       1.5984027923     -0.8916652534     -1.5190540564
C      -0.4119987781     -0.8514642850      0.9815017958
H       1.0740815904      1.1329142924     -1.6922848128
H       1.4484020258     -1.8419745819     -1.0840278508
H       2.5360129905     -0.7717391738     -2.1260298522
H      -1.1007386681     -0.2195556708      1.6365130503
H       0.4306417615     -1.3055853951      1.5449500164
H      -0.7959563027     -1.7024503693      0.3555327527
12
Frame=713  time=357.000fs  energy=-306.17236640Ha  molecule=COOCCCHHHHHH
C       0.1134879037      0.2296150813     -0.0044737188
O      -0.2022732852      1.5468195536      0.1835808384
O      -1.1414625629      1.7975617273      1.1200986226
C       0.9658701671      0.1805050131     -1.0877082061
C       1.6022269852     -0.8895848859     -1.5135712716
C      -0.4079136113     -0.8521747447      0.9788847143
H       1.0620717730      1.1277593635     -1.6718070319
H       1.4838172031     -1.8679362065     -1.0801037712
H       2.5327346460     -0.7785312112     -2.1286743775
H      -1.0852401731     -0.2361299264      1.6559614815
H       0.4244165415     -1.2813591175      1.5764712552
H      -0.7879253242     -1.7073567452      0.3412786657
12
Frame=714  time=357.500fs  energy=-306.17218612Ha  molecule=COOCCCHHHHHH
C       0.1094387096      0.2252407626     -0.0106123624
O      -0.2053550635      1.5533114356      0.1835231291
O      -1.1486954615      1.7878565217      1.1231911495
C       0.9724183835      0.1910318054     -1.0935739170
C       1.6064562460     -0.8872739705     -1.5080769571
C      -0.4037666850     -0.8527744670      0.9762791301
H       1.0519879626      1.1189584677     -1.6500456509
H       1.5176290679     -1.8952138997     -1.0751805597
H       2.5256567987     -0.7847917944     -2.1315627011
H      -1.0699118654     -0.2554835400      1.6747245593
H       0.4173286758     -1.2582953603      1.6073309325
H      -0.7786845994     -1.7114292025      0.3283133528
12
Frame=715  time=358.000fs  energy=-306.17143532Ha  molecule=COOCCCHHHHHH
C       0.1049174833      0.2217602619     -0.0163071996
O      -0.2085351740      1.5593906139      0.1835641237
O      -1.1560023654      1.7782888920      1.1263769911
C       0.9793892106      0.2011541985     -1.1001411480
C       1.6111125713     -0.8849503061     -1.5025244789
C      -0.3995717615     -0.8532560644      0.9737464151
H       1.0442863963      1.1088369487     -1.6286569678
H       1.5500763079     -1.9222071993     -1.0703695169
H       2.5153025343     -0.7903161060     -2.1350630593
H      -1.0546472656     -0.2775206608      1.6921100213
H       0.4091599568     -1.2362983409      1.6373744041
H      -0.7683771036     -1.7144760090      0.3171004378
12
Frame=716  time=358.500fs  energy=-306.17001325Ha  molecule=COOCCCHHHHHH
C       0.0999708278      0.2192520380     -0.0215762833
O      -0.2118395495      1.5649907261      0.1837210081
O      -1.1633688336      1.7688389361      1.1296575733
C       0.9866366223      0.2106719571     -1.1071400656
C       1.6162188208     -0.8828193561     -1.4968778308
C      -0.3953274970     -0.8536177330      0.9713132733
H       1.0394873989      1.1004696855     -1.6097192470
H       1.5814023496     -1.9476335340     -1.0665330601
H       2.5023359642     -0.7949497484     -2.1396379863
H      -1.0395197673     -0.3018740323      1.7074301641
H       0.3998362110     -1.2151889831      1.6660548590
H      -0.7572043717     -1.7163080508      0.3082346282
12
Frame=717  time=359.000fs  energy=-306.16814519Ha  molecule=COOCCCHHHHHH
C       0.0946647764      0.2177588507     -0.0264237880
O      -0.2152998082      1.5700376253      0.1840160021
O      -1.1707725237      1.7594955679      1.1330256099
C       0.9939989969      0.2193728860     -1.1142703591
C       1.6217829605     -0.8810396261     -1.4911152363
C      -0.3910146668     -0.8538683077      0.9689627744
H       1.0381140734      1.0970269246     -1.5954028687
H       1.6116914883     -1.9703827988     -1.0641186056
H       2.4874872474     -0.7985770905     -2.1457480100
H      -1.0250255150     -0.3278032937      1.7200934493
H       0.3896141019     -1.1949481030      1.6924914405
H      -0.7453021948     -1.7167148030      0.3024429820
12
Frame=718  time=359.500fs  energy=-306.16637408Ha  molecule=COOCCCHHHHHH
C       0.0890760308      0.2173010728     -0.0308487930
O      -0.2189511481      1.5744620785      0.1844780217
O      -1.1781911339      1.7502556752      1.1364688634
C       1.0013416856      0.2270517627     -1.1212674711
C       1.6277936450     -0.8797247443     -1.4852256352
C      -0.3866042156     -0.8540227050      0.9666467375
H       1.0405704127      1.1011818767     -1.5875598532
H       1.6408051838     -1.9893003885     -1.0632545543
H       2.4715116929     -0.8011127176     -2.1538066844
H      -1.0120850554     -0.3542718256      1.7297519495
H       0.3790984211     -1.1758088062      1.7157646340
H      -0.7326913977     -1.7155301443      0.3004009874
12
Frame=719  time=360.000fs  energy=-306.16526836Ha  molecule=COOCCCHHHHHH
C       0.0832861703      0.2178990765     -0.0348628754
O      -0.2228256026      1.5782035633      0.1851346814
O      -1.1856065417      1.7411191143      1.1399746377
C       1.0085634375      0.2335764139     -1.1279451450
C       1.6342292686     -0.8789534009     -1.4792085203
C      -0.3820713078     -0.8540942735      0.9643171172
H       1.0470656075      1.1144286140     -1.5872531505
H       1.6684664660     -2.0033191710     -1.0638985729
H       2.4551473465     -0.8024947382     -2.1641611981
H      -1.0017815204     -0.3801638108      1.7363385506
H       0.3690641021     -1.1581408310      1.7351371757
H      -0.7193173117     -1.7127312747      0.3025289637
12
Frame=720  time=360.500fs  energy=-306.16500475Ha  molecule=COOCCCHHHHHH
C       0.0773783857      0.2195841525     -0.0384989805
O      -0.2269456637      1.5812092966      0.1860031410
O      -1.1930039440      1.7320840661      1.1435315710
C       1.0155810653      0.2389639190     -1.1342118189
C       1.6410717297     -0.8787756350     -1.4730795381
C      -0.3774008270     -0.8540880239      0.9619535051
H       1.0576089463      1.1364289691     -1.5944027238
H       1.6943667095     -2.0116612495     -1.0659087833
H       2.4390333886     -0.8026801769     -2.1770516276
H      -0.9951025815     -0.4044703033      1.7399658632
H       0.3602673733     -1.1422980151      1.7500863510
H      -0.7051307629     -1.7085096981      0.3088942856
12
Frame=721  time=361.000fs  energy=-306.16533976Ha  molecule=COOCCCHHHHHH
C       0.0714329155      0.2223907647     -0.0418046461
O      -0.2313229995      1.5834380788      0.1870875575
O      -1.2003707161      1.7231451340      1.1471302193
C       1.0223238182      0.2433805279     -1.1400572601
C       1.6483129642     -0.8792161684     -1.4668731222
C      -0.3725815248     -0.8539909446      0.9595711448
H       1.0720340345      1.1650814767     -1.6078949921
H       1.7182190865     -2.0138733342     -1.0690751475
H       2.4236261322     -0.8016303367     -2.1925644930
H      -0.9928220199     -0.4263712835      1.7407935834
H       0.3533613724     -1.1285314516      1.7602903266
H      -0.6901803880     -1.7033374908      0.3191791348
12
Frame=722  time=361.500fs  energy=-306.16592471Ha  molecule=COOCCCHHHHHH
C       0.0655220068      0.2263380655     -0.0448295091
O      -0.2359610247      1.5848702052      0.1883814453
O      -1.2076975847      1.7142943607      1.1507642802
C       1.0287451649      0.2470674885     -1.1455233422
C       1.6559510779     -0.8802691488     -1.4606403151
C      -0.3676002684     -0.8537653999      0.9572133483
H       1.0900075238      1.1972827752     -1.6260323719
H       1.7397829443     -2.0097963967     -1.0731354834
H       2.4091479638     -0.7992984549     -2.2105999206
H      -0.9954734204     -0.4452560375      1.7389395176
H       0.3489002729     -1.1169610293      1.7656418066
H      -0.6746685182     -1.6979900759      0.3326989360
12
Frame=723  time=362.000fs  energy=-306.16652490Ha  molecule=COOCCCHHHHHH
C       0.0597055629      0.2314140162     -0.0476168808
O      -0.2408580221      1.5855148185      0.1898711021
O      -1.2149796317      1.7055231651      1.1544312474
C       1.0348371799      0.2502682171     -1.1506810513
C       1.6639817158     -0.8818837638     -1.4544472700
C      -0.3624454602     -0.8533529453      0.9549401404
H       1.1110368995      1.2297096695     -1.6469510028
H       1.7588972692     -1.9996302691     -1.0777638548
H       2.3955736870     -0.7956383113     -2.2308413475
H      -1.0033550542     -0.4607200997      1.7344259000
H       0.3473833798     -1.1075902826      1.7662503891
H      -0.6589284745     -1.6934596227      0.3485078176
12
Frame=724  time=362.500fs  energy=-306.16706213Ha  molecule=COOCCCHHHHHH
C       0.0540264268      0.2375736666     -0.0501983633
O      -0.2460100420      1.5854051716      0.1915397766
O      -1.2222137806      1.6968227146      1.1581302143
C       1.0406335371      0.2532009642     -1.1556204114
C       1.6723935106     -0.8839580074     -1.4483762586
C      -0.3571151682     -0.8526800036      0.9528219809
H       1.1344820754      1.2592741613     -1.6688409728
H       1.7755119975     -1.9840509075     -1.0825424231
H       2.3826698692     -0.7906341407     -2.2527436029
H      -1.0165277273     -0.4725445535      1.7271318699
H       0.3492830360     -1.1003455143      1.7624045826
H      -0.6433591073     -1.6908356083      0.3655355893
12
Frame=725  time=363.000fs  energy=-306.16760932Ha  molecule=COOCCCHHHHHH
C       0.0485062159      0.2447532225     -0.0525890420
O      -0.2514130905      1.5845844236      0.1933714224
O      -1.2293952997      1.6881837146      1.1618583786
C       1.0461986282      0.2560475884     -1.1604388270
C       1.6811708149     -0.8863492394     -1.4425267266
C      -0.3516230698     -0.8516609096      0.9509350310
H       1.1595978854      1.2834256772     -1.6900950376
H       1.7896847295     -1.9641926603     -1.0869612453
H       2.3700812863     -0.7843425167     -2.2755648018
H      -1.0348003612     -0.4806761005      1.7167819034
H       0.3550302289     -1.0951217854      1.7545161152
H      -0.6283536695     -1.6911997838      0.3827041051
12
Frame=726  time=363.500fs  energy=-306.16831949Ha  molecule=COOCCCHHHHHH
C       0.0431486237      0.2528876097     -0.0547909530
O      -0.2570645350      1.5830934485      0.1953532647
O      -1.2365174668      1.6795978890      1.1656095324
C       1.0516070333      0.2589364427     -1.1652201478
C       1.6902980252     -0.8888914121     -1.4370121335
C      -0.3460031536     -0.8502097395      0.9493493666
H       1.1856345859      1.3003691243     -1.7094680939
H       1.8015534205     -1.9414775444     -1.0904638066
H       2.3574204272     -0.7769233833     -2.2984313179
H      -1.0577006891     -0.4852369554      1.7030061245
H       0.3649621879     -1.0918090843      1.7430781092
H      -0.6142126233     -1.6954369560      0.3990566042
12
Frame=727  time=364.000fs  energy=-306.16926721Ha  molecule=COOCCCHHHHHH
C       0.0379503042      0.2619182775     -0.0568041898
O      -0.2629636997      1.5809668506      0.1974767529
O      -1.2435735343      1.6710606590      1.1693746905
C       1.0569242676      0.2619335443     -1.1700177054
C       1.6997581527     -0.8914060470     -1.4319513683
C      -0.3403126158     -0.8482626441      0.9481132062
H       1.2119233289      1.3091350342     -1.7261534272
H       1.8113162325     -1.9174885975     -1.0924834571
H       2.3443556189     -0.7686505829     -2.3204344061
H      -1.0844384505     -0.4865468458      1.6854463213
H       0.3792472151     -1.0902725549      1.7286449011
H      -0.6010668211     -1.7039891462      0.4138719720
12
Frame=728  time=364.500fs  energy=-306.17035750Ha  molecule=COOCCCHHHHHH
C       0.0329139211      0.2717887906     -0.0586383669
O      -0.2691114698      1.5782359824      0.1997365195
O      -1.2505586908      1.6625733801      1.1731436448
C       1.0621972958      0.2650565035     -1.1748531452
C       1.7095235244     -0.8936966959     -1.4274594684
C      -0.3346287285     -0.8457982110      0.9472417120
H       1.2378885929      1.3094289562     -1.7396994530
H       1.8192384122     -1.8940531815     -1.0924137112
H       2.3306966774     -0.7599011354     -2.3407480105
H      -1.1139026017     -0.4851257660      1.6638706476
H       0.3978061909     -1.0903044980      1.7118148294
H      -0.5888508704     -1.7166978545      0.4267094757
12
Frame=729  time=365.000fs  energy=-306.17141702Ha  molecule=COOCCCHHHHHH
C       0.0280588654      0.2824356924     -0.0603207816
O      -0.2755092507      1.5749346100      0.2021281775
O      -1.2574716020      1.6541445148      1.1769071080
C       1.0674540291      0.2682938947     -1.1797230261
C       1.7195458058     -0.8955372848     -1.4236409306
C      -0.3290378084     -0.8428446999      0.9467144250
H       1.2630214241      1.3014094680     -1.7498743014
H       1.8256628091     -1.8733784369     -1.0895538689
H       2.3164485586     -0.7511253074     -2.3587296342
H      -1.1447379600     -0.4816682085      1.6382760287
H       0.4202579730     -1.0915918827      1.6931854608
H      -0.5773356532     -1.7328179925      0.4373899080
12
Frame=730  time=365.500fs  energy=-306.17236898Ha  molecule=COOCCCHHHHHH
C       0.0234270822      0.2937823049     -0.0619007167
O      -0.2821578060      1.5711034126      0.2046464293
O      -1.2643155572      1.6457894663      1.1806589689
C       1.0727058073      0.2716142528     -1.1846015575
C       1.7297561274     -0.8966841527     -1.4205828208
C      -0.3236197639     -0.8394692034      0.9464823879
H       1.2868637458      1.2855516902     -1.7565911269
H       1.8309772005     -1.8578802409     -1.0831439995
H       2.3018096061     -0.7428119675     -2.3739691184
H      -1.1755037667     -0.4769914115      1.6089480346
H       0.4459279019     -1.0937264053      1.6732764411
H      -0.5662130488     -1.7512165703      0.4459330596
12
Frame=731  time=366.000fs  energy=-306.17325120Ha  molecule=COOCCCHHHHHH
C       0.0190831535      0.3057367552     -0.0634493017
O      -0.2890563413      1.5667927005      0.2072843175
O      -1.2710991346      1.6375288285      1.1843979329
C       1.0779474996      0.2749647728     -1.1894356208
C       1.7400785268     -0.8969297336     -1.4183425976
C      -0.3184372142     -0.8357569842      0.9464798365
H       1.3090307890      1.2626236777     -1.7599263709
H       1.8355226415     -1.8495304162     -1.0725651154
H       2.2871150761     -0.7354588684     -2.3862724875
H      -1.2048316713     -0.4719742030      1.5764443425
H       0.4739208623     -1.0962468164      1.6524583677
H      -0.5551813355     -1.7706333322      0.4524881094
12
Frame=732  time=366.500fs  energy=-306.17404080Ha  molecule=COOCCCHHHHHH
C       0.0151095537      0.3181923812     -0.0650551557
O      -0.2962018791      1.5620643834      0.2100332829
O      -1.2778365061      1.6293857718      1.1881283112
C       1.0831549284      0.2782655590     -1.1941371930
C       1.7504460959     -0.8961658351     -1.4169339807
C      -0.3135349804     -0.8317975545      0.9466321346
H       1.3292763575      1.2337181251     -1.7602054995
H       1.8395082295     -1.8491289325     -1.0576008523
H       2.2727542857     -0.7295287564     -2.3956050921
H      -1.2315030582     -0.4675039730      1.5415197161
H       0.5032133851     -1.0986850591      1.6309356255
H      -0.5439734683     -1.7898289005      0.4572977784
12
Frame=733  time=367.000fs  energy=-306.17454735Ha  molecule=COOCCCHHHHHH
C       0.0115976188      0.3310312798     -0.0668158731
O      -0.3035888861      1.5569923857      0.2128833998
O      -1.2845467180      1.6213835738      1.1918595598
C       1.0882840236      0.2814091827     -1.1985831835
C       1.7608091765     -0.8944168822     -1.4163174325
C      -0.3089456473     -0.8276815154      0.9468597832
H       1.3475780426      1.2002528663     -1.7580967272
H       1.8430013548     -1.8559772971     -1.0386101611
H       2.2591026281     -0.7253774092     -2.4020441626
H      -1.2545127314     -0.4644137692      1.5050470484
H       0.5327758563     -1.1006161834      1.6087941983
H      -0.5323541085     -1.8076427735      0.4606874141
12
Frame=734  time=367.500fs  energy=-306.17450478Ha  molecule=COOCCCHHHHHH
C       0.0086333626      0.3441322566     -0.0688227407
O      -0.3112095429      1.5516592160      0.2158231998
O      -1.2912505173      1.6135428226      1.1956039167
C       1.0932758261      0.2842703339     -1.2026277732
C       1.7711347211     -0.8918275351     -1.4164026963
C      -0.3046944308     -0.8234994304      0.9470832248
H       1.3641998896      1.1639363109     -1.7546649437
H       1.8459817281     -1.8681325609     -1.0164921290
H       2.2464965908     -0.7231815450     -2.4057736549
H      -1.2731563811     -0.4634041357      1.4679546792
H       0.5617135031     -1.1017030011      1.5860851521
H      -0.5201359492     -1.8230822305      0.4630360006
12
Frame=735  time=368.000fs  energy=-306.17374849Ha  molecule=COOCCCHHHHHH
C       0.0062813171      0.3573776223     -0.0711399686
O      -0.3190559840      1.5461509722      0.2188394748
O      -1.2979645985      1.6058772693      1.1993721701
C       1.0980656050      0.2867122859     -1.2061204339
C       1.7813993109     -0.8886015711     -1.4170711607
C      -0.3007979500     -0.8193375291      0.9472271276
H       1.3797003620      1.1268309709     -1.7513779636
H       1.8484168384     -1.8832376298     -0.9923707400
H       2.2352514606     -0.7229299840     -2.4070995383
H      -1.2870497479     -0.4649864777      1.4311854316
H       0.5893055226     -1.1016946186      1.5628882661
H      -0.5072040606     -1.8354148922      0.4647127845
12
Frame=736  time=368.500fs  energy=-306.17230096Ha  molecule=COOCCCHHHHHH
C       0.0045788611      0.3706492713     -0.0737933516
O      -0.3271253806      1.5405588471      0.2219193018
O      -1.3046963905      1.5983894665      1.2031694431
C       1.1025933901      0.2885882748     -1.2089254603
C       1.7915788225     -0.8849456951     -1.4181947919
C      -0.2972549577     -0.8152730665      0.9472194206
H       1.3948310426      1.0913680529     -1.7499508055
H       1.8503094847     -1.8991653309     -0.9673171637
H       2.2257051744     -0.7245165189     -2.4064521476
H      -1.2960928496     -0.4694489608      1.3956897308
H       0.6149332246     -1.1003870411      1.5393296828
H      -0.4935172325     -1.8441691336      0.4660049128
12
Frame=737  time=369.000fs  energy=-306.17033477Ha  molecule=COOCCCHHHHHH
C       0.0035533607      0.3838149736     -0.0767861951
O      -0.3354249319      1.5349878009      0.2250545380
O      -1.3114437232      1.5910698419      1.2069940922
C       1.1068134298      0.2897526468     -1.2109396025
C       1.8016352390     -0.8810639916     -1.4196222296
C      -0.2940360030     -0.8113740616      0.9469854357
H       1.4102998929      1.0600210173     -1.7519627101
H       1.8516933211     -1.9138674160     -0.9424286336
H       2.2182794098     -0.7278577424     -2.4044157333
H      -1.3004507333     -0.4768472808      1.3624324578
H       0.6380220213     -1.0975881461      1.5155858047
H      -0.4790981254     -1.8490467283      0.4670822967
12
Frame=738  time=369.500fs  energy=-306.16822464Ha  molecule=COOCCCHHHHHH
C       0.0032444372      0.3967167277     -0.0801272741
O      -0.3439723732      1.5295646598      0.2282453039
O      -1.3181997916      1.5839009254      1.2108404538
C       1.1106876448      0.2900600861     -1.2120811188
C       1.8115122165     -0.8771693726     -1.4211622228
C      -0.2910832358     -0.8077016974      0.9464480659
H       1.4266921648      1.0351630064     -1.7587697396
H       1.8526253164     -1.9250972080     -0.9189974526
H       2.2134869138     -0.7329217387     -2.4017504054
H      -1.3005324202     -0.4870666898      1.3323591157
H       0.6580608792     -1.0931102460      1.4919129914
H      -0.4640444845     -1.8498569817      0.4680098486
12
Frame=739  time=370.000fs  energy=-306.16657405Ha  molecule=COOCCCHHHHHH
C       0.0037060293      0.4091716664     -0.0838412200
O      -0.3527921030      1.5244382023      0.2315002808
O      -1.3249599357      1.5768640980      1.2147035276
C       1.1141845316      0.2893993565     -1.2122895954
C       1.8211470776     -0.8734597653     -1.4226124247
C      -0.2883230298     -0.8043092514      0.9455376927
H       1.4444604709      1.0187191164     -1.7714742699
H       1.8532102406     -1.9307945061     -0.8983379839
H       2.2118466710     -0.7396636384     -2.3993098782
H      -1.2969358141     -0.4999361218      1.3063193475
H       0.6746738177     -1.0867894288      1.4686871190
H      -0.4485432991     -1.8465329580      0.4687660400
12
Frame=740  time=370.500fs  energy=-306.16581805Ha  molecule=COOCCCHHHHHH
C       0.0049983614      0.4209869399     -0.0879643222
O      -0.3619094795      1.5197665728      0.2348333908
O      -1.3317254402      1.5699447063      1.2185823234
C       1.1173045577      0.2877628350     -1.2115667354
C       1.8304807886     -0.8700790487     -1.4238015039
C      -0.2856781550     -0.8012384041      0.9441958116
H       1.4636691642      1.0113368446     -1.7904596403
H       1.8536078918     -1.9296128661     -0.8814741242
H       2.2137904920     -0.7479480917     -2.3978990561
H      -1.2903846415     -0.5153023414      1.2850242969
H       0.6876809355     -1.0784948062      1.4464145252
H      -0.4328640650     -1.8391655885      0.4692485078
12
Frame=741  time=371.000fs  energy=-306.16591986Ha  molecule=COOCCCHHHHHH
C       0.0071746534      0.4319808352     -0.0925331667
O      -0.3713449705      1.5156977619      0.2382584002
O      -1.3385029883      1.5631336434      1.2224801523
C       1.1200987848      0.2852669221     -1.2100005693
C       1.8394601134     -0.8670995523     -1.4246099204
C      -0.2830708128     -0.7985172407      0.9423707903
H       1.4838221672      1.0121148675     -1.8151057158
H       1.8540198542     -1.9210728597     -0.8690034032
H       2.2196198010     -0.7575561998     -2.3981508666
H      -1.2816975032     -0.5330180059      1.2690485106
H       0.6971274351     -1.0681267786      1.4257213459
H      -0.4173447014     -1.8280284475      0.4692715760
12
Frame=742  time=371.500fs  energy=-306.16645912Ha  molecule=COOCCCHHHHHH
C       0.0102643635      0.4420042690     -0.0975722956
O      -0.3811103668      1.5123520632      0.2417846723
O      -1.3453017677      1.5564254010      1.2264026861
C       1.1226689324      0.2821246299     -1.2077601486
C       1.8480404391     -0.8645228503     -1.4249787003
C      -0.2804208556     -0.7961580972      0.9400170788
H       1.5038944111      1.0189044517     -1.8438282094
H       1.8546746641     -1.9054666895     -0.8611054037
H       2.2294877193     -0.7682582151     -2.4004225886
H      -1.2717667137     -0.5528677901      1.2588237644
H       0.7032843627     -1.0556251337      1.4073148539
H      -0.4023741485     -1.8136039111      0.4685571022
12
Frame=743  time=372.000fs  energy=-306.16695939Ha  molecule=COOCCCHHHHHH
C       0.0142696644      0.4509551157     -0.1030946940
O      -0.3912105138      1.5098145764      0.2454181142
O      -1.3521304380      1.5498135933      1.2303553397
C       1.1251624416      0.2786035563     -1.2050862252
C       1.8561917497     -0.8622915571     -1.4249144800
C      -0.2776472462     -0.7941526233      0.9371024528
H       1.5223497057      1.0287144004     -1.8741078748
H       1.8558143734     -1.8836596687     -0.8576145212
H       2.2433709052     -0.7798799006     -2.4046785657
H      -1.2615019256     -0.5744841710      1.2546109312
H       0.7066094242     -1.0409834946      1.3918995909
H      -0.3883594592     -1.7965881959      0.4667261529
12
Frame=744  time=372.500fs  energy=-306.16726587Ha  molecule=COOCCCHHHHHH
C       0.0191706243      0.4587746570     -0.1091041370
O      -0.4016480436      1.5081392319      0.2491646970
O      -1.3589950652      1.5432871363      1.2343410397
C       1.1277394076      0.2749511813     -1.2022443221
C       1.8639100732     -0.8603120316     -1.4244914333
C      -0.2746773137     -0.7924679111      0.9336181441
H       1.5375129693      1.0386063084     -1.9031041862
H       1.8576848788     -1.8568970660     -0.8581144310
H       2.2609988444     -0.7922777549     -2.4103590605
H      -1.2517441646     -0.5973093674      1.2564863131
H       0.7076721356     -1.0242727371      1.3801030073
H      -0.3756802427     -1.7778654908      0.4633145842
12
Frame=745  time=373.000fs  energy=-306.16745271Ha  molecule=COOCCCHHHHHH
C       0.0249191812      0.4654392512     -0.1155821757
O      -0.4124221141      1.5073500065      0.2530281382
O      -1.3658974204      1.5368290931      1.2383582715
C       1.1305278116      0.2713524699     -1.1994654255
C       1.8712288473     -0.8584802137     -1.4238460251
C      -0.2714627152     -0.7910467949      0.9295842372
H       1.5481193375      1.0465072557     -1.9285549027
H       1.8605300800     -1.8267508866     -0.8619722357
H       2.2818220825     -0.8052585614     -2.4163897322
H      -1.2431735682     -0.6206154865      1.2643550405
H       0.7071008203     -1.0056862704      1.3724470101
H      -0.3646263942     -1.7584739397      0.4578104195
12
Frame=746  time=373.500fs  energy=-306.16760557Ha  molecule=COOCCCHHHHHH
C       0.0314316097      0.4709671388     -0.1224773388
O      -0.4235222140      1.5074318309      0.2570040976
O      -1.3728345111      1.5304172612      1.2424008017
C       1.1336137255      0.2679512032     -1.1969321396
C       1.8782133357     -0.8566921726     -1.4231598741
C      -0.2679951966     -0.7898113500      0.9250469744
H       1.5534157117      1.0512549063     -1.9489925012
H       1.8645690893     -1.7951601678     -0.8682714170
H       2.3051197110     -0.8185867129     -2.4214215441
H      -1.2362029610     -0.6435613597      1.2779669451
H       0.7055789969     -0.9855716587      1.3693159549
H      -0.3553320932     -1.7395475339      0.4496900581
12
Frame=747  time=374.000fs  energy=-306.16778094Ha  molecule=COOCCCHHHHHH
C       0.0385916673      0.4754294150     -0.1297068575
O      -0.4349233761      1.5083228886      0.2610760231
O      -1.3797992138      1.5240255979      1.2464589966
C       1.1370450094      0.2648583769     -1.1947755288
C       1.8849436255     -0.8548358349     -1.4226381553
C      -0.2643129408     -0.7886699680      0.9200703984
H       1.5530886309      1.0524281063     -1.9636657144
H       1.8699502540     -1.7644330055     -0.8757254385
H       2.3301474341     -0.8320015376     -2.4241461554
H      -1.2308613936     -0.6652768546      1.2969113096
H       0.7038219153     -0.9644054175      1.3709392026
H      -0.3477679695     -1.7222137484      0.4384616541
12
Frame=748  time=374.500fs  energy=-306.16807308Ha  molecule=COOCCCHHHHHH
C       0.0462614361      0.4789503433     -0.1371646004
O      -0.4465837574      1.5099161442      0.2652122188
O      -1.3867809091      1.5176258874      1.2505212862
C       1.1408418026      0.2621474840     -1.1930788589
C       1.8914974479     -0.8527793698     -1.4224879299
C      -0.2604929253     -0.7875291905      0.9147278497
H       1.5471265339      1.0500719017     -1.9723185278
H       1.8766978897     -1.7370780750     -0.8827063881
H       2.3562491484     -0.8452186275     -2.4235418152
H      -1.2267360616     -0.6849459350      1.3205989538
H       0.7024771625     -0.9427316130      1.3773932893
H      -0.3417892967     -1.7074596632      0.4237399191
12
Frame=749  time=375.000fs  energy=-306.16864475Ha  molecule=COOCCCHHHHHH
C       0.0542901626      0.4816950315     -0.1447274231
O      -0.4584427965      1.5120691568      0.2693634103
O      -1.3937661253      1.5111893032      1.2545752620
C       1.1450095785      0.2598545771     -1.1918881509
C       1.8979345402     -0.8503851486     -1.4228835199
C      -0.2566303452     -0.7863119278      0.9090962423
H       1.5356855853      1.0444138368     -1.9749504765
H       1.8846801333     -1.7153164079     -0.8875342100
H       2.3829325725     -0.8579597792     -2.4190062529
H      -1.2230445832     -0.7018741648      1.3482551740
H       0.7019835066     -0.9211030965      1.3885610261
H      -0.3371706205     -1.6959488309      0.4053547725
12
Frame=750  time=375.500fs  energy=-306.16959602Ha  molecule=COOCCCHHHHHH
C       0.0625223018      0.4838463119     -0.1522623109
O      -0.4704223127      1.5146229246      0.2734633640
O      -1.4007399926      1.5046885363      1.2586090439
C       1.1495411119      0.2579909599     -1.1912217137
C       1.9042899361     -0.8475461317     -1.4239293336
C      -0.2528133911     -0.7849781942      0.9032528211
H       1.5190318222      1.0357328192     -1.9717121712
H       1.8936538968     -1.7006476916     -0.8888563287
H       2.4098826742     -0.8699634747     -2.4103810942
H      -1.2188179667     -0.7155478526      1.3789306398
H       0.7024730587     -0.9000347747      1.4040808112
H      -0.3336248799     -1.6878288776      0.3834535074
12
Frame=751  time=376.000fs  energy=-306.17083892Ha  molecule=COOCCCHHHHHH
C       0.0708093684      0.4855789716     -0.1596378641
O      -0.4824343494      1.5174257673      0.2774353154
O      -1.4076884721      1.4981011134      1.2626128939
C       1.1544065150      0.2565588359     -1.1910712717
C       1.9105811161     -0.8442192158     -1.4256460078
C      -0.2491048403     -0.7835366813      0.8972743240
H       1.4975400197      1.0244647621     -1.9629604175
H       1.9033806475     -1.6937857232     -0.8858551785
H       2.4369348621     -0.8809794903     -2.3979081047
H      -1.2130967875     -0.7256699586      1.4115264842
H       0.7037729542     -0.8799680027      1.4233608922
H      -0.3308639219     -1.6826826442      0.3585478582
12
Frame=752  time=376.500fs  energy=-306.17205049Ha  molecule=COOCCCHHHHHH
C       0.0790214826      0.4870454379     -0.1667348829
O      -0.4943925268      1.5203489724      0.2812020195
O      -1.4145997587      1.4914126633      1.2665797003
C       1.1595416295      0.2555485792     -1.1913911533
C       1.9168197533     -0.8404498978     -1.4279706540
C      -0.2455336271     -0.7820419066      0.8912384762
H       1.4717454490      1.0114523500     -1.9494426050
H       1.9137103921     -1.6946480969     -0.8783545293
H       2.4640522995     -0.8907675221     -2.3821648942
H      -1.2050679642     -0.7321503984      1.4448359266
H       0.7054755930     -0.8612319309      1.4456135175
H      -0.3286822308     -1.6796751602      0.3314798387
12
Frame=753  time=377.000fs  energy=-306.17274234Ha  molecule=COOCCCHHHHHH
C       0.0870522238      0.4883769500     -0.1734501557
O      -0.5062204124      1.5232885209      0.2846941861
O      -1.4214640294      1.4846181008      1.2705039744
C       1.1648444116      0.2549189546     -1.1920836955
C       1.9230196939     -0.8363731240     -1.4307685902
C      -0.2420938386     -0.7805807168      0.8852299663
H       1.4424127008      0.9981459108     -1.9324968494
H       1.9245849008     -1.7023626650     -0.8668237375
H       2.4913029589     -0.8991011236     -2.3639659407
H      -1.1941230180     -0.7350513426      1.4776037544
H       0.7069848534     -0.8440158342      1.4698293535
H      -0.3269869418     -1.6778016494      0.3033151013
12
Frame=754  time=377.500fs  energy=-306.17250042Ha  molecule=COOCCCHHHHHH
C       0.0948137543      0.4896890428     -0.1796915144
O      -0.5178539522      1.5261606248      0.2878535140
O      -1.4282727958      1.4777199169      1.2743807763
C       1.1701881957      0.2545794972     -1.1929981634
C       1.9291940383     -0.8321833691     -1.4338558744
C      -0.2387498006     -0.7792531984      0.8793466465
H       1.4105440129      0.9865598336     -1.9140885675
H       1.9359904100     -1.7153626380     -0.8522658253
H       2.5188462187     -0.9057847365     -2.3442366490
H      -1.1798412582     -0.7345119535      1.5085951417
H       0.7075218804     -0.8284085416      1.4947275480
H      -0.3257443195     -1.6761090698      0.2752145059
12
Frame=755  time=378.000fs  energy=-306.17126585Ha  molecule=COOCCCHHHHHH
C       0.1022291122      0.4910804140     -0.1853709750
O      -0.5292394750      1.5288993586      0.2906303387
O      -1.4350196286      1.4707247235      1.2782061540
C       1.1754520592      0.2543965166     -1.1939592327
C       1.9353394378     -0.8280901218     -1.4370192832
C      -0.2354497539     -0.7781535267      0.8736921891
H       1.3772476514      0.9788893853     -1.8965090237
H       1.9479198501     -1.7315614987     -0.8360473892
H       2.5469506160     -0.9106600261     -2.3239413573
H      -1.1619422660     -0.7306876793      1.5366647137
H       0.7062229037     -0.8145114537      1.5188409164
H      -0.3249135318     -1.6738036475      0.2483499266
12
Frame=756  time=378.500fs  energy=-306.16938273Ha  molecule=COOCCCHHHHHH
C       0.1092300706      0.4926288825     -0.1904047506
O      -0.5403297565      1.5314548401      0.2929791382
O      -1.4417013963      1.4636398964      1.2819783649
C       1.1805477657      0.2542267591     -1.1948141572
C       1.9414255693     -0.8242882233     -1.4400288145
C      -0.2321432132     -0.7773582065      0.8683575716
H       1.3435256838      0.9769848860     -1.8818437702
H       1.9603636088     -1.7485894023     -0.8197253075
H       2.5759759319     -0.9135511494     -2.3040528891
H      -1.1402749640     -0.7237238736      1.5608101799
H       0.7023517493     -0.8025272489      1.5407439553
H      -0.3244367986     -1.6702454416      0.2238711027
12
Frame=757  time=379.000fs  energy=-306.16743321Ha  molecule=COOCCCHHHHHH
C       0.1157555522      0.4943926801     -0.1947158280
O      -0.5510807541      1.5337887419      0.2948566146
O      -1.4483176167      1.4564709167      1.2856977501
C       1.1854237357      0.2539502007     -1.1954598863
C       1.9474084765     -0.8209426404     -1.4426630354
C      -0.2287911910     -0.7769248890      0.8634121153
H       1.3101875047      0.9820759036     -1.8716601506
H       1.9732942379     -1.7641294683     -0.8048365877
H       2.6062368979     -0.9142089449     -2.2854320226
H      -1.1148634483     -0.7137436045      1.5802051946
H       0.6954660341     -0.7927318325      1.5592414478
H      -0.3242493856     -1.6649205861      0.2028361308
12
Frame=758  time=379.500fs  energy=-306.16596546Ha  molecule=COOCCCHHHHHH
C       0.1217501279      0.4964158105     -0.1982357633
O      -0.5614525215      1.5358699270      0.2962251934
O      -1.4548678149      1.4492198100      1.2893647233
C       1.1900557722      0.2534989934     -1.1958524566
C       1.9532580803     -0.8181657655     -1.4447566094
C      -0.2253691809     -0.7768949639      0.8589068092
H       1.2778596529      0.9946205233     -1.8668576367
H       1.9866548094     -1.7763715211     -0.7926046580
H       2.6378100777     -0.9123481302     -2.2686168485
H      -1.0859742065     -0.7008257720      1.5942335927
H       0.6854863696     -0.7853758382      1.5734511915
H      -0.3242779343     -1.6574743373      0.1860769232
12
Frame=759  time=380.000fs  energy=-306.16517525Ha  molecule=COOCCCHHHHHH
C       0.1271657912      0.4987339192     -0.2009051690
O      -0.5714117646      1.5376719808      0.2970568628
O      -1.4613489425      1.4418846908      1.2929776037
C       1.1944371408      0.2528853399     -1.1960196370
C       1.9589749565     -0.8160074607     -1.4462270174
C      -0.2218634394     -0.7772909546      0.8548769373
H       1.2470321565      1.0140320002     -1.8674542824
H       2.0003514154     -1.7841849805     -0.7837930586
H       2.6704036937     -0.9076916727     -2.2536966361
H      -1.0541590751     -0.6849946989      1.6025357376
H       0.6727003747     -0.7806161685      1.5828128513
H      -0.3244577545     -1.6478047327      0.1740750470
12
Frame=760  time=380.500fs  energy=-306.16486003Ha  molecule=COOCCCHHHHHH
C       0.1319633863      0.5013781671     -0.2026721708
O      -0.5809320761      1.5391727918      0.2973325375
O      -1.4677548307      1.4344600880      1.2965322644
C       1.1985677083      0.2522031872     -1.1960581741
C       1.9645920742     -0.8144709502     -1.4470631549
C      -0.2182611150     -0.7781066779      0.8513430304
H       1.2181497646      1.0386495256     -1.8725801927
H       2.0142340168     -1.7869432993     -0.7787782487
H       2.7033556852     -0.8999826806     -2.2403624047
H      -1.0202921095     -0.6662455186      1.6050658889
H       0.6577436384     -0.7784975325      1.5870690506
H      -0.3247779426     -1.6361828448      0.1668573950
12
Frame=761  time=381.000fs  energy=-306.16464236Ha  molecule=COOCCCHHHHHH
C       0.1361133099      0.5043748470     -0.2034933503
O      -0.5899930078      1.5403565291      0.2970388086
O      -1.4740776230      1.4269382448      1.3000233229
C       1.2024456559      0.2516005090     -1.1961076931
C       1.9701706956     -0.8135365571     -1.4473008208
C      -0.2145386559     -0.7792945121      0.8483149906
H       1.1916334198      1.0661794749     -1.8807675595
H       2.0280848668     -1.7843470885     -0.7776507023
H       2.7357558345     -0.8890110236     -2.2280749978
H      -0.9856560216     -0.6445835312      1.6021526088
H       0.6416242055     -0.7789688654      1.5862544400
H      -0.3253423256     -1.6233745015      0.1638975632
12
Frame=762  time=381.500fs  energy=-306.16422416Ha  molecule=COOCCCHHHHHH
C       0.1395949847      0.5077427213     -0.2033381309
O      -0.5985800266      1.5412163531      0.2961655076
O      -1.4803101191      1.4193121355      1.3034453641
C       1.2060653776      0.2512488499     -1.1963225387
C       1.9757935852     -0.8131756251     -1.4470030872
C      -0.2106545249     -0.7807634813      0.8457931493
H       1.1678236277      1.0942179586     -1.8902748730
H       2.0416284967     -1.7763609706     -0.7802710063
H       2.7666233990     -0.8746653668     -2.2162440118
H      -0.9520203555     -0.6200384358      1.5945245724
H       0.6257689794     -0.7819536184      1.5806953587
H      -0.3264067459     -1.6106426512      0.1641390924
12
Frame=763  time=382.000fs  energy=-306.16356524Ha  molecule=COOCCCHHHHHH
C       0.1423919524      0.5114942191     -0.2021921226
O      -0.6066835173      1.5417537535      0.2947043952
O      -1.4864481694      1.4115798867      1.3067935202
C       1.2094196007      0.2513135856     -1.1968449021
C       1.9815525134     -0.8133461423     -1.4462488979
C      -0.2065495735     -0.7823997941      0.8437505995
H       1.1469326786      1.1206401478     -1.8993884376
H       2.0545673377     -1.7632206995     -0.7863026942
H       2.7950678289     -0.8569993198     -2.2043441715
H      -0.9215716022     -0.5926400263      1.5832923593
H       0.6119595377     -0.7874785511      1.5709994224
H      -0.3283245702     -1.5994858536      0.1662806737
12
Frame=764  time=382.500fs  energy=-306.16286998Ha  molecule=COOCCCHHHHHH
C       0.1444831755      0.5156401664     -0.2000542725
O      -0.6142940603      1.5419752453      0.2926463018
O      -1.4924918722      1.4037468503      1.3100640979
C       1.2125029247      0.2519230700     -1.1977828233
C       1.9875296401     -0.8139711037     -1.4451286156
C      -0.2021518592     -0.7840917467      0.8420999413
H       1.1290482872      1.1438479505     -1.9066920722
H       2.0666455298     -1.7455380792     -0.7951904068
H       2.8203821482     -0.8362661518     -2.1919625319
H      -0.8967578438     -0.5623985926      1.5699694599
H       0.6021695127     -0.7957839962      1.5580423952
H      -0.3314154876     -1.5912859392      0.1691459319
12
Frame=765  time=383.000fs  energy=-306.16250385Ha  molecule=COOCCCHHHHHH
C       0.1458378684      0.5201900576     -0.1969303190
O      -0.6213974061      1.5418923274      0.2899772041
O      -1.4984438520      1.3958207472      1.3132558624
C       1.2153154266      0.2531514932     -1.1992046397
C       1.9937789939     -0.8149125388     -1.4437451804
C      -0.1973912029     -0.7857371780      0.8406803888
H       1.1141916747      1.1628096999     -1.9112035754
H       2.0777253244     -1.7244868379     -0.8060770319
H       2.8420509374     -0.8128869916     -2.1788005507
H      -0.8800581885     -0.5293475705      1.5564169081
H       0.5983806676     -0.8073323635      1.5429338048
H      -0.3358488978     -1.5870843261      0.1718940173
12
Frame=766  time=383.500fs  energy=-306.16289903Ha  molecule=COOCCCHHHHHH
C       0.1464206357      0.5251418798     -0.1928290194
O      -0.6279751253      1.5415213348      0.2866801311
O      -1.5043042057      1.3878010650      1.3163711233
C       1.2178654647      0.2550209097     -1.2011452462
C       2.0003154940     -0.8159634916     -1.4422132382
C      -0.1922340110     -0.7872383651      0.8393001947
H       1.1023794369      1.1769733488     -1.9123884614
H       2.0878350305     -1.7018896392     -0.8177575457
H       2.8597203316     -0.7873679310     -2.1646791299
H      -0.8734382019     -0.4936041692      1.5443453806
H       0.6023048623     -0.8226859435      1.5268839972
H      -0.3416090364     -1.5874413561      0.1740892904
12
Frame=767  time=384.000fs  energy=-306.16428804Ha  molecule=COOCCCHHHHHH
C       0.1462080071      0.5304621475     -0.1877624545
O      -0.6340123992      1.5408717471      0.2827495443
O      -1.5100653071      1.3796734724      1.3194141412
C       1.2201670387      0.2575187782     -1.2036144151
C       2.0071141190     -0.8168667671     -1.4406498237
C      -0.1867154529     -0.7884885683      0.8378215201
H       1.0936655703      1.1861177038     -1.9100819112
H       2.0971583079     -1.6800454102     -0.8287631486
H       2.8732012260     -0.7602093723     -2.1495822260
H      -0.8776205265     -0.4553954487      1.5344570379
H       0.6149842871     -0.8422824604      1.5109137396
H      -0.3485901575     -1.5923830294      0.1756770306
12
Frame=768  time=384.500fs  energy=-306.16637885Ha  molecule=COOCCCHHHHHH
C       0.1452112957      0.5360692816     -0.1817542421
O      -0.6395082278      1.5399287419      0.2782107258
O      -1.5157147195      1.3714239801      1.3223866050
C       1.2222282570      0.2606172945     -1.2065974595
C       2.0141162577     -0.8173470779     -1.4391618683
C      -0.1809319079     -0.7893638253      0.8362257799
H       1.0881743791      1.1901955300     -1.9043756551
H       2.1059831077     -1.6613800956     -0.8375424683
H       2.8825278672     -0.7318488933     -2.1337120846
H      -0.8916000031     -0.4152446868      1.5259596483
H       0.6363321482     -0.8661851461      1.4954763823
H      -0.3567549208     -1.6014089058      0.1769127415
12
Frame=769  time=385.000fs  energy=-306.16841856Ha  molecule=COOCCCHHHHHH
C       0.1434921767      0.5418408859     -0.1748593993
O      -0.6444806936      1.5386561829      0.2731238223
O      -1.5212468051      1.3630636141      1.3252847598
C       1.2240383761      0.2642790860     -1.2100460706
C       2.0212398954     -0.8171513264     -1.4378311555
C      -0.1750079228     -0.7897441909      0.8346167884
H       1.0861079784      1.1892694871     -1.8955498270
H       2.1146270230     -1.6480178890     -0.8427099040
H       2.8880195583     -0.7026360461     -2.1175014212
H      -0.9126159041     -0.3743954050      1.5169144044
H       0.6648839340     -0.8939051117      1.4802997544
H      -0.3661864702     -1.6134961508      0.1782569540
12
Frame=770  time=385.500fs  energy=-306.16978757Ha  molecule=COOCCCHHHHHH
C       0.1411504668      0.5476450699     -0.1671753606
O      -0.6489611058      1.5370224472      0.2675648413
O      -1.5266677003      1.3546324476      1.3281005249
C       1.2255675280      0.2684488913     -1.2138728091
C       2.0283914840     -0.8160950960     -1.4366920401
C      -0.1690628841     -0.7895476900      0.8331552636
H       1.0877060297      1.1835861460     -1.8840772609
H       2.1233409606     -1.6413090594     -0.8433605022
H       2.8902742256     -0.6728263294     -2.1015634326
H      -0.9368196556     -0.3349168314      1.5052684968
H       0.6980825068     -0.9244381974      1.4646849182
H      -0.3769664919     -1.6272988797      0.1801776048
12
Frame=771  time=386.000fs  energy=-306.17042353Ha  molecule=COOCCCHHHHHH
C       0.1382812811      0.5533696347     -0.1588160310
O      -0.6529752790      1.5350198861      0.2615946866
O      -1.5319900103      1.3461788168      1.3308262560
C       1.2267813068      0.2730455727     -1.2179618108
C       2.0354741432     -0.8140800283     -1.4357173826
C      -0.1631774807     -0.7887376865      0.8319589913
H       1.0931709073      1.1736893795     -1.8706346663
H       2.1322565671     -1.6416611882     -0.8392288594
H       2.8900913698     -0.6426142493     -2.0866223685
H      -0.9606032163     -0.2991183695      1.4898929427
H       0.7331215504     -0.9566081093      1.4479959292
H      -0.3890278461     -1.6415763726      0.1829794619
12
Frame=772  time=386.500fs  energy=-306.17053140Ha  molecule=COOCCCHHHHHH
C       0.1349525581      0.5589280122     -0.1498852752
O      -0.6565358719      1.5326688437      0.2552455335
O      -1.5372254141      1.3377387665      1.3334575938
C       1.2276537047      0.2779584167     -1.2221786077
C       2.0423918943     -0.8110854573     -1.4348186976
C      -0.1573895529     -0.7873204420      0.8310617010
H       1.1026009293      1.1604881492     -1.8560920773
H       2.1413808705     -1.6486356669     -0.8306693058
H       2.8883745597     -0.6121808422     -2.0734525009
H      -0.9814571152     -0.2689074959      1.4707628532
H       0.7676877959     -0.9893857385      1.4298274521
H      -0.4020943623     -1.6553326245      0.1868288200
12
Frame=773  time=387.000fs  energy=-306.17020128Ha  molecule=COOCCCHHHHHH
C       0.1312252697      0.5642532684     -0.1404844240
O      -0.6596578377      1.5300116005      0.2485385256
O      -1.5423812486      1.3293331530      1.3359907137
C       1.2281724974      0.2830423043     -1.2263717708
C       2.0490591387     -0.8071700827     -1.4338545355
C      -0.1517212649     -0.7853503666      0.8304394560
H       1.1159565982      1.1453123660     -1.8415302611
H       2.1505842722     -1.6609290937     -0.8186682769
H       2.8860436048     -0.5817276058     -2.0627901825
H      -0.9979991823     -0.2455039182      1.4485523076
H       0.8002364920     -1.0219615470      1.4099486901
H      -0.4156971155     -1.6677166768      0.1918137298
12
Frame=774  time=387.500fs  energy=-306.16936152Ha  molecule=COOCCCHHHHHH
C       0.1271780833      0.5692903864     -0.1307265063
O      -0.6623737126      1.5271019216      0.2415049171
O      -1.5474641736      1.3209782941      1.3384195825
C       1.2283400092      0.2881175554     -1.2303756521
C       2.0554153742     -0.8024591809     -1.4326598170
C      -0.1462004643     -0.7829239575      0.8300407557
H       1.1330468810      1.1299470663     -1.8282576246
H       2.1596348709     -1.6765278922     -0.8047115556
H       2.8839367438     -0.5515012551     -2.0552294281
H      -1.0095703340     -0.2294735938      1.4242896110
H       0.8298362674     -1.0536992435      1.3883264724
H      -0.4292692845     -1.6780237110      0.1979464567
12
Frame=775  time=388.000fs  energy=-306.16804114Ha  molecule=COOCCCHHHHHH
C       0.1229160888      0.5739840090     -0.1207374338
O      -0.6647355868      1.5239939396      0.2341926304
O      -1.5524847534      1.3126964625      1.3407362886
C       1.2281689510      0.2929878775     -1.2340210654
C       2.0614328959     -0.7971030482     -1.4310884601
C      -0.1408512223     -0.7801642940      0.8297943123
H       1.1535507323      1.1165256511     -1.8177368737
H       2.1683062071     -1.6932589263     -0.7904060123
H       2.8826960835     -0.5217762602     -2.0511529840
H      -1.0158249871     -0.2209234130      1.3992408869
H       0.8557121972     -1.0840021106      1.3651731531
H      -0.4422683891     -1.6857319982      0.2051587992
12
Frame=776  time=388.500fs  energy=-306.16650810Ha  molecule=COOCCCHHHHHH
C       0.1185617638      0.5782713848     -0.1106463619
O      -0.6668063564      1.5207305975      0.2266619141
O      -1.5574581358      1.3045181736      1.3429332711
C       1.2276791337      0.2974766057     -1.2371583625
C       2.0671148495     -0.7912436089     -1.4290376029
C      -0.1356723295     -0.7772063814      0.8296091295
H       1.1770697512      1.1071796041     -1.8113438863
H       2.1764689228     -1.7092491627     -0.7771950159
H       2.8826629690     -0.4928280965     -2.0506885687
H      -1.0166997188     -0.2196228463      1.3748220208
H       0.8770351203     -1.1122465881      1.3409094746
H      -0.4542509546     -1.6904376917      0.2133391908
12
Frame=777  time=389.000fs  energy=-306.16515836Ha  molecule=COOCCCHHHHHH
C       0.1142372259      0.5820866139     -0.1005761414
O      -0.6686483108      1.5173382584      0.2189771425
O      -1.5624028017      1.2964784767      1.3450059045
C       1.2268966643      0.3014535556     -1.2396764225
C       2.0724884486     -0.7850012452     -1.4264482715
C      -0.1306325598     -0.7741826345      0.8293827482
H       1.2031866608      1.1036596436     -1.8101214047
H       2.1841003490     -1.7230007766     -0.7663092624
H       2.8838296431     -0.4649701176     -2.0536707431
H      -1.0124508422     -0.2251457045      1.3524084894
H       0.8930238084     -1.1378129587      1.3160931161
H      -0.4649123575     -1.6917476461      0.2223720502
12
Frame=778  time=389.500fs  energy=-306.16437459Ha  molecule=COOCCCHHHHHH
C       0.1100540916      0.5853650886     -0.0906412711
O      -0.6703201504      1.5138344072      0.2112026268
O      -1.5673389763      1.2886115803      1.3469539761
C       1.2258515342      0.3048441956     -1.2415100455
C       2.0775969599     -0.7784710079     -1.4232961791
C      -0.1256868213     -0.7712071661      0.8290164556
H       1.2315595863      1.1070584345     -1.8146579063
H       2.1912289950     -1.7332418694     -0.7588143948
H       2.8858571867     -0.4386147898     -2.0596320857
H      -1.0035260297     -0.2370690232      1.3331206190
H       0.9031552974     -1.1601592673      1.2913624576
H      -0.4741172659     -1.6892488924      0.2321422875
12
Frame=779  time=390.000fs  energy=-306.16437578Ha  molecule=COOCCCHHHHHH
C       0.1061134305      0.5880423735     -0.0809502845
O      -0.6718816873      1.5102406049      0.2034032053
O      -1.5722867863      1.2809461422      1.3487821460
C       1.2245752559      0.3076415356     -1.2426478578
C       2.0824905057     -0.7717167492     -1.4195863499
C      -0.1207937063     -0.7683632034      0.8284274635
H       1.2619905030      1.1175360531     -1.8249743797
H       2.1978891829     -1.7389028824     -0.7555703591
H       2.8881607422     -0.4142667608     -2.0678704354
H      -0.9904046959     -0.2550682463      1.3177069843
H       0.9072871897     -1.1788913510      1.2673871302
H      -0.4818970492     -1.6825784746      0.2425115237
12
Frame=780  time=390.500fs  energy=-306.16505841Ha  molecule=COOCCCHHHHHH
C       0.1025037945      0.5900564006     -0.0716044114
O      -0.6733952503      1.5065872508      0.1956434943
O      -1.5772641403      1.2735007761      1.3505004112
C       1.2231054091      0.3099120329     -1.2431375647
C       2.0872193070     -0.7647638730     -1.4153549467
C      -0.1159181116     -0.7656999109      0.8275513476
H       1.2943413727      1.1342181302     -1.8404324487
H       2.2041130439     -1.7392728524     -0.7571127500
H       2.8900329544     -0.3924610756     -2.0775631288
H      -0.9735923771     -0.2787593222      1.3065856683
H       0.9056248498     -1.1937985199      1.2448300592
H      -0.4883844513     -1.6715743805      0.2532623762
12
Frame=781  time=391.000fs  energy=-306.16594483Ha  molecule=COOCCCHHHHHH
C       0.0992929645      0.5913560186     -0.0626884952
O      -0.6749205579      1.5029094992      0.1879826142
O      -1.5822833695      1.2662788010      1.3521232295
C       1.2214951399      0.3117892168     -1.2430842502
C       2.0918329226     -0.7575974334     -1.4106741589
C      -0.1110166163     -0.7632407078      0.8263352175
H       1.3283157523      1.1553350114     -1.8597079771
H       2.2099390632     -1.7341449029     -0.7635786101
H       2.8907781994     -0.3737323879     -2.0878602776
H      -0.9538551001     -0.3073255523      1.3000571549
H       0.8986299291     -1.2048566884      1.2243288594
H      -0.4937268719     -1.6564713257      0.2640056046
12
Frame=782  time=391.500fs  energy=-306.16639334Ha  molecule=COOCCCHHHHHH
C       0.0965214760      0.5919074353     -0.0542588019
O      -0.6765072570      1.4992417234      0.1804662619
O      -1.5873478736      1.2592657887      1.3536655860
C       1.2198187037      0.3134663479     -1.2426433128
C       2.0963839456     -0.7501679335     -1.4056534565
C      -0.1060174283     -0.7609968211      0.8247263342
H       1.3632505785      1.1784679954     -1.8808470230
H       2.2154192461     -1.7238378660     -0.7747232539
H       2.8898332452     -0.3586413947     -2.0979378934
H      -0.9325952958     -0.3392371454      1.2986349139
H       0.8870104920     -1.2122222552      1.2064742509
H      -0.4980637548     -1.6380173836      0.2741064207
12
Frame=783  time=392.000fs  energy=-306.16607101Ha  molecule=COOCCCHHHHHH
C       0.0942033825      0.5916950998     -0.0463384857
O      -0.6781905190      1.4956146281      0.1731230644
O      -1.5924526202      1.2524358978      1.3551382961
C       1.2181672042      0.3151644565     -1.2419949361
C       2.1009319128     -0.7424048978     -1.4004305553
C      -0.1008059564     -0.7589746696      0.8226584377
H       1.3981000645      1.2010461789     -1.9015944152
H       2.2206034511     -1.7090720645     -0.7900069999
H       2.8868090491     -0.3477805957     -2.1070239973
H      -0.9121020819     -0.3723590637      1.3033507562
H       0.8717367530     -1.2162282796      1.1917509347
H      -0.5015409052     -1.6174199019      0.2827091171
12
Frame=784  time=392.500fs  energy=-306.16533145Ha  molecule=COOCCCHHHHHH
C       0.0923355397      0.5907183983     -0.0389265767
O      -0.6799947337      1.4920583452      0.1659688690
O      -1.5975865337      1.2457619984      1.3565448255
C       1.2166346727      0.3170739420     -1.2413035178
C       2.1055405095     -0.7342383074     -1.3951504227
C      -0.0952245323     -0.7571689394      0.8200447667
H       1.4316598730      1.2209639682     -1.9199038260
H       2.2254888843     -1.6907433066     -0.8087111909
H       2.8814530645     -0.3416533279     -2.1144383779
H      -0.8953981312     -0.4043786942      1.3158677323
H       0.8539166189     -1.2173444317      1.1804590205
H      -0.5042933224     -1.5962239825      0.2888076196
12
Frame=785  time=393.000fs  energy=-306.16497897Ha  molecule=COOCCCHHHHHH
C       0.0909146257      0.5889809515     -0.0320126937
O      -0.6819398750      1.4886105989      0.1590095988
O      -1.6027355013      1.2392205374      1.3578823942
C       1.2153008761      0.3193244393     -1.2406923518
C       2.1102624143     -0.7256153593     -1.3899403447
C      -0.0891686198     -0.7555216860      0.8168254258
H       1.4628441081      1.2368267705     -1.9342452218
H       2.2300256750     -1.6697398571     -0.8300902857
H       2.8736756415     -0.3405334168     -2.1196881151
H      -0.8848922073     -0.4337700614      1.3378116825
H       0.8346486090     -1.2160734175      1.1727751060
H      -0.5064766905     -1.5760287926      0.2913571445
12
Frame=786  time=393.500fs  energy=-306.16538611Ha  molecule=COOCCCHHHHHH
C       0.0899411285      0.5864770384     -0.0255774153
O      -0.6840413635      1.4853150383      0.1522415998
O      -1.6078853419      1.2327887704      1.3591471044
C       1.2142166475      0.3219876808     -1.2402349769
C       2.1151169541     -0.7164974271     -1.3848939337
C      -0.0827119053     -0.7538970634      0.8130306006
H       1.4908807870      1.2479080233     -1.9437118558
H       2.2341982813     -1.6469920730     -0.8534162912
H       2.8636518315     -0.3444005188     -2.1225987508
H      -0.8808797354     -0.4602668605      1.3696620011
H       0.8150748400     -1.2129107734      1.1688974292
H      -0.5082693475     -1.5581660307      0.2893914272
12
Frame=787  time=394.000fs  energy=-306.16618547Ha  molecule=COOCCCHHHHHH
C       0.0894118677      0.5831919133     -0.0195851210
O      -0.6863077944      1.4822085910      0.1456559355
O      -1.6130234982      1.2264454488      1.3603366726
C       1.2134034655      0.3251007327     -1.2399656008
C       2.1200718081     -0.7068305621     -1.3800755641
C      -0.0761029502     -0.7521196532      0.8087798199
H       1.5153492186      1.2539241844     -1.9479289470
H       2.2380866492     -1.6238899560     -0.8777313838
H       2.8519073857     -0.3528971921     -2.1234298088
H      -0.8816427043     -0.4844154636      1.4103741655
H       0.7964971650     -1.2083709318      1.1690285082
H      -0.5098100023     -1.5435068743      0.2821834150
12
Frame=788  time=394.500fs  energy=-306.16679624Ha  molecule=COOCCCHHHHHH
C       0.0893160204      0.5791156611     -0.0139876797
O      -0.6887414015      1.4793123317      0.1392437037
O      -1.6181390621      1.2201758935      1.3614487085
C       1.2128649661      0.3286909387     -1.2398980113
C       2.1250373278     -0.6965045480     -1.3755389964
C      -0.0696916017     -0.7500266451      0.8042467764
H       1.5360697433      1.2547740103     -1.9468351547
H       2.2419068380     -1.6027986099     -0.9015670621
H       2.8393562754     -0.3653355628     -2.1229277309
H      -0.8844437894     -0.5070481541      1.4576834448
H       0.7804443478     -1.2030613020      1.1733116840
H      -0.5111299599     -1.5323958527      0.2694119327
12
Frame=789  time=395.000fs  energy=-306.16705812Ha  molecule=COOCCCHHHHHH
C       0.0896334170      0.5742537623     -0.0087342330
O      -0.6913409540      1.4766277922      0.1330023272
O      -1.6232193627      1.2139742566      1.3624758352
C       1.2126003578      0.3327811405     -1.2400344105
C       2.1298789299     -0.6853604292     -1.3713262398
C      -0.0638364618     -0.7475130394      0.7996166827
H       1.5529824559      1.2503990916     -1.9405150983
H       2.2459456795     -1.5867924095     -0.9231264704
H       2.8272280643     -0.3808003233     -2.1222358647
H      -0.8865911871     -0.5288065458      1.5087593611
H       0.7685128914     -1.1976622121      1.1817585510
H      -0.5120679099     -1.5247079234      0.2511987048
12
Frame=790  time=395.500fs  energy=-306.16723416Ha  molecule=COOCCCHHHHHH
C       0.0903351659      0.5686312807     -0.0037824102
O      -0.6941002629      1.4741342694      0.1269389157
O      -1.6282480312      1.2078419350      1.3634041105
C       1.2126107171      0.3373816197     -1.2403612109
C       2.1344490295     -0.6732733307     -1.3674397589
C      -0.0588565898     -0.7445546975      0.7950762160
H       1.5661056563      1.2408079071     -1.9291772732
H       2.2503815919     -1.5784671125     -0.9409179075
H       2.8168261986     -0.3982666345     -2.1226493162
H      -0.8858190070     -0.5499380885      1.5605394144
H       0.7620786718     -1.1927674221      1.1941715514
H      -0.5122316794     -1.5199298843      0.2280621767
12
Frame=791  time=396.000fs  energy=-306.16762158Ha  molecule=COOCCCHHHHHH
C       0.0913912125      0.5622952728      0.0008890558
O      -0.6970014002      1.4717912847      0.1210645938
O      -1.6332086995      1.2017834427      1.3642187034
C       1.2128923048      0.3424866288     -1.2408404098
C       2.1386294081     -0.6602447668     -1.3638260950
C      -0.0549929226     -0.7412133662      0.7908119732
H       1.5755069747      1.2262657676     -1.9132183828
H       2.2551465515     -1.5789187740     -0.9542206946
H       2.8092302741     -0.4166888764     -2.1253363304
H      -0.8804212340     -0.5703976289      1.6099863860
H       0.7619357252     -1.1886328967      1.2100523258
H      -0.5110623662     -1.5172333487      0.2008741428
12
Frame=792  time=396.500fs  energy=-306.16816069Ha  molecule=COOCCCHHHHHH
C       0.0927752385      0.5553172839      0.0052778433
O      -0.7000135027      1.4695462835      0.1153869944
O      -1.6380887033      1.1958019364      1.3649094749
C       1.2134268364      0.3480698341     -1.2414045879
C       2.1423659200     -0.6464476572     -1.3603875620
C      -0.0523511286     -0.7376228368      0.7869872534
H       1.5812782484      1.2075527558     -1.8933148515
H       2.2598801720     -1.5873993529     -0.9631219682
H       2.8051264342     -0.4350903143     -2.1311510154
H      -0.8695438924     -0.5900096388      1.6546444568
H       0.7679802769     -1.1850187255      1.2285158745
H      -0.5079827695     -1.5156383890      0.1707471509
12
Frame=793  time=397.000fs  energy=-306.16839466Ha  molecule=COOCCCHHHHHH
C       0.0944566064      0.5477978953      0.0093730675
O      -0.7030988244      1.4673402088      0.1099087707
O      -1.6428793538      1.1898982956      1.3654707925
C       1.2141779186      0.3540712948     -1.2419585779
C       2.1456885551     -0.6322059816     -1.3570180869
C      -0.0508975383     -0.7339530710      0.7837326420
H       1.5835780832      1.1861606322     -1.8705327958
H       2.2640043299     -1.6015406968     -0.9683208473
H       2.8047062688     -0.4527066643     -2.1404536108
H      -0.8531697272     -0.6085816619      1.6929057866
H       0.7792683136     -1.1813241377      1.2483240561
H      -0.5025350834     -1.5142372777      0.1388754869
12
Frame=794  time=397.500fs  energy=-306.16786072Ha  molecule=COOCCCHHHHHH
C       0.0963898529      0.5398611127      0.0131769434
O      -0.7062210414      1.4651131644      0.1046300852
O      -1.6475753542      1.1840737175      1.3658986146
C       1.2150957436      0.3603858094     -1.2423918449
C       2.1487099097     -0.6179007266     -1.3536533018
C      -0.0505160667     -0.7303745734      0.7811573545
H       1.5827285827      1.1643126718     -1.8463848107
H       2.2669594283     -1.6182838754     -0.9707901413
H       2.8075281175     -0.4690932515     -2.1528954483
H      -0.8317796092     -0.6259556677      1.7238051931
H       0.7944262213     -1.1768742893      1.2680763416
H      -0.4944360832     -1.5123103357      0.1064111184
12
Frame=795  time=398.000fs  energy=-306.16637613Ha  molecule=COOCCCHHHHHH
C       0.0985209736      0.5316344727      0.0167059190
O      -0.7093477624      1.4628103929      0.0995500919
O      -1.6521747660      1.1783306319      1.3661897819
C       1.2161194657      0.3668484239     -1.2425815509
C       2.1515894491     -0.6038645358     -1.3502974752
C      -0.0510662419     -0.7270443937      0.7793632927
H       1.5793611724      1.1448773160     -1.8228345075
H       2.2683731107     -1.6349695206     -0.9713851500
H       2.8124970598     -0.4839764222     -2.1674099086
H      -0.8060626205     -0.6419921992      1.7466814889
H       0.8120510781     -1.1710700920      1.2863629415
H      -0.4835083955     -1.5092857255      0.0744176653
12
Frame=796  time=398.500fs  energy=-306.16423541Ha  molecule=COOCCCHHHHHH
C       0.1008045093      0.5232356354      0.0199714867
O      -0.7124474082      1.4603838560      0.0946673049
O      -1.6566786483      1.1726708395      1.3663432185
C       1.2171690500      0.3732325976     -1.2423827906
C       2.1544875360     -0.5903674608     -1.3470036432
C      -0.0524029008     -0.7241025484      0.7784506647
H       1.5744446688      1.1311968301     -1.8021407520
H       2.2679863713     -1.6494250740     -0.9707350753
H       2.8182202574     -0.4970688436     -2.1825374741
H      -0.7768299280     -0.6565345146      1.7609792758
H       0.8308410720     -1.1634012969      1.3017634570
H      -0.4695857881     -1.5047146755      0.0439143251
12
Frame=797  time=399.000fs  energy=-306.16222247Ha  molecule=COOCCCHHHHHH
C       0.1032116556      0.5147733754      0.0229715196
O      -0.7154921833      1.4577935566      0.0899818166
O      -1.6610885072      1.1670941368      1.3663588575
C       1.2181592267      0.3793299477     -1.2416675448
C       2.1575423972     -0.5776336378     -1.3438422284
C      -0.0543729107     -0.7216594003      0.7785008955
H       1.5688173496      1.1262414019     -1.7861308922
H       2.2656417617     -1.6597991958     -0.9693417818
H       2.8235108784     -0.5081607750     -2.1968436098
H      -0.7450437561     -0.6694139986      1.7662928076
H       0.8496389643     -1.1534974862      1.3129596033
H      -0.4525726825     -1.4983563926      0.0158881120
12
Frame=798  time=399.500fs  energy=-306.16107186Ha  molecule=COOCCCHHHHHH
C       0.1057234157      0.5063497808      0.0256978830
O      -0.7184603832      1.4550068268      0.0854967961
O      -1.6654031387      1.1615987320      1.3662349173
C       1.2190211047      0.3850198535     -1.2403605801
C       2.1608547834     -0.5658242874     -1.3408807164
C      -0.0568120388     -0.7197871965      0.7795440860
H       1.5628694202      1.1318400943     -1.7757374126
H       2.2613439971     -1.6647685697     -0.9675934100
H       2.8276340161     -0.5171872196     -2.2092087522
H      -0.7118572583     -0.6804831606      1.7625413448
H       0.8675234660     -1.1411767319      1.3189372452
H      -0.4325286161     -1.4902077619     -0.0087411471
12
Frame=799  time=400.000fs  energy=-306.16105310Ha  molecule=COOCCCHHHHHH
C       0.1083188630      0.4980626343      0.0281440252
O      -0.7213332402      1.4519944761      0.0812175121
O      -1.6696171534      1.1561820289      1.3659667637
C       1.2197121430      0.3902735448     -1.2384358871
C       2.1644776228     -0.5550326000     -1.3381742924
C      -0.0595402279     -0.7185237634      0.7815349525
H       1.5566209726      1.1485562868     -1.7711101907
H       2.2552532845     -1.6635978022     -0.9657470501
H       2.8302796262     -0.5241440716     -2.2189123418
H      -0.6786726383     -0.6896413450      1.7501952146
H       0.8838291691     -1.1264228119      1.3190511815
H      -0.4096597177     -1.4804451266     -0.0291568767
12
Frame=800  time=400.500fs  energy=-306.16191278Ha  molecule=COOCCCHHHHHH
C       0.1109686094      0.4900073636      0.0303060441
O      -0.7240923037      1.4487283837      0.0771497941
O      -1.6737215205      1.1508406711      1.3655480096
C       1.2202242465      0.3951447710     -1.2359100150
C       2.1684202221     -0.5452945044     -1.3357675187
C      -0.0623557573     -0.7178769563      0.7843468664
H       1.5498240188      1.1757291345     -1.7717762133
H       2.2476208693     -1.6560463972     -0.9639209150
H       2.8314180549     -0.5289838295     -2.2255712905
H      -0.6471798863     -0.6968448640      1.7304851702
H       0.8980786746     -1.1093360396      1.3129876201
H      -0.3842764285     -1.4693952777     -0.0447213996
12
Frame=801  time=401.000fs  energy=-306.16299804Ha  molecule=COOCCCHHHHHH
C       0.1136351413      0.4822781672      0.0321797829
O      -0.7267209225      1.4451834525      0.0732992068
O      -1.6777055860      1.1455702847      1.3649722840
C       1.2205876433      0.3997658116     -1.2328425549
C       2.1726596072     -0.5365922997     -1.3336997389
C      -0.0650318500     -0.7178285992      0.7877777665
H       1.5420334932      1.2114720945     -1.7766982324
H       2.2387177873     -1.6423017696     -0.9620936572
H       2.8311774924     -0.5315793913     -2.2290585404
H      -0.6193279622     -0.7021083489      1.7055461643
H       0.9098748683     -1.0900934401      1.3007132166
H      -0.3567620349     -1.4575782337     -0.0550728556
12
Frame=802  time=401.500fs  energy=-306.16356045Ha  molecule=COOCCCHHHHHH
C       0.1162766684      0.4749730957      0.0337580021
O      -0.7292091242      1.4413440083      0.0696700994
O      -1.6815602185      1.1403665959      1.3642341282
C       1.2208691117      0.4043401610     -1.2293395549
C       2.1771518374     -0.5288552264     -1.3320057051
C      -0.0673158059     -0.7183448731      0.7915485871
H       1.5326668092      1.2527394427     -1.7842879294
H       2.2287979846     -1.6229094750     -0.9601434178
H       2.8297877224     -0.5317689658     -2.2294587977
H      -0.5972792605     -0.7055172387      1.6785869605
H       0.9188148701     -1.0689399474      1.2824491167
H      -0.3275410532     -1.4457570228     -0.0601594673
12
Frame=803  time=402.000fs  energy=-306.16336052Ha  molecule=COOCCCHHHHHH
C       0.1188481372      0.4682004034      0.0350337664
O      -0.7315552898      1.4372078647      0.0662635347
O      -1.6852806415      1.1352283798      1.3633285634
C       1.2211546156      0.4090996093     -1.2255344495
C       2.1818451475     -0.5219748830     -1.3307124486
C      -0.0689409148     -0.7193884877      0.7952864333
H       1.5211256788      1.2959649302     -1.7926813636
H       2.2180958061     -1.5986624272     -0.9579109265
H       2.8275758078     -0.5294310945     -2.2270470436
H      -0.5833528591     -0.7072698163      1.6539720920
H       0.9245471938     -1.0462106140      1.2587260985
H      -0.2970564311     -1.4348946785     -0.0601242411
12
Frame=804  time=402.500fs  energy=-306.16296645Ha  molecule=COOCCCHHHHHH
C       0.1212984504      0.4620732187      0.0360071715
O      -0.7337614618      1.4327812012      0.0630774652
O      -1.6888648668      1.1301586299      1.3622496104
C       1.2215214773      0.4142382117     -1.2215496364
C       2.1866903804     -0.5158284785     -1.3298351752
C      -0.0696840285     -0.7209176223      0.7985849012
H       1.5069528027      1.3380962932     -1.8002361176
H       2.2068193944     -1.5705151246     -0.9552191185
H       2.8249807614     -0.5245235673     -2.2222798780
H      -0.5796159017     -0.7076756904      1.6362177383
H       0.9270344673     -1.0223535710      1.2304333777
H      -0.2657785002     -1.4260366026     -0.0551265853
12
Frame=805  time=403.000fs  energy=-306.16308349Ha  molecule=COOCCCHHHHHH
C       0.1235698111      0.4566914765      0.0366787763
O      -0.7358305903      1.4280712719      0.0601110717
O      -1.6923098370      1.1251638794      1.3609882248
C       1.2220268957      0.4198822380     -1.2174780959
C       2.1916333931     -0.5102755314     -1.3293745373
C      -0.0694340846     -0.7228772063      0.8011431692
H       1.4898883110      1.3770608866     -1.8057667982
H       2.1951558389     -1.5396350761     -0.9518392219
H       2.8225784395     -0.5171210237     -2.2158031299
H      -0.5872607369     -0.7070914825      1.6283545455
H       0.9267809505     -0.9979760371      1.1988062270
H      -0.2341950911     -1.4201488240     -0.0453503835
12
Frame=806  time=403.500fs  energy=-306.16385207Ha  molecule=COOCCCHHHHHH
C       0.1256041793      0.4521341996      0.0370286312
O      -0.7377698457      1.4230821640      0.0573705567
O      -1.6956086996      1.1202539685      1.3595295080
C       1.2227100264      0.4260903799     -1.2133803230
C       2.1966036199     -0.5051374592     -1.3293222397
C      -0.0682284289     -0.7251923684      0.8028608923
H       1.4698905683      1.4116770639     -1.8085623130
H       2.1832974606     -1.5074703710     -0.9474804664
H       2.8210858530     -0.5074709336     -2.2084330332
H      -0.6062342620     -0.7059194481      1.6312703422
H       0.9248381394     -0.9738841586      1.1654585183
H      -0.2027625111     -1.4180281181     -0.0312894209
12
Frame=807  time=404.000fs  energy=-306.16497810Ha  molecule=COOCCCHHHHHH
C       0.1273527639      0.4484686321      0.0369980899
O      -0.7395934506      1.4178137998      0.0548701462
O      -1.6987444958      1.1154349177      1.3578509488
C       1.2235968434      0.4328621378     -1.2092855815
C       2.2015121217     -0.5002021511     -1.3296617697
C      -0.0662323388     -0.7277853377      0.8038441178
H       1.4471599747      1.4414119819     -1.8083385075
H       2.1713858367     -1.4755226568     -0.9418187455
H       2.8212846090     -0.4959826758     -2.2010736217
H      -0.6355268362     -0.7045079472      1.6442451538
H       0.9227653393     -0.9509842894      1.1322667447
H      -0.1719154839     -1.4203199219     -0.0140858347
12
Frame=808  time=404.500fs  energy=-306.16593849Ha  molecule=COOCCCHHHHHH
C       0.1287904749      0.4457272848      0.0365090262
O      -0.7413218181      1.4122692993      0.0526252414
O      -1.7016867503      1.1106980612      1.3559265462
C       1.2247061101      0.4401628851     -1.2052067495
C       2.2062558434     -0.4952501104     -1.3303632765
C      -0.0636775796     -0.7305980409      0.8043340173
H       1.4220794837      1.4660635311     -1.8050775245
H       2.1595298889     -1.4451515452     -0.9345566799
H       2.8238279960     -0.4830637291     -2.1945448531
H      -0.6737101445     -0.7030133634      1.6654340047
H       0.9224943247     -0.9299620584      1.1010529087
H      -0.1422537366     -1.4274074132      0.0048111552
12
Frame=809  time=405.000fs  energy=-306.16582532Ha  molecule=COOCCCHHHHHH
C       0.1299086610      0.4438522138      0.0355269048
O      -0.7429796445      1.4064688103      0.0506435672
O      -1.7044110710      1.1060293958      1.3537386479
C       1.2260547409      0.4479622292     -1.2011626803
C       2.2107374049     -0.4900834808     -1.3313989969
C      -0.0608661634     -0.7335748908      0.8046570472
H       1.3950333929      1.4854715116     -1.7987955329
H       2.1481008693     -1.4178060558     -0.9255322928
H       2.8290877404     -0.4689094786     -2.1894015492
H      -0.7180108973     -0.7015287449      1.6909664579
H       0.9258287928     -0.9110145246      1.0736917583
H      -0.1148158609     -1.4392608967      0.0243790115
12
Frame=810  time=405.500fs  energy=-306.16424482Ha  molecule=COOCCCHHHHHH
C       0.1306856503      0.4427304044      0.0340730961
O      -0.7445824393      1.4004303042      0.0489307737
O      -1.7069147833      1.1014304837      1.3512777181
C       1.2276580311      0.4562480632     -1.1971806607
C       2.2148866251     -0.4845364105     -1.3327744969
C      -0.0581632739     -0.7366165866      0.8051860800
H       1.3663168550      1.4994121446     -1.7894739067
H       2.1377650771     -1.3951296440     -0.9147169970
H       2.8372212373     -0.4534824284     -2.1858975413
H      -0.7635293530     -0.7005387468      1.7150481495
H       0.9335699232     -0.8939337248      1.0524206241
H      -0.0909539389     -1.4557526537      0.0441366003
12
Frame=811  time=406.000fs  energy=-306.16249141Ha  molecule=COOCCCHHHHHH
C       0.1310971254      0.4422603123      0.0321777495
O      -0.7461321662      1.3941513774      0.0474992348
O      -1.7092076989      1.0969197555      1.3485321334
C       1.2295181740      0.4650272820     -1.1932838513
C       2.2186570254     -0.4784713780     -1.3345245874
C      -0.0558031675     -0.7396359906      0.8061487169
H       1.3362087504      1.5076357841     -1.7771188102
H       2.1293333937     -1.3785811538     -0.9022968691
H       2.8483196612     -0.4367100846     -2.1840849557
H      -0.8050921466     -0.7008631461      1.7327357564
H       0.9449537717     -0.8780759243      1.0400576374
H      -0.0724624292     -1.4768742940      0.0640609216
12
Frame=812  time=406.500fs  energy=-306.16196347Ha  molecule=COOCCCHHHHHH
C       0.1311273301      0.4423414927      0.0298728038
O      -0.7476306226      1.3876334172      0.0463594669
O      -1.7113009790      1.0925141404      1.3454921070
C       1.2316237360      0.4742940367     -1.1894746404
C       2.2220164283     -0.4718058319     -1.3366698380
C      -0.0537477786     -0.7426022071      0.8075460331
H       1.3050666756      1.5100174853     -1.7618642782
H       2.1236064258     -1.3687817847     -0.8888619333
H       2.8623274663     -0.4186657582     -2.1838061892
H      -0.8402747560     -0.7029499281      1.7424239894
H       0.9583065241     -0.8626336561      1.0384679566
H      -0.0607351675     -1.5025418260      0.0843271506
12
Frame=813  time=407.000fs  energy=-306.16269923Ha  molecule=COOCCCHHHHHH
C       0.1307523609      0.4428659921      0.0272066836
O      -0.7490798785      1.3808899951      0.0455105541
O      -1.7132012162      1.0882163646      1.3421546445
C       1.2339555412      0.4839992059     -1.1857224695
C       2.2249534951     -0.4645277131     -1.3391994428
C      -0.0518811047     -0.7455068648      0.8093532639
H       1.2733753922      1.5067790447     -1.7441140208
H       2.1211803946     -1.3654405733     -0.8752430529
H       2.8788575740     -0.3995185829     -2.1846535145
H      -0.8683779841     -0.7067503747      1.7440320764
H       0.9715796820     -0.8472092327      1.0474459617
H      -0.0557131198     -1.5321756615      0.1053357389
12
Frame=814  time=407.500fs  energy=-306.16429804Ha  molecule=COOCCCHHHHHH
C       0.1299344133      0.4437340250      0.0242275956
O      -0.7504744791      1.3739392656      0.0449399546
O      -1.7149145098      1.0840180444      1.3385248676
C       1.2364871191      0.4940573689     -1.1819717780
C       2.2274790861     -0.4566778224     -1.3420846983
C      -0.0501356581     -0.7483485320      0.8116110331
H       1.2416928086      1.4985883997     -1.7245493582
H       2.1224487818     -1.3677121541     -0.8623148722
H       2.8972095173     -0.3794493886     -2.1860150607
H      -0.8887059224     -0.7119504416      1.7373465518
H       0.9826905813     -0.8318823931      1.0658140724
H      -0.0564179232     -1.5648215440      0.1274769417
12
Frame=815  time=408.000fs  energy=-306.16646369Ha  molecule=COOCCCHHHHHH
C       0.1286438998      0.4448596220      0.0209595623
O      -0.7518017253      1.3667988488      0.0446292402
O      -1.7164495442      1.0799039818      1.3346149550
C       1.2391801626      0.5043662783     -1.1781513982
C       2.2296211274     -0.4483317366     -1.3452917408
C      -0.0484913286     -0.7511443736      0.8143687669
H       1.2105305137      1.4864683023     -1.7039887393
H       2.1276166559     -1.3744514599     -0.8508323292
H       2.9165015149     -0.3586027291     -2.1871747716
H      -0.9006294986     -0.7180236690      1.7221604898
H       0.9901884518     -0.8170187339      1.0923567864
H      -0.0616898364     -1.5993540438      0.1510028816
12
Frame=816  time=408.500fs  energy=-306.16884917Ha  molecule=COOCCCHHHHHH
C       0.1268911416      0.4461573942      0.0173982653
O      -0.7530523380      1.3594896331      0.0445583887
O      -1.7178175702      1.0758543937      1.3304424452
C       1.2419851308      0.5148105767     -1.1741756916
C       2.2314163792     -0.4395969124     -1.3487770051
C      -0.0469570264     -0.7539388096      0.8176396685
H       1.1802622977      1.4716821122     -1.6832658745
H       2.1365968371     -1.3842029966     -0.8412767687
H       2.9357710120     -0.3370650068     -2.1874065328
H      -0.9039058874     -0.7242465342      1.6985939267
H       0.9935099068     -0.8030660170      1.1258144593
H      -0.0703655763     -1.6344969230      0.1760360133
12
Frame=817  time=409.000fs  energy=-306.17103751Ha  molecule=COOCCCHHHHHH
C       0.1247387272      0.4475382689      0.0135198400
O      -0.7542294428      1.3520400343      0.0447057785
O      -1.7190327833      1.0718483624      1.3260287956
C       1.2448499450      0.5252511018     -1.1699451674
C       2.2329045481     -0.4306109865     -1.3524762048
C      -0.0455570463     -0.7567972091      0.8214049316
H       1.1510745134      1.4557566221     -1.6632265717
H       2.1489870815     -1.3951453482     -0.8338998375
H       2.9540624675     -0.3148901465     -2.1860628600
H      -0.8987208996     -0.7298027984      1.6671375027
H       0.9928404421     -0.7904272544      1.1647615242
H      -0.0813073504     -1.6689378777      0.2025206892
12
Frame=818  time=409.500fs  energy=-306.17262800Ha  molecule=COOCCCHHHHHH
C       0.1222837297      0.4489208536      0.0092994715
O      -0.7553494615      1.3444840124      0.0450478137
O      -1.7201106005      1.0678670284      1.3213967841
C       1.2477329797      0.5355152487     -1.1653526079
C       2.2341274091     -0.4215240428     -1.3563060314
C      -0.0442988843     -0.7597912660      0.8256081639
H       1.1229253826      1.4405937460     -1.6448059105
H       2.1642036189     -1.4053085530     -0.8288771268
H       2.9705550052     -0.2921463586     -2.1826708221
H      -0.8859193077     -0.7339057707      1.6288357821
H       0.9888378356     -0.7794282119      1.2077138384
H      -0.0934455780     -1.7015116689      0.2302445311
12
Frame=819  time=410.000fs  energy=-306.17333959Ha  molecule=COOCCCHHHHHH
C       0.1196296095      0.4502385056      0.0047336842
O      -0.7564402400      1.3368578463      0.0455620373
O      -1.7210626935      1.0638941320      1.3165665251
C       1.2506135601      0.5454035174     -1.1602954253
C       2.2351291363     -0.4124708938     -1.3601790808
C      -0.0431249781     -0.7629880209      0.8301294852
H       1.0955217621      1.4284429123     -1.6290505563
H       2.1816578609     -1.4129611974     -0.8263857144
H       2.9846977190     -0.2689487586     -2.1770003584
H      -0.8673063696     -0.7358604961      1.5855226516
H       0.9822128579     -0.7702987666      1.2533019306
H      -0.1058247093     -1.7312900489      0.2589799221
12
Frame=820  time=410.500fs  energy=-306.17308534Ha  molecule=COOCCCHHHHHH
C       0.1168747298      0.4514322896     -0.0001576590
O      -0.7575370815      1.3291981588      0.0462316473
O      -1.7218966505      1.0599177189      1.3115537078
C       1.2534910196      0.5547229882     -1.1546925261
C       2.2359464630     -0.4035448653     -1.3640163720
C      -0.0418846678     -0.7664473429      0.8347862068
H       1.0684078022      1.4214781197     -1.6169521640
H       2.2008993927     -1.4168820571     -0.8265908611
H       2.9962557772     -0.2454577506     -2.1690618694
H      -0.8456562352     -0.7350562039      1.5398106298
H       0.9733656360     -0.7631225358      1.3003376736
H      -0.1176460469     -1.7575998206      0.2885202373
12
Frame=821  time=411.000fs  energy=-306.17184900Ha  molecule=COOCCCHHHHHH
C       0.1141173556      0.4524556805     -0.0053622217
O      -0.7586760096      1.3215328751      0.0470504558
O      -1.7226212212      1.0559356945      1.3063695620
C       1.2563722272      0.5633267207     -1.1484948338
C       2.2365962562     -0.3947837282     -1.3677527531
C      -0.0403314201     -0.7702191844      0.8393565154
H       1.0411910835      1.4212219339     -1.6092316170
H       2.2217205484     -1.4164255526     -0.8296333828
H       3.0052468349     -0.2218186298     -2.1590733192
H      -0.8247785485     -0.7309737385      1.4951285245
H       0.9623388439     -0.7579172916      1.3477920108
H      -0.1282411058     -1.7800244756      0.3186003771
12
Frame=822  time=411.500fs  energy=-306.17013596Ha  molecule=COOCCCHHHHHH
C       0.1114607708      0.4532859395     -0.0108995025
O      -0.7598958546      1.3138796502      0.0480240125
O      -1.7232502039      1.0519584261      1.3010217788
C       1.2592682244      0.5711317651     -1.1416970299
C       2.2370777329     -0.3861779113     -1.3713374928
C      -0.0380693640     -0.7743582235      0.8435514311
H       1.0137130894      1.4282470256     -1.6062077013
H       2.2439981305     -1.4113287873     -0.8355622048
H       3.0118633007     -0.1981111194     -2.1474336413
H      -0.8102603178     -0.7231950697      1.4562248142
H       0.9489744103     -0.7547902735      1.3947931973
H      -0.1370104918     -1.7982785034      0.3489081222
12
Frame=823  time=412.000fs  energy=-306.16925185Ha  molecule=COOCCCHHHHHH
C       0.1090044321      0.4538904028     -0.0167920255
O      -0.7612422575      1.3062654877      0.0491605308
O      -1.7237984334      1.0480053882      1.2955125941
C       1.2621774414      0.5781466280     -1.1343517884
C       2.2373831724     -0.3776901694     -1.3747307285
C      -0.0346994852     -0.7789221807      0.8471512162
H       0.9861257193      1.4419356705     -1.6075625282
H       2.2675135348     -1.4015527204     -0.8442988386
H       3.0163990672     -0.1743471244     -2.1346628340
H      -0.8074661589     -0.7113463483      1.4271916410
H       0.9330481020     -0.7538356490      1.4406311174
H      -0.1434618788     -1.8122568886      0.3790587513
12
Frame=824  time=412.500fs  energy=-306.17000096Ha  molecule=COOCCCHHHHHH
C       0.1068388285      0.4541990132     -0.0230479032
O      -0.7627568824      1.2987268700      0.0504640678
O      -1.7242757654      1.0440905355      1.2898409404
C       1.2650603213      0.5844805509     -1.1265619988
C       2.2374969116     -0.3692627464     -1.3778953623
C      -0.0300010646     -0.7839290586      0.8500953572
H       0.9589929099      1.4604890906     -1.6122869515
H       2.2918732097     -1.3873130416     -0.8555266020
H       3.0192287170     -0.1504566254     -2.1213795000
H      -0.8196350538     -0.6949485535      1.4100500826
H       0.9145609779     -0.7551004688      1.4846677138
H      -0.1471349896     -1.8221883914      0.4085163389
12
Frame=825  time=413.000fs  energy=-306.17191055Ha  molecule=COOCCCHHHHHH
C       0.1050543103      0.4541165045     -0.0296599984
O      -0.7644779069      1.2913050755      0.0519343030
O      -1.7246918358      1.0402178590      1.2840108522
C       1.2678439980      0.5903053306     -1.1184618781
C       2.2373975160     -0.3608241783     -1.3807955285
C      -0.0240166876     -0.7893579896      0.8525037692
H       0.9332062492      1.4814782032     -1.6189664940
H       2.3165229251     -1.3691030668     -0.8686333841
H       3.0207952216     -0.1263249864     -2.1082541864
H      -0.8467187688     -0.6736384408      1.4042262184
H       0.8937065647     -0.7584653517      1.5262799720
H      -0.1477384324     -1.8284786586      0.4367208124
12
Frame=826  time=413.500fs  energy=-306.17332189Ha  molecule=COOCCCHHHHHH
C       0.1037410839      0.4535300383     -0.0366023490
O      -0.7664392372      1.2840437648      0.0535645441
O      -1.7250592245      1.0363848974      1.2780344669
C       1.2704414371      0.5958044053     -1.1101868508
C       2.2370715857     -0.3523067946     -1.3834046558
C      -0.0171126300     -0.7951337737      0.8546905259
H       0.9097019849      1.5025887958     -1.6261741781
H       2.3408679478     -1.3476148942     -0.8828458281
H       3.0215104961     -0.1018295905     -2.0958903429
H      -0.8846647568     -0.6476025391      1.4064270800
H       0.8708528593     -0.7635379011      1.5649232749
H      -0.1452217513     -1.8316476189      0.4630715899
12
Frame=827  time=414.000fs  energy=-306.17309867Ha  molecule=COOCCCHHHHHH
C       0.1029828032      0.4523205462     -0.0438275522
O      -0.7686805786      1.2769932573      0.0553449002
O      -1.7253910412      1.0325987181      1.2719218936
C       1.2727769503      0.6011321823     -1.1018512108
C       2.2365226521     -0.3436490129     -1.3857172884
C      -0.0098795289     -0.8011070820      0.8570707002
H       0.8892226962      1.5220537873     -1.6327478639
H       2.3644428334     -1.3236787459     -0.8974192054
H       3.0216905833     -0.0768811739     -2.0847493584
H      -0.9266950399     -0.6180991441      1.4119349166
H       0.8465330843     -0.7697667892      1.6002530763
H      -0.1397497346     -1.8323255722      0.4869679320
12
Frame=828  time=414.500fs  energy=-306.17170632Ha  molecule=COOCCCHHHHHH
C       0.1028440063      0.4503920314     -0.0512815171
O      -0.7712598589      1.2702056865      0.0572768858
O      -1.7256959872      1.0288845368      1.2656696591
C       1.2748123114      0.6064003501     -1.0935557954
C       2.2357621878     -0.3347757082     -1.3877524539
C      -0.0027625901     -0.8071261228      0.8599375341
H       0.8723169367      1.5386355207     -1.6378702162
H       2.3869664687     -1.2982911518     -0.9116664572
H       3.0215745041     -0.0514450193     -2.0751724240
H      -0.9675240106     -0.5869977168      1.4174480071
H       0.8212297622     -0.7766788087      1.6321554924
H      -0.1316843806     -1.8310355736      0.5079827423
12
Frame=829  time=415.000fs  energy=-306.16985891Ha  molecule=COOCCCHHHHHH
C       0.1033672660      0.4476897378     -0.0589267067
O      -0.7742347051      1.2637186095      0.0593767761
O      -1.7259724022      1.0252717403      1.2592596818
C       1.2765323393      0.6116851106     -1.0853809190
C       2.2348020307     -0.3255905364     -1.3895513139
C       0.0040232517     -0.8130657534      0.8634380784
H       0.8594099624      1.5515159409     -1.6410511675
H       2.4082858714     -1.2726376505     -0.9248716997
H       3.0212913185     -0.0255141053     -2.0673758339
H      -1.0046152121     -0.5559653957      1.4215899011
H       0.7954469995     -0.7838924315      1.6607324505
H      -0.1214854632     -1.8284529144      0.5256774953
12
Frame=830  time=415.500fs  energy=-306.16797569Ha  molecule=COOCCCHHHHHH
C       0.1045739747      0.4441997391     -0.0667386928
O      -0.7776422098      1.2575496252      0.0616649398
O      -1.7262101082      1.0217870383      1.2526632448
C       1.2779175973      0.6170393416     -1.0773763787
C       2.2336575365     -0.3159862396     -1.3911737229
C       0.0103696179     -0.8188155218      0.8676445938
H       0.8507990023      1.5601645575     -1.6419954362
H       2.4283799866     -1.2480082926     -0.9363276141
H       3.0208502209      0.0008804224     -2.0614403687
H      -1.0368769058     -0.5263604364      1.4239204242
H       0.7698195667     -0.7910274429      1.6863139041
H      -0.1096524546     -1.8255096520      0.5395275709
12
Frame=831  time=416.000fs  energy=-306.16625439Ha  molecule=COOCCCHHHHHH
C       0.1064632345      0.4399230212     -0.0746837590
O      -0.7814987552      1.2517133568      0.0641528916
O      -1.7263978544      1.0184582214      1.2458445990
C       1.2789312871      0.6225040950     -1.0695672220
C       2.2323480787     -0.3058615054     -1.3926874070
C       0.0161840471     -0.8242702426      0.8725948496
H       0.8466491714      1.5642170264     -1.6404466765
H       2.4473827503     -1.2256348304     -0.9454483228
H       3.0202089572      0.0276256069     -2.0573364956
H      -1.0633865029     -0.4994844614      1.4242200049
H       0.7450199119     -0.7977273368      1.7093953074
H      -0.0966355895     -1.8231864964      0.5490236741
12
Frame=832  time=416.500fs  energy=-306.16496759Ha  molecule=COOCCCHHHHHH
C       0.1090158727      0.4348583968     -0.0827084635
O      -0.7858088314      1.2462417486      0.0668335539
O      -1.7265277719      1.0153179608      1.2387652950
C       1.2795238507      0.6281129927     -1.0619666043
C       2.2308922902     -0.2951366862     -1.3941525704
C       0.0213357437     -0.8293205231      0.8783177084
H       0.8470147628      1.5634287717     -1.6361324592
H       2.4655843880     -1.2065128865     -0.9518837223
H       3.0193497857      0.0545075125     -2.0549648955
H      -1.0825976927     -0.4769990579      1.4221777882
H       0.7216396870     -0.8036922981      1.7305755413
H      -0.0827976424     -1.8223323612      0.5537719900
12
Frame=833  time=417.000fs  energy=-306.16454676Ha  molecule=COOCCCHHHHHH
C       0.1121864723      0.4290214558     -0.0907433941
O      -0.7905575232      1.2411681384      0.0696811928
O      -1.7265933209      1.0123961590      1.2313921941
C       1.2796509293      0.6338841539     -1.0545853448
C       2.2293050679     -0.2837613880     -1.3956090423
C       0.0256896471     -0.8338721075      0.8848225093
H       0.8518980027      1.5576908606     -1.6288409208
H       2.4833253584     -1.1912380531     -0.9555558846
H       3.0182533413      0.0812735781     -2.0541921439
H      -1.0928548493     -0.4607141159      1.4175701507
H       0.7001332101     -0.8086831179      1.7504772416
H      -0.0684107172     -1.8235486835      0.5535498848
12
Frame=834  time=417.500fs  energy=-306.16527211Ha  molecule=COOCCCHHHHHH
C       0.1158896329      0.4224733920     -0.0987088051
O      -0.7956952938      1.2364896800      0.0726612512
O      -1.7265863656      1.0097085069      1.2237049676
C       1.2792879241      0.6398046798     -1.0474321539
C       2.2276051975     -0.2717187990     -1.3970702678
C       0.0291589280     -0.8378759328      0.8920856164
H       0.8613160659      1.5471054311     -1.6185658380
H       2.5008041462     -1.1798789609     -0.9566218524
H       3.0167883243      0.1077320784     -2.0548677504
H      -1.0931906332     -0.4519689596      1.4103666211
H       0.6808227033     -0.8125296726      1.7696063610
H      -0.0536425370     -1.8270724176      0.5483487948
12
Frame=835  time=418.000fs  energy=-306.16701966Ha  molecule=COOCCCHHHHHH
C       0.1200049133      0.4153237604     -0.1065193536
O      -0.8011401939      1.2321525047      0.0757415460
O      -1.7264975038      1.0072513416      1.2156987904
C       1.2784338035      0.6458150844     -1.0405052533
C       2.2258300780     -0.2590299772     -1.3985248843
C       0.0317169670     -0.8413408239      0.9000523432
H       0.8752955429      1.5321639570     -1.6056634479
H       2.5179321501     -1.1719453430     -0.9554182563
H       3.0146443913      0.1337957998     -2.0568225881
H      -1.0835356036     -0.4512845146      1.4006297985
H       0.6639316313     -0.8151591899      1.7882410909
H      -0.0385446182     -1.8326772913      0.5384171964
12
Frame=836  time=418.500fs  energy=-306.16924781Ha  molecule=COOCCCHHHHHH
C       0.1244004927      0.4077087477     -0.1140904163
O      -0.8067971316      1.2280667185      0.0788978943
O      -1.7263192240      1.0050034805      1.2073839640
C       1.2771106834      0.6517976292     -1.0337789134
C       2.2240470799     -0.2457528364     -1.3999454867
C       0.0333993856     -0.8443349949      0.9086372398
H       0.8937563005      1.5140079828     -1.5909931005
H       2.5343108592     -1.1664977356     -0.9523944601
H       3.0113691530      0.1594500985     -2.0598635244
H      -1.0647356024     -0.4583121557      1.3885186607
H       0.6496205026     -0.8166222958      1.8064169077
H      -0.0230492144     -1.8396813911      0.5242732346
12
Frame=837  time=419.000fs  energy=-306.17123864Ha  molecule=COOCCCHHHHHH
C       0.1289573726      0.3997644614     -0.1213457637
O      -0.8125801194      1.2241349024      0.0821131500
O      -1.7260503044      1.0029338504      1.1987840897
C       1.2753677097      0.6575764658     -1.0271909723
C       2.2223495566     -0.2319725314     -1.4013010583
C       0.0343026076     -0.8469789570      0.9177233943
H       0.9163208356      1.4945997977     -1.5759577554
H       2.5493539103     -1.1623832344     -0.9480410680
H       3.0065020737      0.1846761144     -2.0637827216
H      -1.0384907302     -0.4719866040      1.3743774840
H       0.6380279107     -0.8170799185      1.8240080538
H      -0.0069837551     -1.8471214930      0.5066560829
12
Frame=838  time=419.500fs  energy=-306.17251704Ha  molecule=COOCCCHHHHHH
C       0.1335752568      0.3916127464     -0.1282216891
O      -0.8184223520      1.2202736482      0.0853723611
O      -1.7256982650      1.0010120387      1.1899312469
C       1.2732895339      0.6629326180     -1.0206378320
C       2.2208346805     -0.2177867581     -1.4025656868
C       0.0345494119     -0.8494181480      0.9271782343
H       0.9421330341      1.4766410388     -1.5623661562
H       2.5625071336     -1.1585005703     -0.9428420631
H       2.9997277836      0.2093835345     -2.0683785844
H      -1.0068163259     -0.4909268735      1.3586220576
H       0.6292991529     -0.8167437597      1.8408280204
H       0.0098718173     -1.8540180710      0.4864330674
12
Frame=839  time=420.000fs  energy=-306.17302815Ha  molecule=COOCCCHHHHHH
C       0.1381611043      0.3833587450     -0.1346583958
O      -0.8242683132      1.2164169787      0.0886575928
O      -1.7252766531      0.9992146804      1.1808573602
C       1.2709841663      0.6676356444     -1.0139882174
C       2.2195830351     -0.2032930069     -1.4037201762
C       0.0342569344     -0.8517926753      0.9368702980
H       0.9699289483      1.4631652991     -1.5521220009
H       2.5733947360     -1.1539652475     -0.9372413771
H       2.9909224708      0.2334179204     -2.0734660113
H      -0.9714658097     -0.5138327725      1.3415376088
H       0.6235755826     -0.8158366617      1.8566304120
H       0.0276924853     -1.8594695735      0.4645667450
12
Frame=840  time=420.500fs  energy=-306.17283484Ha  molecule=COOCCCHHHHHH
C       0.1426134149      0.3750920170     -0.1405789755
O      -0.8300564730      1.2125109496      0.0919417321
O      -1.7247972070      0.9975230397      1.1715851276
C       1.2685427678      0.6715021879     -1.0071295341
C       2.2186527058     -0.1885866274     -1.4047459342
C       0.0335729335     -0.8542342960      0.9466530608
H       0.9984789767      1.4567501831     -1.5467347299
H       2.5817896302     -1.1480793845     -0.9316416963
H       2.9801054723      0.2566489040     -2.0788851931
H      -0.9343443400     -0.5395420430      1.3234470647
H       0.6210051237     -0.8146361760      1.8710508586
H       0.0465527745     -1.8625281709      0.4421872552
12
Frame=841  time=421.000fs  energy=-306.17180075Ha  molecule=COOCCCHHHHHH
C       0.1468055293      0.3669017837     -0.1458814960
O      -0.8357023339      1.2085092505      0.0951810596
O      -1.7242630738      0.9959173754      1.1621244412
C       1.2660212790      0.6744358189     -1.0000079167
C       2.2180822733     -0.1737667928     -1.4056173950
C       0.0327547221     -0.8568802043      0.9563302807
H       1.0268072396      1.4590206437     -1.5469694844
H       2.5875551710     -1.1402158177     -0.9264615974
H       2.9674389405      0.2790087796     -2.0845272672
H      -0.8987140054     -0.5668352841      1.3052161929
H       0.6218175099     -0.8135455372      1.8836922738
H       0.0664608714     -1.8622434540      0.4206150127
12
Frame=842  time=421.500fs  energy=-306.16990928Ha  molecule=COOCCCHHHHHH
C       0.1505720409      0.3588987102     -0.1504579545
O      -0.8410943000      1.2043695686      0.0983165679
O      -1.7236729262      0.9943797886      1.1524770017
C       1.2634506240      0.6764399873     -0.9926463443
C       2.2178884716     -0.1589252756     -1.4063019866
C       0.0322788441     -0.8599083651      0.9656288832
H       1.0541833024      1.4705004601     -1.5527145362
H       2.5906723897     -1.1298411659     -0.9221541318
H       2.9532551848      0.3004231792     -2.0903483218
H      -0.8704154636     -0.5941015625      1.2887311345
H       0.6262124498     -0.8130858528      1.8942783205
H       0.0874068520     -1.8578778544      0.4012999982
12
Frame=843  time=422.000fs  energy=-306.16845938Ha  molecule=COOCCCHHHHHH
C       0.1537280556      0.3512180728     -0.1542313637
O      -0.8461102932      1.2000585046      0.1012838101
O      -1.7230321509      0.9929026007      1.1426440305
C       1.2608507387      0.6776309855     -0.9851552163
C       2.2180595841     -0.1441329569     -1.4067631613
C       0.0328397802     -0.8635353516      0.9742473710
H       1.0802050359      1.4904482813     -1.5629475106
H       2.5912622425     -1.1166118165     -0.9191546787
H       2.9380035366      0.3207829770     -2.0963518137
H      -0.8573931497     -0.6196691515      1.2768644457
H       0.6339598029     -0.8137824499      1.9024927767
H       0.1093745211     -1.8489912477      0.3856613057
12
Frame=844  time=422.500fs  energy=-306.16902104Ha  molecule=COOCCCHHHHHH
C       0.1561245327      0.3439835990     -0.1571539453
O      -0.8506386230      1.1955627950      0.1040146911
O      -1.7223573939      0.9914770550      1.1326387943
C       1.2582197340      0.6782276536     -0.9777102092
C       2.2185681028     -0.1294534237     -1.4069631973
C       0.0349049744     -0.8678664109      0.9820110833
H       1.1047849577      1.5170255130     -1.5759391957
H       2.5895435943     -1.1004158546     -0.9178066492
H       2.9221713281      0.3400262086     -2.1025900201
H      -0.8648355242     -0.6431534134      1.2716066050
H       0.6446632179     -0.8160036675      1.9079541027
H       0.1323774255     -1.8355320429      0.3747826689
12
Frame=845  time=423.000fs  energy=-306.17121376Ha  molecule=COOCCCHHHHHH
C       0.1576820520      0.3372524023     -0.1591745129
O      -0.8546097998      1.1908852558      0.1064537511
O      -1.7216731437      0.9900761422      1.1224973986
C       1.2555354329      0.6785232968     -0.9705261501
C       2.2194000296     -0.1149555519     -1.4068727782
C       0.0384942192     -0.8728480804      0.9889117370
H       1.1280191447      1.5476723180     -1.5895316008
H       2.5857154294     -1.0813409209     -0.9182499114
H       2.9062163266      0.3581681442     -2.1091742654
H      -0.8926966686     -0.6650419135      1.2729475258
H       0.6579707881     -0.8197818514      1.9103004362
H       0.1563960498     -1.8179561476      0.3691358039
12
Frame=846  time=423.500fs  energy=-306.17293548Ha  molecule=COOCCCHHHHHH
C       0.1584032556      0.3309998119     -0.1602491585
O      -0.8580236030      1.1860343606      0.1085812260
O      -1.7210092381      0.9886606566      1.1122724879
C       1.2527906735      0.6788533552     -0.9638360490
C       2.2205610451     -0.1007025643     -1.4064846005
C       0.0431825238     -0.8782874020      0.9950968991
H       1.1499735812      1.5794475004     -1.6013949983
H       2.5799960732     -1.0596958728     -0.9203865848
H       2.8905670072      0.3752557932     -2.1162663568
H      -0.9354037024     -0.6862000567      1.2791476813
H       0.6733462012     -0.8247350029      1.9093147820
H       0.1812016691     -1.7973385303      0.3682974434
12
Frame=847  time=424.000fs  energy=-306.17301790Ha  molecule=COOCCCHHHHHH
C       0.1583367218      0.3251598389     -0.1603758084
O      -0.8609300122      1.1810191947      0.1104091223
O      -1.7203986644      0.9871968085      1.1020181018
C       1.2500416084      0.6795133403     -0.9578343827
C       2.2220449512     -0.0867240864     -1.4058193676
C       0.0483427644     -0.8839466411      1.0007913743
H       1.1704636211      1.6098381317     -1.6096805483
H       2.5727839598     -1.0360684841     -0.9239701074
H       2.8756279204      0.3913251561     -2.1240107542
H      -0.9847903500     -0.7075187596      1.2881071463
H       0.6900181046     -0.8302463328      1.9052120344
H       0.2063968537     -1.7751632123      0.3710139312
12
Frame=848  time=424.500fs  energy=-306.17191900Ha  molecule=COOCCCHHHHHH
C       0.1575080081      0.3196789201     -0.1595790257
O      -0.8633655289      1.1758576258      0.1119417069
O      -1.7198775856      0.9856659890      1.0917802811
C       1.2473860377      0.6806944601     -0.9526362927
C       2.2238079213     -0.0730002750     -1.4049126692
C       0.0535524174     -0.8896643165      1.0061614287
H       1.1891215287      1.6372969368     -1.6133912268
H       2.5646555170     -1.0112552088     -0.9287265440
H       2.8617490959      0.4063580725     -2.1324602267
H      -1.0351938364     -0.7295258648      1.2987056810
H       0.7072735536     -0.8358730439      1.8985085153
H       0.2317136800     -1.7527724569      0.3759800408
12
Frame=849  time=425.000fs  energy=-306.16998013Ha  molecule=COOCCCHHHHHH
C       0.1558939461      0.3145383688     -0.1578498979
O      -0.8653045215      1.1705819561      0.1131398140
O      -1.7194823177      0.9840533965      1.0815989842
C       1.2448800568      0.6824991975     -0.9482883248
C       2.2257864320     -0.0594735071     -1.4038019921
C       0.0585595562     -0.8952997760      1.0113094349
H       1.2055761481      1.6610115469     -1.6121027962
H       2.5562780158     -0.9861459597     -0.9344295043
H       2.8492495898      0.4202632322     -2.1415907907
H      -1.0830957021     -0.7527675837      1.3104512842
H       0.7245382938     -0.8414606665      1.8896955438
H       0.2571290183     -1.7316199860      0.3821845137
12
Frame=850  time=425.500fs  energy=-306.16745253Ha  molecule=COOCCCHHHHHH
C       0.1534312234      0.3097300433     -0.1551192399
O      -0.8666731556      1.1652353412      0.1139274779
O      -1.7192504726      0.9823397944      1.0715146627
C       1.2425222348      0.6849830846     -0.9447972701
C       2.2279255869     -0.0460647037     -1.4025331950
C       0.0630909030     -0.9006800053      1.0163281036
H       1.2195556612      1.6806081262     -1.6057256836
H       2.5483293312     -0.9616806261     -0.9408708955
H       2.8384052668      0.4329002342     -2.1513138263
H      -1.1246128386     -0.7778735260      1.3226841063
H       0.7412657891     -0.8469307096      1.8793070952
H       0.2827315731     -1.7136489848      0.3886288365
12
Frame=851  time=426.000fs  energy=-306.16512488Ha  molecule=COOCCCHHHHHH
C       0.1500420395      0.3052370846     -0.1512905197
O      -0.8673885637      1.1598659723      0.1142174533
O      -1.7192238945      0.9805052029      1.0615689939
C       1.2402999977      0.6881849370     -0.9421577403
C       2.2301834579     -0.0326833759     -1.4011656154
C       0.0668516201     -0.9056510739      1.0213027040
H       1.2309114057      1.6959775065     -1.5944056963
H       2.5414246196     -0.9388336828     -0.9477936825
H       2.8293956330      0.4441323275     -2.1614746601
H      -1.1557514031     -0.8052881865      1.3346112246
H       0.7571555453     -0.8521571091      1.8681536322
H       0.3086208001     -1.7009426618      0.3942293312
12
Frame=852  time=426.500fs  energy=-306.16386629Ha  molecule=COOCCCHHHHHH
C       0.1456747746      0.3010407226     -0.1462948629
O      -0.8673914500      1.1545168222      0.1139379095
O      -1.7194443569      0.9785319287      1.0518012794
C       1.2382181284      0.6921330660     -0.9403651479
C       2.2325275749     -0.0192388235     -1.3997679933
C       0.0696335723     -0.9101438907      1.0262814072
H       1.2395298432      1.7070834284     -1.5783423595
H       2.5360634502     -0.9185686482     -0.9548501997
H       2.8222610663      0.4538846496     -2.1718524873
H      -1.1740606218     -0.8349778779      1.3456407283
H       0.7723770936     -0.8570158746      1.8572333113
H       0.3348971260     -1.6950031498      0.3980968477
12
Frame=853  time=427.000fs  energy=-306.16406266Ha  molecule=COOCCCHHHHHH
C       0.1403276506      0.2971246380     -0.1401120024
O      -0.8666556454      1.1492162277      0.1130461770
O      -1.7199518349      0.9764081380      1.0422482600
C       1.2362873140      0.6968393538     -0.9394086539
C       2.2349376573     -0.0056559172     -1.3984100143
C       0.0713549886     -0.9141792671      1.0312618291
H       1.2452372512      1.7138305697     -1.5576464832
H       2.5326009394     -0.9017502441     -0.9616367310
H       2.8169140388      0.4621637792     -2.1821679154
H      -1.1787531917     -0.8664263655      1.3553273713
H       0.7873524544     -0.8614448609      1.8473494751
H       0.3615864281     -1.6963117142      0.3998832358
12
Frame=854  time=427.500fs  energy=-306.16563134Ha  molecule=COOCCCHHHHHH
C       0.1340574056      0.2934755747     -0.1327764890
O      -0.8651839857      1.1439738712      0.1115316466
O      -1.7207868129      0.9741341814      1.0329453874
C       1.2345026554      0.7022934316     -0.9392531358
C       2.2374106807      0.0081069459     -1.3971528609
C       0.0720430468     -0.9178353475      1.0361959601
H       1.2477760664      1.7161192849     -1.5323722780
H       2.5312319371     -0.8890279605     -0.9677879549
H       2.8132105654      0.4690384192     -2.1921241867
H      -1.1700761573     -0.8989097281      1.3632997549
H       0.8024530323     -0.8654467867      1.8389031564
H       0.3885531077     -1.7043514119      0.3998510295
12
Frame=855  time=428.000fs  energy=-306.16815150Ha  molecule=COOCCCHHHHHH
C       0.1269829054      0.2900867685     -0.1243818305
O      -0.8630013909      1.1387863903      0.1094100406
O      -1.7219890287      0.9717233784      1.0239257005
C       1.2328274255      0.7084537662     -0.9398212797
C       2.2399634891      0.0220467435     -1.3960410889
C       0.0718178021     -0.9212182705      1.0410028755
H       1.2468233792      1.7140132312     -1.5026419680
H       2.5319865534     -0.8807312892     -0.9730692574
H       2.8110126915      0.4746252774     -2.2014652450
H      -1.1490412620     -0.9317758062      1.3693673487
H       0.8178523877     -0.8690732135      1.8319141169
H       0.4154822791     -1.7178554299      0.3987168160
12
Frame=856  time=428.500fs  energy=-306.17098884Ha  molecule=COOCCCHHHHHH
C       0.1192750844      0.2869619613     -0.1150718302
O      -0.8601459856      1.1336486336      0.1067115602
O      -1.7235914311      0.9691983250      1.0152153390
C       1.2311893546      0.7152321752     -0.9409827648
C       2.2426296550      0.0361172647     -1.3950969119
C       0.0708899136     -0.9244442902      1.0455829567
H       1.2420458025      1.7079510330     -1.4688147883
H       2.5347336926     -0.8768018922     -0.9774331183
H       2.8101888043      0.4790977536     -2.2100075463
H      -1.1173517449     -0.9646899116      1.3736794709
H       0.8334116373     -0.8723921836      1.8261189852
H       0.4418542170     -1.7350954476      0.3974409803
12
Frame=857  time=429.000fs  energy=-306.17343962Ha  molecule=COOCCCHHHHHH
C       0.1111242747      0.2841112306     -0.1050065527
O      -0.8566597048      1.1285630875      0.1034690821
O      -1.7256120118      0.9665843415      1.0068272662
C       1.2294932356      0.7224756775     -0.9425555805
C       2.2454495127      0.0502396150     -1.3943165505
C       0.0695385676     -0.9276311798      1.0498315806
H       1.2332247774      1.6990009597     -1.4317140967
H       2.5391939180     -0.8767668449     -0.9810421855
H       2.8105529328      0.4827134416     -2.2176159788
H      -1.0771054478     -0.9977061884      1.3767319336
H       0.8486381953     -0.8754049292      1.8211240537
H       0.4669534543     -1.7542097957      0.3969848734
12
Frame=858  time=429.500fs  energy=-306.17482607Ha  molecule=COOCCCHHHHHH
C       0.1027057666      0.2815269575     -0.0943170432
O      -0.8525909080      1.1235421486      0.0997180672
O      -1.7280474844      0.9638996777      0.9987581193
C       1.2276417442      0.7299561271     -0.9443192807
C       2.2484605266      0.0643109235     -1.3936713031
C       0.0681012974     -0.9308877172      1.0536392411
H       1.2204014502      1.6890859822     -1.3927979518
H       2.5449615036     -0.8797473788     -0.9842618134
H       2.8118240286      0.4858321825     -2.2241551989
H      -1.0308619076     -1.0309899335      1.3792455026
H       0.8628318489     -0.8779714290      1.8165413507
H       0.4900031256     -1.7734896754      0.3980918351
12
Frame=859  time=430.000fs  energy=-306.17490151Ha  molecule=COOCCCHHHHHH
C       0.0941830340      0.2791534425     -0.0830939652
O      -0.8480166864      1.1186079907      0.0955104068
O      -1.7308751238      0.9611520802      0.9909908684
C       1.2255547737      0.7373923256     -0.9460468023
C       2.2516928969      0.0782101567     -1.3931151174
C       0.0669484003     -0.9342843266      1.0568982331
H       1.2038536963      1.6808174013     -1.3539297608
H       2.5515260212     -0.8845298811     -0.9875948339
H       2.8137198952      0.4888666772     -2.2295131609
H      -0.9816420253     -1.0645554060      1.3819355244
H       0.8752857458     -0.8798912393      1.8120181377
H       0.5103427646     -1.7915377173      0.4012093927
12
Frame=860  time=430.500fs  energy=-306.17394582Ha  molecule=COOCCCHHHHHH
C       0.0857347013      0.2768934987     -0.0714200611
O      -0.8430578744      1.1137903542      0.0909241706
O      -1.7340656726      0.9583522604      0.9834989010
C       1.2231800923      0.7445135130     -0.9475488436
C       2.2551707309      0.0918062537     -1.3925951422
C       0.0663925734     -0.9378381245      1.0595300450
H       1.1838867860      1.6768055579     -1.3167834882
H       2.5583180256     -0.8897289305     -0.9915727073
H       2.8161055196      0.4921941546     -2.2336815279
H      -0.9321195107     -1.0983938936      1.3852950654
H       0.8854524622     -0.8810629017      1.8072636301
H       0.5275266630     -1.8073288438      0.4065515462
12
Frame=861  time=431.000fs  energy=-306.17229228Ha  molecule=COOCCCHHHHHH
C       0.0775527561      0.2746447474     -0.0593862428
O      -0.8378647846      1.1091161665      0.0860571844
O      -1.7375888485      0.9555176242      0.9762487727
C       1.2204973079      0.7510986048     -0.9486933995
C       2.2589090492      0.1049685844     -1.3920568738
C       0.0666963352     -0.9415351808      1.0614750817
H       1.1607092463      1.6791888817     -1.2825493409
H       2.5647991106     -0.8939553443     -0.9966777216
H       2.8190119561      0.4961404004     -2.2367736986
H      -0.8850742532     -1.1325948552      1.3898438455
H       0.8931486883     -0.8814475011      1.8020544254
H       0.5413700162     -1.8201244560      0.4141569381
12
Frame=862  time=431.500fs  energy=-306.17049741Ha  molecule=COOCCCHHHHHH
C       0.0698138528      0.2723206305     -0.0470798706
O      -0.8325897744      1.1045999692      0.0810115103
O      -1.7414117316      0.9526626017      0.9692055741
C       1.2175220439      0.7569855658     -0.9494043824
C       2.2629058121      0.1175860805     -1.3914504054
C       0.0681737803     -0.9453372090      1.0626626739
H       1.1344707566      1.6894272021     -1.2519363814
H       2.5705068535     -0.8959647511     -1.0032668034
H       2.8225652653      0.5010001566     -2.2389828279
H      -0.8445811596     -1.1674927689      1.3965470372
H       0.8985051494     -0.8809356026      1.7961279276
H       0.5518896987     -1.8293286863      0.4238979673
12
Frame=863  time=432.000fs  energy=-306.16945983Ha  molecule=COOCCCHHHHHH
C       0.0626511044      0.2698516665     -0.0345708435
O      -0.8273593988      1.1002469265      0.0758723375
O      -1.7455026785      0.9497940342      0.9623400113
C       1.2142881045      0.7620984685     -0.9496518283
C       2.2671446499      0.1295872227     -1.3907465499
C       0.0711030438     -0.9491867483      1.0630260497
H       1.1053147132      1.7079550790     -1.2251449044
H       2.5750921094     -0.8948488870     -1.0115020690
H       2.8269007790      0.5070253223     -2.2404996420
H      -0.8145651847     -1.2035434382      1.4064225150
H       0.9018058245     -0.8793494710      1.7893421842
H       0.5591952840     -1.8345484810      0.4354883810
12
Frame=864  time=432.500fs  energy=-306.16957152Ha  molecule=COOCCCHHHHHH
C       0.0561546311      0.2671713803     -0.0219068705
O      -0.8222615873      1.0960630930      0.0706954981
O      -1.7498378144      0.9469119615      0.9556330499
C       1.2108239903      0.7664720840     -0.9494391509
C       2.2715957201      0.1409491058     -1.3899417918
C       0.0755781454     -0.9530329440      1.0625279532
H       1.0734531641      1.7339068205     -1.2019024304
H       2.5783494412     -0.8901373597     -1.0213447043
H       2.8320927517      0.5144016676     -2.2414394935
H      -0.7968296812     -1.2408561548      1.4199435132
H       0.9034029297     -0.8765770957      1.7817949396
H       0.5634954870     -1.8356290256      0.4485884303
12
Frame=865  time=433.000fs  energy=-306.17038133Ha  molecule=COOCCCHHHHHH
C       0.0503930237      0.2642031886     -0.0091228122
O      -0.8173540455      1.0920646118      0.0655104118
O      -1.7544010430      0.9440106388      0.9490755747
C       1.2071471005      0.7702393641     -0.9487924328
C       2.2762105436      0.1516955434     -1.3890474917
C       0.0814843274     -0.9568576477      1.0611750395
H       1.0392513752      1.7652315100     -1.1816366809
H       2.5802071304     -0.8817537813     -1.0326054470
H       2.8381015292      0.5232558419     -2.2418115724
H      -0.7908539332     -1.2788528485      1.4368681788
H       0.9037348174     -0.8726299472      1.7737948995
H       0.5651583163     -1.8326258337      0.4628389157
12
Frame=866  time=433.500fs  energy=-306.17100321Ha  molecule=COOCCCHHHHHH
C       0.0454174707      0.2608563935      0.0037572795
O      -0.8126725087      1.0882767139      0.0603285596
O      -1.7591819520      0.9410836138      0.9426636648
C       1.2032652686      0.7736076479     -0.9477558058
C       2.2809230056      0.1618895692     -1.3880821986
C       0.0885302493     -0.9606916433      1.0590233087
H       1.0033040839      1.7989919994     -1.1636532145
H       2.5807141518     -0.8699497307     -1.0449904712
H       2.8447579150      0.5336815375     -2.2415149732
H      -0.7942642908     -1.3161931386      1.4563004167
H       0.9033563451     -0.8675833539      1.7658626066
H       0.5647389439     -1.8257812419      0.4777724350
12
Frame=867  time=434.000fs  energy=-306.17087903Ha  molecule=COOCCCHHHHHH
C       0.0412493837      0.2570360122      0.0167243029
O      -0.8082376240      1.0847244881      0.0551535026
O      -1.7641731040      0.9381286001      0.9363932733
C       1.1991836916      0.7768157331     -0.9463869953
C       2.2856595872      0.1716273379     -1.3870746146
C       0.0963256438     -0.9645944884      1.0561769568
H       0.9664529312      1.8319614722     -1.1473062075
H       2.5800225006     -0.8552630207     -1.0581206422
H       2.8518061313      0.5457121910     -2.2403527542
H      -0.8036770015     -1.3511244412      1.4769476876
H       0.9028690639     -0.8614533100      1.7587100622
H       0.5629334629     -1.8156124447      0.4926520621
12
Frame=868  time=434.500fs  energy=-306.17012384Ha  molecule=COOCCCHHHHHH
C       0.0378785772      0.2526614286      0.0297800118
O      -0.8040614043      1.0814287671      0.0499855642
O      -1.7693641199      0.9351455400      0.9302573936
C       1.1949270936      0.7800454016     -0.9447476265
C       2.2903510975      0.1810260384     -1.3860625377
C       0.1045141061     -0.9685866666      1.0527676634
H       0.9294527051      1.8617409072     -1.1321007702
H       2.5783478857     -0.8384408478     -1.0715600863
H       2.8589991360      0.5592646430     -2.2380971388
H      -0.8162157711     -1.3822993376      1.4977061182
H       0.9028206943     -0.8541495300      1.7530270222
H       0.5605186474     -1.8030154406      0.5064341791
12
Frame=869  time=435.000fs  energy=-306.16895374Ha  molecule=COOCCCHHHHHH
C       0.0352797427      0.2476763976      0.0429271524
O      -0.8001507933      1.0784072252      0.0448234677
O      -1.7747394062      0.9321351408      0.9242445140
C       1.1905465240      0.7833857207     -0.9428948251
C       2.2949344219      0.1902098696     -1.3850836946
C       0.1127968544     -0.9726372917      1.0489497329
H       0.8926726520      1.8871581117     -1.1176645359
H       2.5759586177     -0.8203864406     -1.0848553051
H       2.8661706489      0.5741753752     -2.2345745677
H      -0.8299158061     -1.4089400292      1.5178230859
H       0.9037263921     -0.8455457210      1.7492699762
H       0.5584117369     -1.7891863255      0.5178773025
12
Frame=870  time=435.500fs  energy=-306.16749785Ha  molecule=COOCCCHHHHHH
C       0.0334310732      0.2420570035      0.0561542978
O      -0.7965165267      1.0756714380      0.0396720298
O      -1.7802814555      0.9291015277      0.9183380771
C       1.1861020672      0.7868698720     -0.9408777416
C       2.2993478084      0.1993069237     -1.3841696944
C       0.1208819906     -0.9767060061      1.0449190094
H       0.8562612484      1.9077440380     -1.1037384929
H       2.5731824075     -0.8021534077     -1.0975640963
H       2.8732283507      0.5902818824     -2.2296926867
H      -0.8429875191     -1.4304181915      1.5365634657
H       0.9060159042     -0.8355634745      1.7476419313
H       0.5576601353     -1.7755136209      0.5256711223
12
Frame=871  time=436.000fs  energy=-306.16597559Ha  molecule=COOCCCHHHHHH
C       0.0323163189      0.2358174922      0.0694283400
O      -0.7931789647      1.0732171823      0.0345513393
O      -1.7859746429      0.9260543859      0.9125173538
C       1.1816497781      0.7905123390     -0.9387386967
C       2.3035295578      0.2084499755     -1.3833452076
C       0.1285035920     -0.9807584464      1.0408964559
H       0.8204379957      1.9232513851     -1.0902131057
H       2.5703821403     -0.7849076769     -1.1092693865
H       2.8801130191      0.6074532989     -2.2234154710
H      -0.8536583574     -1.4461752212      1.5531607837
H       0.9098938557     -0.8242242314      1.7481175407
H       0.5592684103     -1.7634111215      0.5286147277
12
Frame=872  time=436.500fs  energy=-306.16470535Ha  molecule=COOCCCHHHHHH
C       0.0319139520      0.2290072178      0.0826990812
O      -0.7901658245      1.0710158112      0.0295004064
O      -1.7918057424      0.9230078673      0.9067588824
C       1.1772394251      0.7943249103     -0.9365156838
C       2.3074206995      0.2177692368     -1.3826277981
C       0.1354618940     -0.9847699593      1.0370908736
H       0.7856419337      1.9334937817     -1.0771487449
H       2.5679081035     -0.7698047686     -1.1196020359
H       2.8867666556      0.6255839394     -2.2157278839
H      -0.8603539782     -1.4558094899      1.5669270755
H       0.9152807791     -0.8116662336      1.7504696083
H       0.5639870319     -1.7540385942      0.5258247352
12
Frame=873  time=437.000fs  energy=-306.16397322Ha  molecule=COOCCCHHHHHH
C       0.0321899692      0.2217020259      0.0959060319
O      -0.7875052558      1.0690145716      0.0245725060
O      -1.7977629501      0.9199781629      0.9010385413
C       1.1729148703      0.7983175937     -0.9342421395
C       2.3109684321      0.2273760357     -1.3820256116
C       0.1416425852     -0.9887292093      1.0336716114
H       0.7525085887      1.9383782902     -1.0647547025
H       2.5660545032     -0.7578078156     -1.1282825397
H       2.8931238897      0.6445894798     -2.2066237087
H      -0.8618911012     -1.4591589078      1.5773469718
H       0.9218786480     -0.7981311010      1.7543060617
H       0.5721997389     -1.7480805320      0.5168677075
12
Frame=874  time=437.500fs  energy=-306.16391088Ha  molecule=COOCCCHHHHHH
C       0.0331006416      0.2139910676      0.1089840392
O      -0.7852206567      1.0671447395      0.0198269068
O      -1.8038360919      0.9169814586      0.8953341225
C       1.1687142093      0.8024937375     -0.9319454332
C       2.3141283356      0.2373454351     -1.3815337060
C       0.1470093100     -0.9926440002      1.0307611060
H       0.7217675619      1.9379940136     -1.0533492977
H       2.5650370906     -0.7495222359     -1.1351622951
H       2.8991229034      0.6644176333     -2.1961224719
H      -0.8575135243     -1.4562880262      1.5840746066
H       0.9292819134     -0.7839331610      1.7591104818
H       0.5839119342     -1.7456592626      0.5017915513
12
Frame=875  time=438.000fs  energy=-306.16447503Ha  molecule=COOCCCHHHHHH
C       0.0346018588      0.2059600796      0.1218690969
O      -0.7833330383      1.0653315670      0.0153241290
O      -1.8100170091      0.9140325601      0.8896268406
C       1.1646697356      0.8068477932     -0.9296464008
C       2.3168644571      0.2477057776     -1.3811313633
C       0.1515837506     -0.9965464712      1.0284368044
H       0.6941864405      1.9326559506     -1.0433413181
H       2.5649868683     -0.7451019817     -1.1402416804
H       2.9047251352      0.6850643302     -2.1842971333
H      -0.8467736206     -1.4473973574      1.5868517441
H       0.9370587348     -0.7694214575      1.7642898954
H       0.5987626731     -1.7463410611      0.4811083764
12
Frame=876  time=438.500fs  energy=-306.16550021Ha  molecule=COOCCCHHHHHH
C       0.0366575574      0.1976772194      0.1345038225
O      -0.7818668824      1.0635017505      0.0111251948
O      -1.8162988694      0.9111445707      0.8839007879
C       1.1608087071      0.8113661995     -0.9273599594
C       2.3191480241      0.2584374306     -1.3807820668
C       0.1554335139     -1.0004882439      1.0267315175
H       0.6705524514      1.9228734908     -1.0352121363
H       2.5659437943     -0.7442289659     -1.1436593530
H       2.9099337890      0.7065784715     -2.1712916874
H      -0.8294692782     -1.4327664004      1.5854618823
H       0.9447926421     -0.7549454675      1.7692197483
H       0.6160582433     -1.7492192610      0.4557425835
12
Frame=877  time=439.000fs  energy=-306.16673841Ha  molecule=COOCCCHHHHHH
C       0.0392415205      0.1891897303      0.1468392725
O      -0.7808502725      1.0615863982      0.0072913793
O      -1.8226754412      0.9083299216      0.8781411465
C       1.1571558347      0.8160273405     -0.9250961723
C       2.3209569145      0.2694788546     -1.3804364212
C       0.1586750592     -1.0045223320      1.0256300040
H       0.6515997891      1.9092698734     -1.0294501760
H       2.5678460324     -0.7461504084     -1.1456610919
H       2.9148034864      0.7290451583     -2.1573187495
H      -0.8057636167     -1.4127898257      1.5797942080
H       0.9521026413     -0.7408430965      1.7732683725
H       0.6348564205     -1.7530665442      0.4269422137
12
Frame=878  time=439.500fs  energy=-306.16784613Ha  molecule=COOCCCHHHHHH
C       0.0423315874      0.1805372532      0.1588298209
O      -0.7803065042      1.0595185744      0.0038832088
O      -1.8291414097      0.9056017230      0.8723327529
C       1.1537374846      0.8207992626     -0.9228617221
C       2.3222764278      0.2807385979     -1.3800374937
C       0.1614863896     -1.0086786474      1.0250624858
H       0.6378755043      1.8925099891     -1.0264550367
H       2.5705262171     -0.7497771477     -1.1465566468
H       2.9194396165      0.7525502578     -2.1426396680
H      -0.7764378960     -1.3881080470      1.5700169199
H       0.9586542912     -0.7274640185      1.7758099599
H       0.6540771472     -1.7565237534      0.3961919281
12
Frame=879  time=440.000fs  energy=-306.16838294Ha  molecule=COOCCCHHHHHH
C       0.0458989455      0.1717790607      0.1704230399
O      -0.7802422436      1.0572291621      0.0009574318
O      -1.8356920499      0.9029730933      0.8664600136
C       1.1505861557      0.8256383088     -0.9206615100
C       2.3230991327      0.2921117175     -1.3795276585
C       0.1641191019     -1.0129478832      1.0248980012
H       0.6296224474      1.8732640751     -1.0264713298
H       2.5737255547     -0.7538345489     -1.1466734131
H       2.9239927328      0.7771384783     -2.1275364247
H      -0.7431245520     -1.3597842678      1.5567997472
H       0.9641584865     -0.7152077625      1.7762639250
H       0.6725846697     -1.7582753210      0.3651603742
12
Frame=880  time=440.500fs  energy=-306.16789784Ha  molecule=COOCCCHHHHHH
C       0.0498983360      0.1630176532      0.1815532400
O      -0.7806388895      1.0546481223     -0.0014398716
O      -1.8423218011      0.9004553866      0.8605077154
C       1.1477401290      0.8304927518     -0.9184985762
C       2.3234235132      0.3034957621     -1.3788562988
C       0.1669126029     -1.0172794100      1.0249391470
H       0.6267570565      1.8521583865     -1.0295781773
H       2.5771256023     -0.7570135839     -1.1463177737
H       2.9286427561      0.8027831899     -2.1122746423
H      -0.7085952340     -1.3294926752      1.5415902124
H       0.9683933487     -0.7045094763      1.7741642995
H       0.6892677911     -1.7571765668      0.3355953489
12
Frame=881  time=441.000fs  energy=-306.16629968Ha  molecule=COOCCCHHHHHH
C       0.0542648709      0.1543937283      0.1921472897
O      -0.7814511848      1.0517098972     -0.0032784148
O      -1.8490260600      0.8980592447      0.8544615771
C       1.1452427918      0.8353071649     -0.9163747717
C       2.3232538280      0.3148016650     -1.3779858980
C       0.1703072350     -1.0215799475      1.0249122305
H       0.6289154542      1.8297387273     -1.0357177575
H       2.5803899309     -0.7580738368     -1.1457468390
H       2.9335624358      0.8293754140     -2.0970599804
H      -0.6771801435     -1.2995895419      1.5269703910
H       0.9712768691     -0.6958041214      1.7691832484
H       0.7032330183     -1.7523081451      0.3091013902
12
Frame=882  time=441.500fs  energy=-306.16446486Ha  molecule=COOCCCHHHHHH
C       0.0589202610      0.1460421628      0.2021534494
O      -0.7826203435      1.0483669280     -0.0045473576
O      -1.8558007137      0.8957920726      0.8483096742
C       1.1431475069      0.8400127552     -0.9142902775
C       2.3226006104      0.3259589682     -1.3768918371
C       0.1747796472     -1.0257482387      1.0245025182
H       0.6354515544      1.8066012135     -1.0447490371
H       2.5832247467     -0.7559155811     -1.1451633544
H       2.9388572175      0.8567189468     -2.0819973050
H      -0.6540209103     -1.2724268609      1.5161935654
H       0.9728488635     -0.6894109598      1.7611442249
H       0.7139097933     -1.7430155754      0.2868613766
12
Frame=883  time=442.000fs  energy=-306.16342872Ha  molecule=COOCCCHHHHHH
C       0.0637641290      0.1380913793      0.2115452011
O      -0.7840867741      1.0445949238     -0.0052528154
O      -1.8626328482      0.8936505205      0.8420420179
C       1.1415273181      0.8445124273     -0.9122460127
C       2.3214860218      0.3369157988     -1.3755648957
C       0.1806454759     -1.0297639898      1.0235078913
H       0.6453615798      1.7836903223     -1.0565071678
H       2.5854767073     -0.7496445477     -1.1447713462
H       2.9444766479      0.8845251337     -2.0670310167
H      -0.6422386170     -1.2492428935      1.5112920155
H       0.9730828080     -0.6854811102      1.7500898336
H       0.7208028035     -1.7290178279      0.2696652225
12
Frame=884  time=442.500fs  energy=-306.16352335Ha  molecule=COOCCCHHHHHH
C       0.0686794067      0.1306835006      0.2202943929
O      -0.7857963454      1.0403830923     -0.0054059859
O      -1.8695046752      0.8916252836      0.8356507607
C       1.1404894046      0.8486686695     -0.9102449518
C       2.3199423873      0.3476381157     -1.3740084456
C       0.1880088468     -1.0336713408      1.0218681902
H       0.6572675257      1.7625835579     -1.0709049827
H       2.5871814760     -0.7386250884     -1.1447995414
H       2.9501957905      0.9124317060     -2.0519628673
H      -0.6427642287     -1.2304505744      1.5129394797
H       0.9720964630     -0.6840598829      1.7362415539
H       0.7236427927     -1.7105118500      0.2579913063
12
Frame=885  time=443.000fs  energy=-306.16450553Ha  molecule=COOCCCHHHHHH
C       0.0735525528      0.1239627254      0.2283671024
O      -0.7877053311      1.0357288045     -0.0050171100
O      -1.8764021331      0.8897078415      0.8291316185
C       1.1401682553      0.8523125980     -0.9082873200
C       2.3180041928      0.3581151010     -1.3722320426
C       0.1967742761     -1.0375241346      1.0196272203
H       0.6695827840      1.7454119273     -1.0880174090
H       2.5885246922     -0.7225626160     -1.1454478387
H       2.9556548459      0.9400289457     -2.0365156582
H      -0.6548643947     -1.2161089967      1.5208419529
H       0.9703388881     -0.6851015431      1.7199714490
H       0.7225681164     -1.6882585098      0.2519885372
12
Frame=886  time=443.500fs  energy=-306.16570567Ha  molecule=COOCCCHHHHHH
C       0.0782819222      0.1180777232      0.2357212031
O      -0.7897790938      1.0306307894     -0.0040931830
O      -1.8833195299      0.8878938514      0.8224843334
C       1.1406956567      0.8552845765     -0.9063694937
C       2.3157040129      0.3683699770     -1.3702517783
C       0.2066399904     -1.0413694480      1.0169381888
H       0.6808218319      1.7343341676     -1.1080419673
H       2.5897750411     -0.7015995243     -1.1468138741
H       2.9604450431      0.9668907307     -2.0204086973
H      -0.6759793195     -1.2060374213      1.5336458191
H       0.9685488734     -0.6884600505      1.7018251400
H       0.7181143431     -1.6636707517      0.2514193961
12
Frame=887  time=444.000fs  energy=-306.16648965Ha  molecule=COOCCCHHHHHH
C       0.0827897392      0.1131737546      0.2423104595
O      -0.7919971349      1.0250887747     -0.0026387028
O      -1.8902615762      0.8861812649      0.8157147981
C       1.1421716294      0.8574692250     -0.9044852719
C       2.3130702417      0.3784656989     -1.3680911321
C       0.2171438985     -1.0452454642      1.0140529135
H       0.6898761418      1.7310492009     -1.1312205932
H       2.5912434746     -0.6763617850     -1.1488463076
H       2.9642212577      0.9926317083     -2.0034467574
H      -0.7020587419     -1.1997715462      1.5490624682
H       0.9676276019     -0.6938458827      1.6825929437
H       0.7111251512     -1.6388044268      0.2555115046
12
Frame=888  time=444.500fs  energy=-306.16667798Ha  molecule=COOCCCHHHHHH
C       0.0870354736      0.1093567782      0.2481012756
O      -0.7943563058      1.0191004589     -0.0006514892
O      -1.8972453394      0.8845693003      0.8088350486
C       1.1446424359      0.8588287212     -0.9026368547
C       2.3101266850      0.3884967389     -1.3657772211
C       0.2277926320     -1.0491571650      1.0112498477
H       0.6962243989      1.7364383183     -1.1577472079
H       2.5932726022     -0.6479278036     -1.1513334949
H       2.9667751448      1.0169646139     -1.9855800899
H      -0.7291394322     -1.1966521978      1.5646883600
H       0.9686197287     -0.7007921569      1.6632822537
H       0.7027278181     -1.6161306107      0.2627994281
12
Frame=889  time=445.000fs  energy=-306.16634602Ha  molecule=COOCCCHHHHHH
C       0.0910130182      0.1066656768      0.2530873194
O      -0.7968653407      1.0126638884      0.0018761883
O      -1.9042945675      0.8830585186      0.8018584616
C       1.1480733082      0.8594485627     -0.9008524824
C       2.3068975013      0.3985751878     -1.3633390138
C       0.2381614660     -1.0530494674      1.0087810205
H       0.7000802333      1.7500436434     -1.1874925819
H       2.5962393120     -0.6177720644     -1.1539084209
H       2.9680430355      1.0397314091     -1.9669096852
H      -0.7542450936     -1.1960015993      1.5785602878
H       0.9725525812     -0.7087033752      1.6449884551
H       0.6941678477     -1.5982843489      0.2711745953
12
Frame=890  time=445.500fs  energy=-306.16557031Ha  molecule=COOCCCHHHHHH
C       0.0947428650      0.1050756735      0.2572859568
O      -0.7995425068      1.0058015433      0.0049356382
O      -1.9114274729      0.8816432804      0.7948001620
C       1.1523382258      0.8595493194     -0.8991942702
C       2.3034158948      0.4088190655     -1.3608096278
C       0.2479288338     -1.0568368628      1.0068605454
H       0.7022978266      1.7697359048     -1.2196440812
H       2.6005560567     -0.5876597335     -1.1560842549
H       2.9680604882      1.0608963880     -1.9476417804
H      -0.7753979176     -1.1971988162      1.5892582203
H       0.9803313360     -0.7169001907      1.6287967441
H       0.6865328557     -1.5876615547      0.2781529336
12
Frame=891  time=446.000fs  energy=-306.16467675Ha  molecule=COOCCCHHHHHH
C       0.0982561368      0.1045333093      0.2607183934
O      -0.8024078305      0.9985599070      0.0084959928
O      -1.9186531794      0.8803099741      0.7876774617
C       1.1572554838      0.8594148558     -0.8977402393
C       2.2997348421      0.4193352967     -1.3582287083
C       0.2568322091     -1.0604646320      1.0056737686
H       0.7038981888      1.7924608188     -1.2528012569
H       2.6066545173     -0.5594173056     -1.1573620934
H       2.9668902902      1.0805149872     -1.9280232968
H      -0.7908059043     -1.1995638529      1.5955631368
H       0.9926374364     -0.7248356084      1.6156151900
H       0.6805880924     -1.5858574633      0.2815489396
12
Frame=892  time=446.500fs  energy=-306.16412476Ha  molecule=COOCCCHHHHHH
C       0.1015819145      0.1049825973      0.2634010221
O      -0.8054686436      0.9909909622      0.0125123845
O      -1.9259730362      0.8790419023      0.7805070223
C       1.1626263348      0.8592960660     -0.8965448621
C       2.2959444247      0.4301945373     -1.3556446286
C       0.2647100841     -1.0639225268      1.0053226625
H       0.7054738498      1.8153574468     -1.2853259026
H       2.6149188169     -0.5346495678     -1.1573247972
H       2.9646164601      1.0987332600     -1.9083398123
H      -0.7989361235     -1.2024420360      1.5966197441
H       1.0096416930     -0.7322680945      1.6059523168
H       0.6765798904     -1.5932953660      0.2802023947
12
Frame=893  time=447.000fs  energy=-306.16408208Ha  molecule=COOCCCHHHHHH
C       0.1047406480      0.1063688439      0.2653510360
O      -0.8087058459      0.9831407023      0.0169295685
O      -1.9333823861      0.8778232678      0.7733035711
C       1.1682270393      0.8594008892     -0.8956237483
C       2.2921870889      0.4414063018     -1.3531148132
C       0.2715291206     -1.0672174592      1.0058025029
H       0.7070755867      1.8359324842     -1.3154210220
H       2.6256152657     -0.5145048356     -1.1556817252
H       2.9614234765      1.1158135227     -1.8889640925
H      -0.7988346341     -1.2053901018      1.5920823976
H       1.0309150131     -0.7392673746      1.5997332073
H       0.6742270420     -1.6093059478      0.2741838357
12
Frame=894  time=447.500fs  energy=-306.16451405Ha  molecule=COOCCCHHHHHH
C       0.1077407412      0.1086353050      0.2665930323
O      -0.8120739884      0.9750415341      0.0216883667
O      -1.9408752412      0.8766412515      0.7660810345
C       1.1737996737      0.8599155451     -0.8949605094
C       2.2886501872      0.4529053955     -1.3506982190
C       0.2773444470     -1.0703533984      1.0070321403
H       0.7085174890      1.8519995192     -1.3412963175
H       2.6388462588     -0.4994930576     -1.1523065023
H       2.9576596148      1.1321376859     -1.8703669024
H      -0.7899552169     -1.2082423661      1.5819584869
H       1.0555360363     -0.7461769198      1.5963191705
H       0.6729073453     -1.6324265818      0.2645781000
12
Frame=895  time=448.000fs  energy=-306.16533943Ha  molecule=COOCCCHHHHHH
C       0.1105787428      0.1117278713      0.2671534472
O      -0.8155147933      0.9667072435      0.0267377165
O      -1.9484495790      0.8754869590      0.7588531121
C       1.1790797550      0.8609866087     -0.8945090512
C       2.2855368235      0.4645589443     -1.3484439936
C       0.2822685327     -1.0733298769      1.0088798336
H       0.7096301118      1.8620081905     -1.3615793247
H       2.6545288165     -0.4894089644     -1.1472611446
H       2.9538190332      1.1481674743     -1.8530619589
H      -0.7721641213     -1.2110932702      1.5666068847
H       1.0823217540     -0.7535340808      1.5947927990
H       0.6719034966     -1.6607438010      0.2530312861
12
Frame=896  time=448.500fs  energy=-306.16631610Ha  molecule=COOCCCHHHHHH
C       0.1132421419      0.1156065671      0.2670465011
O      -0.8189731775      0.9581375834      0.0320422041
O      -1.9561092665      0.8743538512      0.7516330200
C       1.1838367770      0.8626956478     -0.8941974590
C       2.2830364019      0.4761914674     -1.3463855431
C       0.2864811700     -1.0761495114      1.0111699997
H       0.7103444632      1.8652598840     -1.3755629230
H       2.6723808655     -0.4833843383     -1.1407738942
H       2.9504445953      1.1643446342     -1.8375007563
H      -0.7462389631     -1.2142586226      1.5470009348
H       1.1101275582     -0.7619138958      1.5943209063
H       0.6706293678     -1.6922437400      0.2411921779
12
Frame=897  time=449.000fs  energy=-306.16697998Ha  molecule=COOCCCHHHHHH
C       0.1157190899      0.1202498015      0.2662699852
O      -0.8224071794      0.9493325059      0.0375775406
O      -1.9638626264      0.8732336905      0.7444346694
C       1.1878971572      0.8650581415     -0.8939406569
C       2.2813140634      0.4876138444     -1.3445430746
C       0.2902517830     -1.0788249437      1.0136866206
H       0.7106757226      1.8617415446     -1.3831061787
H       2.6918943779     -0.4800310812     -1.1331728985
H       2.9479964528      1.1809702199     -1.8239722695
H      -0.7143795089     -1.2182604797      1.5249648055
H       1.1380116414     -0.7717338957      1.5943148636
H       0.6687565072     -1.7250542889      0.2302936203
12
Frame=898  time=449.500fs  energy=-306.16698556Ha  molecule=COOCCCHHHHHH
C       0.1180122078      0.1256487791      0.2648155579
O      -0.8257880699      0.9402994763      0.0433233076
O      -1.9717217261      0.8721150812      0.7372741592
C       1.1911443087      0.8680419936     -0.8936553634
C       2.2805169474      0.4986488388     -1.3429309736
C       0.2939408402     -1.0813774243      1.0161743866
H       0.7106778702      1.8518245342     -1.3843909955
H       2.7123463865     -0.4776787370     -1.1248158489
H       2.9467561176      1.1981407924     -1.8125734192
H      -0.6800589471     -1.2238673160      1.5030701245
H       1.1650888183     -0.7831309814      1.5943911298
H       0.6660754986     -1.7574935346      0.2211733849
12
Frame=899  time=450.000fs  energy=-306.16656798Ha  molecule=COOCCCHHHHHH
C       0.1201391867      0.1317912595      0.2626824658
O      -0.8290953494      0.9310456700      0.0492656455
O      -1.9797034332      0.8709883708      0.7301669344
C       1.1935041873      0.8715962308     -0.8932713968
C       2.2807786510      0.5091506342     -1.3415610093
C       0.2979312206     -1.0838209883      1.0183702300
H       0.7104233333      1.8360845887     -1.3797703542
H       2.7329303467     -0.4746736811     -1.1160560759
H       2.9468058997      1.2157732393     -1.8032665055
H      -0.6469082014     -1.2319781629      1.4839301838
H       1.1904069514     -0.7960378291      1.5943462497
H       0.6622805638     -1.7881785701      0.2145128078
12
Frame=900  time=450.500fs  energy=-306.16620173Ha  molecule=COOCCCHHHHHH
C       0.1221337766      0.1386352651      0.2598867409
O      -0.8323222530      0.9215813610      0.0553964370
O      -1.9878267849      0.8698485726      0.7231244735
C       1.1949252426      0.8756713375     -0.8927323924
C       2.2822132849      0.5190148231     -1.3404373938
C       0.3025123011     -1.0861594186      1.0200712402
H       0.7100047202      1.8152853085     -1.3697548379
H       2.7529298675     -0.4696390357     -1.1072063962
H       2.9480599326      1.2336812864     -1.7959709634
H      -0.6176204572     -1.2432676438      1.4694074247
H       1.2132395152     -0.8103334989      1.5940990794
H       0.6570998613     -1.8162143334      0.2108255213
12
Frame=901  time=451.000fs  energy=-306.16621420Ha  molecule=COOCCCHHHHHH
C       0.1240601217      0.1460861056      0.2564652178
O      -0.8354892204      0.9119385121      0.0617021731
O      -1.9961081103      0.8686908119      0.7161566446
C       1.1953674710      0.8802117773     -0.8919833844
C       2.2849086133      0.5281799421     -1.3395537569
C       0.3079195209     -1.0883877702      1.0211245066
H       0.7095065819      1.7904434393     -1.3550485730
H       2.7717841517     -0.4616014524     -1.0984907001
H       2.9503076830      1.2516373173     -1.7906116327
H      -0.5946162637     -1.2580821501      1.4608501302
H       1.2332507225     -0.8258787569      1.5936073984
H       0.6504210508     -1.8411224616      0.2103684179
12
Frame=902  time=451.500fs  energy=-306.16682227Ha  molecule=COOCCCHHHHHH
C       0.1260178727      0.1540015565      0.2524702783
O      -0.8386458516      0.9021780198      0.0681570352
O      -2.0045610273      0.8675070876      0.7092753886
C       1.1948110088      0.8851305349     -0.8909566943
C       2.2889194755      0.5366259456     -1.3388950477
C       0.3143401565     -1.0904964875      1.0214234439
H       0.7089123611      1.7629301987     -1.3365914929
H       2.7890706614     -0.4499885099     -1.0900366151
H       2.9532614084      1.2693891411     -1.7871126213
H      -0.5799580577     -1.2764757010      1.4591526195
H       1.2503694249     -0.8425150765      1.5928476185
H       0.6422720935     -1.8626818016      0.2131427844
12
Frame=903  time=452.000fs  energy=-306.16793011Ha  molecule=COOCCCHHHHHH
C       0.1281370651      0.1622149879      0.2479601564
O      -0.8418641732      0.8923844781      0.0747232377
O      -2.0131988639      0.8662859375      0.7024966716
C       1.1932831651      0.8902799797     -0.8895629923
C       2.2942586252      0.5443750936     -1.3384399036
C       0.3218352866     -1.0924817181      1.0209260192
H       0.7079326553      1.7346203002     -1.3156191377
H       2.8045008449     -0.4345874172     -1.0819025890
H       2.9566162636      1.2866541526     -1.7853812699
H      -0.5744361330     -1.2982274121      1.4645460974
H       1.2646899751     -0.8600787779      1.5918121496
H       0.6328317679     -1.8808089511      0.2189605669
12
Frame=904  time=452.500fs  energy=-306.16901837Ha  molecule=COOCCCHHHHHH
C       0.1305692634      0.1705500190      0.2429964482
O      -0.8452424546      0.8826628859      0.0813550697
O      -2.0220343277      0.8650121470      0.6958408075
C       1.1908917826      0.8954241277     -0.8876846051
C       2.3008879712      0.5514988193     -1.3381637376
C       0.3302980588     -1.0943646939      1.0196610539
H       0.7058275680      1.7081050219     -1.2937802300
H       2.8179779140     -0.4155464275     -1.0741086439
H       2.9601098742      1.3031116868     -1.7853050961
H      -0.5770733958     -1.3227604629      1.4765137094
H       1.2764059263     -0.8784011012      1.5905136821
H       0.6224260335     -1.8954813196      0.2275126383
12
Frame=905  time=453.000fs  energy=-306.16950047Ha  molecule=COOCCCHHHHHH
C       0.1334736474      0.1788211405      0.2376509739
O      -0.8489190084      0.8731353872      0.0880074561
O      -2.0310771124      0.8636673534      0.6893311598
C       1.1878351182      0.9002437649     -0.8851861385
C       2.3087139888      0.5581285799     -1.3380436052
C       0.3394513110     -1.0962193155      1.0177412475
H       0.7015051003      1.6866402780     -1.2731479258
H       2.8296880174     -0.3934419266     -1.0666313728
H       2.9635574067      1.3183899574     -1.7867528639
H      -0.5849045046     -1.3489123507      1.4936232935
H       1.2857281014     -0.8972767008      1.5889801255
H       0.6114765921     -1.9066932003      0.2383807578
12
Frame=906  time=453.500fs  energy=-306.16939014Ha  molecule=COOCCCHHHHHH
C       0.1369928408      0.1868407234      0.2320081656
O      -0.8530618188      0.8639250042      0.0946446052
O      -2.0403341993      0.8622327158      0.6829919039
C       1.1843584305      0.9044212978     -0.8819658469
C       2.3175902234      0.5644490357     -1.3380577778
C       0.3489560611     -1.0981570130      1.0153341676
H       0.6940498432      1.6732777446     -1.2557376059
H       2.8400954827     -0.3692244665     -1.0593795035
H       2.9668653920      1.3320644402     -1.7895841860
H      -0.5941272961     -1.3750427793      1.5138685263
H       1.2928865975     -0.9164692800      1.5872459182
H       0.6004354589     -1.9145036696      0.2510306292
12
Frame=907  time=454.000fs  energy=-306.16916773Ha  molecule=COOCCCHHHHHH
C       0.1412334482      0.1944475949      0.2261476502
O      -0.8578187486      0.8551316222      0.1012393911
O      -2.0498147175      0.8606947039      0.6768442038
C       1.1806997108      0.9077260634     -0.8779953677
C       2.3273216694      0.5706661026     -1.3381753824
C       0.3585268470     -1.1002776626      1.0126088539
H       0.6831021889      1.6699947249     -1.2429644053
H       2.8497811410     -0.3439389987     -1.0522082119
H       2.9699982783      1.3436938651     -1.7936672929
H      -0.6015725949     -1.3995759439      1.5353554102
H       1.2981979400     -0.9357897828      1.5853626938
H       0.5897422886     -1.9191337213      0.2648687094
12
Frame=908  time=454.500fs  energy=-306.16932137Ha  molecule=COOCCCHHHHHH
C       0.1462760902      0.2015221298      0.2201277405
O      -0.8632830307      0.8468257203      0.1077662404
O      -2.0595323305      0.8590486967      0.6709028255
C       1.1770661237      0.9100210380     -0.8733053200
C       2.3376787161      0.5769749326     -1.3383505027
C       0.3679460554     -1.1026450624      1.0097165055
H       0.6686886457      1.6777093469     -1.2355792244
H       2.8593200795     -0.3185563001     -1.0449424578
H       2.9729034092      1.3529014561     -1.7988909129
H      -0.6049554724     -1.4213417709      1.5565409326
H       1.3020639237     -0.9551048736      1.5834304997
H       0.5797581132     -1.9210096414      0.2792951833
12
Frame=909  time=455.000fs  energy=-306.17004246Ha  molecule=COOCCCHHHHHH
C       0.1521974367      0.2079863505      0.2139749019
O      -0.8694880963      0.8390550357      0.1141959592
O      -2.0695054503      0.8572977720      0.6651760239
C       1.1736097642      0.9112677276     -0.8679683105
C       2.3484232513      0.5835332762     -1.3385233331
C       0.3770626068     -1.1052752502      1.0067794973
H       0.6510362205      1.6962201968     -1.2335522962
H       2.8692610294     -0.2940047634     -1.0373776605
H       2.9754589722      1.3595120643     -1.8051947617
H      -0.6028820802     -1.4396675513      1.5763235961
H       1.3049190847     -0.9742896738      1.5815837997
H       0.5707352363     -1.9207314286      0.2936937263
12
Frame=910  time=455.500fs  energy=-306.17094914Ha  molecule=COOCCCHHHHHH
C       0.1590626584      0.2138082092      0.2076821081
O      -0.8763992923      0.8318445400      0.1204932908
O      -2.0797582112      0.8554498749      0.6596675656
C       1.1703860964      0.9115666163     -0.8621032950
C       2.3593220528      0.5904480446     -1.3386230828
C       0.3857831560     -1.1081367453      1.0038895990
H       0.6308710679      1.7236618003     -1.2358224161
H       2.8801469348     -0.2712780338     -1.0292532967
H       2.9774603448      1.3637020922     -1.8126157242
H      -0.5947098081     -1.4542798870      1.5940255487
H       1.3071648263     -0.9932078882      1.5799512136
H       0.5628521779     -1.9190131945      0.3073926803
12
Frame=911  time=456.000fs  energy=-306.17136967Ha  molecule=COOCCCHHHHHH
C       0.1668830187      0.2190043907      0.2012289757
O      -0.8839044153      0.8251882652      0.1266181181
O      -2.0903205351      0.8535160975      0.6543788987
C       1.1673235462      0.9111915791     -0.8558880585
C       2.3701501557      0.5977763130     -1.3385762128
C       0.3940556429     -1.1111665191      1.0011184206
H       0.6099760672      1.7561668791     -1.2403303334
H       2.8924997417     -0.2513873868     -1.0202567810
H       2.9786551136      1.3659932593     -1.8212578514
H      -0.5802760815     -1.4651487788      1.6092792159
H       1.3091509639     -1.0116996958      1.5786400866
H       0.5562579042     -1.9166628766      0.3196300839
12
Frame=912  time=456.500fs  energy=-306.17119248Ha  molecule=COOCCCHHHHHH
C       0.1755841685      0.2236188125      0.1946174154
O      -0.8918417690      0.8190528028      0.1325322620
O      -2.1012227648      0.8515080868      0.6493111979
C       1.1642950142      0.9104897793     -0.8495197964
C       2.3807208721      0.6055275783     -1.3383229786
C       0.4018593084     -1.1142897267      0.9985291298
H       0.5906747997      1.7892698067     -1.2448899734
H       2.9066757868     -0.2350074849     -1.0101398868
H       2.9788450118      1.3670193746     -1.8311900650
H      -0.5597480257     -1.4723808874      1.6219330937
H       1.3112126250     -1.0295645707      1.5777321193
H       0.5510903478     -1.9145877623      0.3295601505
12
Frame=913  time=457.000fs  energy=-306.17074987Ha  molecule=COOCCCHHHHHH
C       0.1850156127      0.2276952629      0.1878850744
O      -0.9000405116      0.8133926502      0.1382046475
O      -2.1124877797      0.8494343787      0.6444657279
C       1.1612198606      0.9097291496     -0.8431486779
C       2.3909195309      0.6136610644     -1.3378187469
C       0.4092043958     -1.1174291082      0.9961762135
H       0.5745694812      1.8198390046     -1.2480683122
H       2.9227839606     -0.2222962976     -0.9988279408
H       2.9779987528      1.3673957236     -1.8424841378
H      -0.5336019695     -1.4761480304      1.6320106364
H       1.3136656079     -1.0465795311      1.5772591369
H       0.5474803097     -1.9137273248      0.3363245530
12
Frame=914  time=457.500fs  energy=-306.17028130Ha  molecule=COOCCCHHHHHH
C       0.1949707745      0.2312747630      0.1810939556
O      -0.9083278831      0.8081537520      0.1436124470
O      -2.1241271991      0.8472999184      0.6398419610
C       1.1580685497      0.9090961118     -0.8368837487
C       2.4006888453      0.6220897423     -1.3370165394
C       0.4161323746     -1.1205099568      0.9940965651
H       0.5624763653      1.8459924628     -1.2490401363
H       2.9407025007     -0.2129773020     -0.9864262914
H       2.9762581257      1.3677494765     -1.8552922317
H      -0.5025805109     -1.4766566026      1.6396854177
H       1.3167526597     -1.0625196018      1.5771651081
H       0.5455356738     -1.9149057645      0.3391698982
12
Frame=915  time=458.000fs  energy=-306.16989298Ha  molecule=COOCCCHHHHHH
C       0.2052062090      0.2344013903      0.1743177865
O      -0.9165301630      0.8032721429      0.1487418005
O      -2.1361404649      0.8451066318      0.6354364415
C       1.1548495932      0.9087297141     -0.8308164097
C       2.4099995946      0.6306934152     -1.3358558982
C       0.4227107390     -1.1234714766      0.9922993088
H       0.5547834564      1.8665514728     -1.2473134079
H       2.9601067841     -0.2064270492     -0.9731990712
H       2.9738563269      1.3686939632     -1.8698179401
H      -0.4675910892     -1.4741356167      1.6452402378
H       1.3206096161     -1.0771686641      1.5772986258
H       0.5453086170     -1.9186578562      0.3375967677
12
Frame=916  time=458.500fs  energy=-306.16960058Ha  molecule=COOCCCHHHHHH
C       0.2154644729      0.2371229630      0.1676336250
O      -0.9244814676      0.7986795014      0.1535856700
O      -2.1485149374      0.8428531062      0.6312431955
C       1.1516059339      0.9087309679     -0.8250269757
C       2.4188338474      0.6393384399     -1.3342653486
C       0.4290246397     -1.1262806650      0.9907586534
H       0.5516146652      1.8808339625     -1.2426410827
H       2.9805237641     -0.2017842835     -0.9595295924
H       2.9710186769      1.3707446754     -1.8862380713
H      -0.4296186513     -1.4688318805      1.6490302753
H       1.3252878356     -1.0903352686      1.5774387592
H       0.5467779104     -1.9250902744      0.3314849562
12
Frame=917  time=459.000fs  energy=-306.16933978Ha  molecule=COOCCCHHHHHH
C       0.2254966440      0.2394871098      0.1611163535
O      -0.9320343976      0.7943135663      0.1581389398
O      -2.1612269541      0.8405335536      0.6272551785
C       1.1484055645      0.9091705211     -0.8195860952
C       2.4271781325      0.6478994742     -1.3321728501
C       0.4351740412     -1.1289381075      0.9894098105
H       0.5529359429      1.8885017743     -1.2349526002
H       3.0014125296     -0.1981040104     -0.9458523697
H       2.9678799898      1.3742396013     -1.9046290276
H      -0.3897545114     -1.4610465790      1.6515097155
H       1.3308166973     -1.1018663152      1.5773180708
H       0.5498557095     -1.9338284340      0.3211442173
12
Frame=918  time=459.500fs  energy=-306.16899532Ha  molecule=COOCCCHHHHHH
C       0.2350788629      0.2415358492      0.1548355771
O      -0.9390669154      0.7901273573      0.1623934162
O      -2.1742440928      0.8381365332      0.6234663803
C       1.1453283176      0.9100990122     -0.8145555850
C       2.4350216627      0.6562770185     -1.3295178342
C       0.4412810276     -1.1314697490      0.9881453252
H       0.5586528004      1.8894140081     -1.2242901230
H       3.0222450930     -0.1945023796     -0.9325833066
H       2.9644287076      1.3792836762     -1.9249059619
H      -0.3493476263     -1.4512208780      1.6533509370
H       1.3372553396     -1.1116507285      1.5766257402
H       0.5544041579     -1.9440721118      0.3072775805
12
Frame=919  time=460.000fs  energy=-306.16847121Ha  molecule=COOCCCHHHHHH
C       0.2440202093      0.2433013289      0.1488549687
O      -0.9454843452      0.7860934391      0.1663351145
O      -2.1875283046      0.8356443011      0.6198737221
C       1.1424574913      0.9115531291     -0.8099883142
C       2.4423567304      0.6644065441     -1.3262600773
C       0.4475019936     -1.1339084777      0.9868113278
H       0.5686650725      1.8835674224     -1.2107895794
H       3.0425616751     -0.1902347185     -0.9200814717
H       2.9604812528      1.3857196960     -1.9467743647
H      -0.3101871786     -1.4400243029      1.6556208995
H       1.3447132024     -1.1196123263      1.5750111360
H       0.5602504380     -1.9547544771      0.2908655593
12
Frame=920  time=460.500fs  energy=-306.16780532Ha  molecule=COOCCCHHHHHH
C       0.2521648661      0.2448046382      0.1432325123
O      -0.9512201007      0.7822020502      0.1699460727
O      -2.2010387319      0.8330342701      0.6164770244
C       1.1398803847      0.9135521036     -0.8059260275
C       2.4491783144      0.6722580553     -1.3223826909
C       0.4540265454     -1.1362770319      0.9852116334
H       0.5828535650      1.8711677565     -1.1947206066
H       3.0619938245     -0.1846961546     -0.9086528716
H       2.9556950881      1.3931373082     -1.9697071834
H      -0.2744931008     -1.4283477410      1.6598523383
H       1.3533498254     -1.1257054357      1.5721282485
H       0.5671965712     -1.9647691836      0.2730010327
12
Frame=921  time=461.000fs  energy=-306.16719141Ha  molecule=COOCCCHHHHHH
C       0.2593933012      0.2460567436      0.1380200036
O      -0.9562382676      0.7784540362      0.1732111429
O      -2.2147325609      0.8302832796      0.6132758646
C       1.1376954339      0.9160819476     -0.8023923642
C       2.4554805831      0.6798275896     -1.3178885533
C       0.4610409349     -1.1385839254      0.9831378514
H       0.6009866580      1.8528373044     -1.1765791598
H       3.0802660900     -0.1773871757     -0.8985744557
H       2.9496281468      1.4009381847     -1.9929730799
H      -0.2444559269     -1.4170954791      1.6677398780
H       1.3633663823     -1.1299275943      1.5677213905
H       0.5750328384     -1.9731990056      0.2547158171
12
Frame=922  time=461.500fs  energy=-306.16677545Ha  molecule=COOCCCHHHHHH
C       0.2656223956      0.2470605274      0.1332611857
O      -0.9605349340      0.7748514136      0.1761261913
O      -2.2285637107      0.8273730397      0.6102647618
C       1.1360193242      0.9190726705     -0.7993813162
C       2.4612522205      0.6871243632     -1.3127921684
C       0.4686727620     -1.1408320466      0.9804231168
H       0.6225706604      1.8298809168     -1.1571882595
H       3.0971782506     -0.1678947755     -0.8901040238
H       2.9418389409      1.4084554533     -2.0157324116
H      -0.2215467527     -1.4068863436      1.6805145257
H       1.3749917813     -1.1323314570      1.5616643442
H       0.5835576254     -1.9794408506      0.2368673228
12
Frame=923  time=462.000fs  energy=-306.16642885Ha  molecule=COOCCCHHHHHH
C       0.2708025238      0.2478173264      0.1289872494
O      -0.9641320385      0.7713894245      0.1787019989
O      -2.2424819198      0.8242940921      0.6074298712
C       1.1349865752      0.9223764696     -0.7968433567
C       2.4664773926      0.6941605582     -1.3071133309
C       0.4769589237     -1.1430292979      0.9769889416
H       0.6466903037      1.8044663494     -1.1377289669
H       3.1125659665     -0.1559039882     -0.8834617070
H       2.9320008505      1.4150894872     -2.0371827609
H      -0.2061032622     -1.3979007792      1.6984168716
H       1.3884415775     -1.1330121447      1.5539028880
H       0.5925870907     -1.9831822547      0.2201258963
12
Frame=924  time=462.500fs  energy=-306.16580248Ha  molecule=COOCCCHHHHHH
C       0.2749125107      0.2483378812      0.1252119984
O      -0.9670637451      0.7680562730      0.1809590488
O      -2.2564353597      0.8210459838      0.6047499370
C       1.1347472416      0.9257364764     -0.7946669359
C       2.4711427389      0.7009540031     -1.3008805859
C       0.4858454632     -1.1451946987      0.9728664841
H       0.6718304043      1.7797769399     -1.1197262283
H       3.1262971605     -0.1412410655     -0.8787933115
H       2.9199621446      1.4203939130     -2.0566747481
H      -0.1973097713     -1.3899124221      1.7205107364
H       1.4038536024     -1.1320743635      1.5443723039
H       0.6019527203     -1.9843140144      0.2050011773
12
Frame=925  time=463.000fs  energy=-306.16477276Ha  molecule=COOCCCHHHHHH
C       0.2779529150      0.2486406140      0.1219380927
O      -0.9693648723      0.7648416005      0.1829163424
O      -2.2703768737      0.8176326141      0.6022021239
C       1.1354571608      0.9287987947     -0.7926870009
C       2.4752369251      0.7075406120     -1.2941392430
C       0.4952138648     -1.1473538402      0.9681819496
H       0.6960364035      1.7597941662     -1.1049377016
H       3.1383472733     -0.1239366005     -0.8761311103
H       2.9056872864      1.4240676912     -2.0737058203
H      -0.1935038075     -1.3824511696      1.7449074953
H       1.4212303459     -1.1296185957      1.5329752882
H       0.6114920357     -1.9828784417      0.1918648084
12
Frame=926  time=463.500fs  energy=-306.16373606Ha  molecule=COOCCCHHHHHH
C       0.2799301340      0.2487313084      0.1191770354
O      -0.9710626097      0.7617427349      0.1845841139
O      -2.2842686836      0.8140572796      0.5997675362
C       1.1372647093      0.9311986332     -0.7907360277
C       2.4787398135      0.7139736661     -1.2869462581
C       0.5049261368     -1.1495230983      0.9631065979
H       0.7174068153      1.7486045710     -1.0951324042
H       3.1488217795     -0.1042103503     -0.8753992829
H       2.8891627653      1.4258887975     -2.0878294730
H      -0.1927041405     -1.3750232528      1.7693182294
H       1.4404297737     -1.1257664474      1.5196167650
H       0.6210472723     -1.9790640744      0.1809895163
12
Frame=927  time=464.000fs  energy=-306.16348194Ha  molecule=COOCCCHHHHHH
C       0.2808427430      0.2486003756      0.1169532600
O      -0.9721763028      0.7587646246      0.1859650547
O      -2.2980805062      0.8103208437      0.5974323271
C       1.1402966790      0.9326418449     -0.7886870330
C       2.4816186861      0.7203122694     -1.2793599735
C       0.5148655103     -1.1516969417      0.9578040550
H       0.7344164002      1.7496248667     -1.0917722697
H       3.1579208474     -0.0823913324     -0.8764646886
H       2.8704198827      1.4256620993     -2.0986207586
H      -0.1931059481     -1.3672757686      1.7916390233
H       1.4611966661     -1.1206721386      1.5042358914
H       0.6304764025     -1.9732051975      0.1725620352
12
Frame=928  time=464.500fs  energy=-306.16438512Ha  molecule=COOCCCHHHHHH
C       0.2806866693      0.2482389389      0.1152874061
O      -0.9727248909      0.7559182482      0.1870587022
O      -2.3117838563      0.8064222460      0.5951860027
C       1.1445849865      0.9330379347     -0.7864966084
C       2.4838315411      0.7266127418     -1.2714358935
C       0.5249508929     -1.1538475336      0.9524076031
H       0.7465887244      1.7638913531     -1.0953032190
H       3.1659758094     -0.0589027158     -0.8791611447
H       2.8496321078      1.4232479158     -2.1057555378
H      -0.1932967926     -1.3590461489      1.8102576414
H       1.4831983795     -1.1144962600      1.4868215052
H       0.6396547847     -1.9657533617      0.1666452196
12
Frame=929  time=465.000fs  energy=-306.16591186Ha  molecule=COOCCCHHHHHH
C       0.2794614125      0.2476484144      0.1141859711
O      -0.9727272884      0.7532166253      0.1878640402
O      -2.3253504385      0.8023600069      0.5930199140
C       1.1500305046      0.9325604118     -0.7842181434
C       2.4853299565      0.7329231945     -1.2632242383
C       0.5351293281     -1.1559285021      0.9470222873
H       0.7547064601      1.7892540330     -1.1048278133
H       3.1735151642     -0.0343041976     -0.8832731110
H       2.8271621312      1.4186321724     -2.1091123527
H      -0.1922286209     -1.3503249922      1.8240375490
H       1.5060713066     -1.1073909940      1.4674081607
H       0.6484704755     -1.9572355654      0.1631654998
12
Frame=930  time=465.500fs  energy=-306.16731044Ha  molecule=COOCCCHHHHHH
C       0.2771657221      0.2468343874      0.1136488152
O      -0.9721938322      0.7506675586      0.1883809462
O      -2.3387567071      0.7981340343      0.5909267199
C       1.1564551143      0.9315480148     -0.7819631541
C       2.4860650873      0.7392806113     -1.2547688412
C       0.5453671319     -1.1578763830      0.9417296979
H       0.7601546329      1.8216708594     -1.1186342587
H       3.1812436943     -0.0093048436     -0.8885115299
H       2.8035277012      1.4119581206     -2.1088007339
H      -0.1891291362     -1.3411939452      1.8322006873
H       1.5294470988     -1.0995173023      1.4460591314
H       0.6568231838     -1.9482238000      0.1619454156
12
Frame=931  time=466.000fs  energy=-306.16818143Ha  molecule=COOCCCHHHHHH
C       0.2738009947      0.2458022651      0.1136728875
O      -0.9711218426      0.7482688347      0.1886116546
O      -2.3519886392      0.7937474783      0.5888998601
C       1.1636593279      0.9303716233     -0.7798489599
C       2.4860045546      0.7457051262     -1.2461095056
C       0.5556498314     -1.1596179540      0.9365889002
H       0.7642275307      1.8568712263     -1.1348802653
H       3.1899037556      0.0153018287     -0.8945010464
H       2.7793038254      1.4035408163     -2.1051294742
H      -0.1834725363     -1.3317873035      1.8342985925
H       1.5529304628     -1.0910417904      1.4228399829
H       0.6646244652     -1.9392794110      0.1627325234
12
Frame=932  time=466.500fs  energy=-306.16848798Ha  molecule=COOCCCHHHHHH
C       0.2693903659      0.2445736729      0.1142352519
O      -0.9695027865      0.7460063791      0.1885645816
O      -2.3650438761      0.7892078940      0.5869330256
C       1.1714317905      0.9293754948     -0.7779721084
C       2.4851491927      0.7521974134     -1.2372877258
C       0.5659802892     -1.1610848060      0.9316419856
H       0.7680095325      1.8908390815     -1.1517730828
H       3.2001224290      0.0387533398     -0.9007866315
H       2.7550409336      1.3938748428     -2.0985811446
H      -0.1750064073     -1.3222713471      1.8302440219
H       1.5760948831     -1.0821004526      1.3978032911
H       0.6718124888     -1.9308959209      0.1651795344
12
Frame=933  time=467.000fs  energy=-306.16845469Ha  molecule=COOCCCHHHHHH
C       0.2639831970      0.2431987569      0.1152842540
O      -0.9673255620      0.7438536023      0.1882561661
O      -2.3779287730      0.7845277602      0.5850188153
C       1.1795671332      0.9288168771     -0.7763870467
C       2.4835313205      0.7587410801     -1.2283442949
C       0.5763706015     -1.1622203177      0.9269218957
H       0.7722591258      1.9203070399     -1.1677463609
H       3.2123131748      0.0604486738     -0.9069003979
H       2.7312688964      1.3836085253     -2.0898096406
H      -0.1637802682     -1.3128316145      1.8203139587
H       1.5985437972     -1.0727724381      1.3709908631
H       0.6783859516     -1.9235069899      0.1688017675
12
Frame=934  time=467.500fs  energy=-306.16835493Ha  molecule=COOCCCHHHHHH
C       0.2576460144      0.2417409775      0.1167530291
O      -0.9645817494      0.7417737961      0.1877105195
O      -2.3906504891      0.7797239207      0.5831469724
C       1.1878806384      0.9288509048     -0.7751046159
C       2.4812056503      0.7652988610     -1.2193055263
C       0.5868363099     -1.1629739166      0.9224528300
H       0.7774144382      1.9430518380     -1.1816473626
H       3.2266252004      0.0800381769     -0.9124587406
H       2.7085125636      1.3735185425     -2.0796449566
H      -0.1501103663     -1.3036649761      1.8051033678
H       1.6199745268     -1.0630851218      1.3424756624
H       0.6844028253     -1.9175402598      0.1729561936
12
Frame=935  time=468.000fs  energy=-306.16836394Ha  molecule=COOCCCHHHHHH
C       0.2504539384      0.2402580604      0.1185751160
O      -0.9612763360      0.7397280825      0.1869570479
O      -2.4032110571      0.7748152536      0.5813045824
C       1.1962219001      0.9295424030     -0.7741025943
C       2.4782448208      0.7718095934     -1.2101722806
C       0.5973936469     -1.1632957678      0.9182450754
H       0.7836362411      1.9579103686     -1.1928013089
H       3.2429361252      0.0974686694     -0.9172438702
H       2.6872639102      1.3644579208     -2.0690546816
H      -0.1344765322     -1.2949673388      1.7854364762
H       1.6402074145     -1.0530330629      1.3124284126
H       0.6899417713     -1.9134499245      0.1768759622
12
Frame=936  time=468.500fs  energy=-306.16850851Ha  molecule=COOCCCHHHHHH
C       0.2424897357      0.2387923193      0.1206909171
O      -0.9574352364      0.7376858027      0.1860257456
O      -2.4156065746      0.7698196259      0.5794782329
C       1.2044700522      0.9308934023     -0.7733372329
C       2.4747447194      0.7781957188     -1.2009265858
C       0.6080620099     -1.1631395219      0.9142847590
H       0.7908569366      1.9645156873     -1.2008965868
H       3.2608800461      0.1129571302     -0.9212162773
H       2.6679637454      1.3572474110     -2.0590481569
H      -0.1174333325     -1.2869264157      1.7622967189
H       1.6591642912     -1.0426146872      1.2811697930
H       0.6950578402     -1.9116741073      0.1797919820
12
Frame=937  time=469.000fs  energy=-306.16871459Ha  molecule=COOCCCHHHHHH
C       0.2338500234      0.2373699956      0.1230450843
O      -0.9531077848      0.7356312970      0.1849434311
O      -2.4278296351      0.7647516437      0.5776564007
C       1.2125110850      0.9328757686     -0.7727501210
C       2.4708331788      0.7843786454     -1.1915523220
C       0.6188734589     -1.1624699563      0.9105175972
H       0.7988534581      1.9629189968     -1.2057953480
H       3.2799099248      0.1268911728     -0.9244527220
H       2.6510166528      1.3525561116     -2.0505601940
H      -0.0996250072     -1.2797352455      1.7368674742
H       1.6768160928     -1.0318713520      1.2491781105
H       0.6997572978     -1.9125302498      0.1810917915
12
Frame=938  time=469.500fs  energy=-306.16888525Ha  molecule=COOCCCHHHHHH
C       0.2246503342      0.2360060306      0.1255807519
O      -0.9483634494      0.7335647195      0.1837321717
O      -2.4398727528      0.7596219675      0.5758308233
C       1.2202188244      0.9354491926     -0.7722687211
C       2.4666733844      0.7902939632     -1.1820571092
C       0.6298795704     -1.1612696894      0.9068393038
H       0.8072892382      1.9533587066     -1.2074106876
H       3.2993841813      0.1397052069     -0.9270586354
H       2.6367997847      1.3508165629     -2.0443306346
H      -0.0818418372     -1.2736152518      1.7105945896
H       1.6931463415     -1.0208936953      1.2170387959
H       0.7039993572     -1.9161206033      0.1804301209
12
Frame=939  time=470.000fs  energy=-306.16894020Ha  molecule=COOCCCHHHHHH
C       0.2150253158      0.2347079428      0.1282366436
O      -0.9432862762      0.7314989817      0.1824097349
O      -2.4517305089      0.7544380229      0.5739964048
C       1.2274494165      0.9385630133     -0.7718048114
C       2.4624631150      0.7959005584     -1.1724873343
C       0.6411471891     -1.1595413425      0.9031045313
H       0.8157092947      1.9362332153     -1.2056908511
H       3.3186451490      0.1517882414     -0.9291057251
H       2.6256272886      1.3521795842     -2.0407753594
H      -0.0649964108     -1.2688230007      1.6851177652
H       1.7081426058     -1.0097964369      1.1853646678
H       0.7077119366     -1.9222996525      0.1777528370
12
Frame=940  time=470.500fs  energy=-306.16879355Ha  molecule=COOCCCHHHHHH
C       0.2051292899      0.2334737559      0.1309482101
O      -0.9379751474      0.7294573400      0.1809916327
O      -2.4633984635      0.7492053869      0.5721497480
C       1.2340472229      0.9421454881     -0.7712521374
C       2.4584332808      0.8011824859     -1.1629340182
C       0.6527504284     -1.1573054768      0.8991449028
H       0.8235014740      1.9122512076     -1.2007095233
H       3.3370688679      0.1634458695     -0.9306132313
H       2.6176736625      1.3565077817     -2.0398702747
H      -0.0500559237     -1.2656358773      1.6621378123
H       1.7218009243     -0.9986935110      1.1547394339
H       0.7108078026     -1.9306971458      0.1732460644
12
Frame=941  time=471.000fs  energy=-306.16833352Ha  molecule=COOCCCHHHHHH
C       0.1951407705      0.2322832382      0.1336520603
O      -0.9325520485      0.7274744389      0.1794934787
O      -2.4748698750      0.7439290544      0.5702872045
C       1.2398581142      0.9460874262     -0.7704847009
C       2.4548432421      0.8061459846     -1.1535298251
C       0.6647567866     -1.1545975594      0.8947926065
H       0.8298631197      1.8826744515     -1.1928275645
H       3.3540946690      0.1749076669     -0.9315623522
H       2.6128918414      1.3634096105     -2.0410892457
H      -0.0379103083     -1.2643201058      1.6432276175
H       1.7341541988     -0.9876951462      1.1257103888
H       0.7131980900     -1.9407750876      0.1672501556
12
Frame=942  time=471.500fs  energy=-306.16744975Ha  molecule=COOCCCHHHHHH
C       0.1852659078      0.2310858511      0.1362936136
O      -0.9271710792      0.7255999377      0.1779320530
O      -2.4861339981      0.7386141720      0.5684037113
C       1.2447490752      0.9502346993     -0.7693626475
C       2.4519666681      0.8108155070     -1.1444382814
C       0.6771978212     -1.1514648700      0.8899140577
H       0.8338371180      1.8494509330     -1.1828175910
H       3.3692434676      0.1863672739     -0.9319291049
H       2.6109697022      1.3723040879     -2.0434292638
H      -0.0291012142     -1.2650981778      1.6295339304
H       1.7453272206     -0.9769224606      1.0988113403
H       0.7148147321     -1.9519095301      0.1601685306
12
Frame=943  time=472.000fs  energy=-306.16610324Ha  molecule=COOCCCHHHHHH
C       0.1757339830      0.2297919367      0.1388358950
O      -0.9220197297      0.7239025549      0.1763238663
O      -2.4971785046      0.7332659348      0.5664932842
C       1.2486365238      0.9543925933     -0.7677461396
C       2.4500633594      0.8152321318     -1.1358342205
C       0.6900415021     -1.1479633513      0.8844366674
H       0.8343996951      1.8151301262     -1.1718615824
H       3.3821264772      0.1980291384     -0.9317198368
H       2.6113655024      1.3825033055     -2.0455660953
H      -0.0235751404     -1.2681365875      1.6215561497
H       1.7555647036     -0.9665119894      1.0745699048
H       0.7156437558     -1.9634708829      0.1523938111
12
Frame=944  time=472.500fs  energy=-306.16444384Ha  molecule=COOCCCHHHHHH
C       0.1667829808      0.2282734871      0.1412649081
O      -0.9173087339      0.7224699923      0.1746825649
O      -2.5079941559      0.7278884292      0.5645508873
C       1.2515174314      0.9583360990     -0.7655076922
C       2.4493421275      0.8194518944     -1.1278751076
C       0.7031880410     -1.1441555309      0.8783535649
H       0.8304889592      1.7826438885     -1.1614292132
H       3.3924561326      0.2101063292     -0.9309779982
H       2.6134483203      1.3933132876     -2.0461661913
H      -0.0206304552     -1.2735304051      1.6191206695
H       1.7651818078     -0.9565854011      1.0534537957
H       0.7157480820     -1.9748662486      0.1442807078
12
Frame=945  time=473.000fs  energy=-306.16285441Ha  molecule=COOCCCHHHHHH
C       0.1586368490      0.2263817846      0.1435856792
O      -0.9132468020      0.7213969001      0.1730183701
O      -2.5185781757      0.7224832142      0.5625743420
C       1.2534630666      0.9618564144     -0.7625502574
C       2.4499374925      0.8235348454     -1.1206723295
C       0.7164904106     -1.1401078275      0.8717084704
H       0.8211215193      1.7546997522     -1.1529317842
H       3.4000325567      0.2227702216     -0.9297529600
H       2.6166868332      1.4041563506     -2.0442387917
H      -0.0190691804     -1.2812608840      1.6215014061
H       1.7744620447     -0.9472088133      1.0357849249
H       0.7152607268     -1.9855403846      0.1361656291
12
Frame=946  time=473.500fs  energy=-306.16172375Ha  molecule=COOCCCHHHHHH
C       0.1514797235      0.2239821113      0.1458101326
O      -0.9100075694      0.7207614777      0.1713414966
O      -2.5289343248      0.7170490421      0.5605648512
C       1.2545707468      0.9648123112     -0.7588209372
C       2.4519133237      0.8275305868     -1.1142812261
C       0.7297857943     -1.1358891211      0.8645748867
H       0.8056856616      1.7331554140     -1.1474112454
H       3.4046745859      0.2361213569     -0.9280602917
H       2.6207391137      1.4146757058     -2.0392896734
H      -0.0174736031     -1.2911385241      1.6276096544
H       1.7835714996     -0.9384136429      1.0217075090
H       0.7143736879     -1.9949562720      0.1283862439
12
Frame=947  time=474.000fs  energy=-306.16125067Ha  molecule=COOCCCHHHHHH
C       0.1454521330      0.2209783563      0.1479474645
O      -0.9077216195      0.7206127949      0.1696668136
O      -2.5390700771      0.7115825592      0.5585261104
C       1.2549216672      0.9671294911     -0.7543001602
C       2.4552762928      0.8314776570     -1.1087165793
C       0.7429206805     -1.1315739386      0.8570493180
H       0.7841910960      1.7190058613     -1.1456151900
H       3.4062277507      0.2501588686     -0.9258469598
H       2.6253782037      1.4247570527     -2.0311984512
H      -0.0144368861     -1.3027667345      1.6361349420
H       1.7925148796     -0.9302467226      1.0111815742
H       0.7133461722     -2.0026096211      0.1212558585
12
Frame=948  time=474.500fs  energy=-306.16144306Ha  molecule=COOCCCHHHHHH
C       0.1406759822      0.2173076030      0.1500027187
O      -0.9064957751      0.7209826565      0.1680118103
O      -2.5489940738      0.7060791008      0.5564631982
C       1.2545578084      0.9687911838     -0.7489947176
C       2.4599783633      0.8354115530     -1.1039693937
C       0.7557631669     -1.1272433123      0.8492506389
H       0.7573966107      1.7124664965     -1.1480639427
H       3.4047016643      0.2647276607     -0.9229801968
H       2.6303791003      1.4344891864     -2.0200428265
H      -0.0086618739     -1.3155798170      1.6456353104
H       1.8011772545     -0.9227727325      1.0040168724
H       0.7124766118     -2.0080891502      0.1150107908
12
Frame=949  time=475.000fs  energy=-306.16217393Ha  molecule=COOCCCHHHHHH
C       0.1372583785      0.2129307234      0.1519791821
O      -0.9064107608      0.7218960582      0.1663883735
O      -2.5587151560      0.7005342374      0.5543813333
C       1.2534808607      0.9698361278     -0.7429456193
C       2.4659062476      0.8393691203     -1.1000075837
C       0.7682085582     -1.1229785500      0.8413033339
H       0.7266879651      1.7130011696     -1.1549305097
H       3.4004083544      0.2794828475     -0.9192635194
H       2.6355123124      1.4441253287     -2.0060621129
H       0.0009487141     -1.3289673906      1.6547260865
H       1.8094512125     -0.9160488249      0.9999891887
H       0.7120296074     -2.0111122560      0.1097880257
12
Frame=950  time=475.500fs  energy=-306.16318786Ha  molecule=COOCCCHHHHHH
C       0.1352589995      0.2078464829      0.1538742336
O      -0.9074874849      0.7233592836      0.1647988709
O      -2.5682410136      0.6949458567      0.5522843650
C       1.2516731355      0.9703509199     -0.7362381336
C       2.4728673027      0.8433878732     -1.0967660007
C       0.7801812184     -1.1188536961      0.8333133692
H       0.6937556095      1.7194078700     -1.1658718253
H       3.3940105673      0.2938803214     -0.9144446614
H       2.6406296811      1.4540745233     -1.9897425340
H       0.0151704866     -1.3423988177      1.6623178285
H       1.8173184083     -0.9101010187      0.9989287585
H       0.7121933526     -2.0114945864      0.1056472339
12
Frame=951  time=476.000fs  energy=-306.16412254Ha  molecule=COOCCCHHHHHH
C       0.1346620933      0.2021119269      0.1556716122
O      -0.9096670818      0.7253415411      0.1632413600
O      -2.5775763791      0.6893149540      0.5501739857
C       1.2491223996      0.9704627892     -0.7290079283
C       2.4805812503      0.8475054928     -1.0941410264
C       0.7916309477     -1.1149311210      0.8253603636
H       0.6603808055      1.7298852337     -1.1799227215
H       3.3865250136      0.3071809858     -0.9082081227
H       2.6457700634      1.4648861733     -1.9718878120
H       0.0344175050     -1.3554744060      1.6677038507
H       1.8248141986     -0.9048978722      1.0006891142
H       0.7130939387     -2.0091049458      0.1025955097
12
Frame=952  time=476.500fs  energy=-306.16470616Ha  molecule=COOCCCHHHHHH
C       0.1353709659      0.1958433561      0.1573434011
O      -0.9128247631      0.7277693484      0.1617180358
O      -2.5867226025      0.6836445012      0.5480502880
C       1.2458421100      0.9703188881     -0.7214267961
C       2.4886930254      0.8517653483     -1.0920050961
C       0.8025258671     -1.1112571744      0.8175088068
H       0.6283510621      1.7422922837     -1.1956783775
H       3.3792937365      0.3184905297     -0.9001851274
H       2.6512077385      1.4771666565     -1.9535268389
H       0.0588038916     -1.3679164591      1.6704768096
H       1.8319672365     -0.9003337497      1.0050549215
H       0.7148282769     -2.0038824352      0.1005657356
12
Frame=953  time=477.000fs  energy=-306.16492268Ha  molecule=COOCCCHHHHHH
C       0.1372179874      0.1892007966      0.1588591071
O      -0.9167981039      0.7305334087      0.1602402169
O      -2.5956772671      0.6779374527      0.5459128169
C       1.2418824631      0.9700499311     -0.7136667533
C       2.4968252471      0.8562192657     -1.0902357332
C       0.8128461231     -1.1078581123      0.8098215996
H       0.5992950840      1.7546589631     -1.2117522717
H       3.3738013728      0.3268680318     -0.8899907482
H       2.6573521655      1.4914593597     -1.9356700527
H       0.0882049474     -1.3795424735      1.6704275923
H       1.8388121008     -0.8962449984      1.0117030400
H       0.7174801427     -1.9958869314      0.0993608672
12
Frame=954  time=477.500fs  energy=-306.16494366Ha  molecule=COOCCCHHHHHH
C       0.1399911936      0.1823671840      0.1601907530
O      -0.9214127246      0.7335024801      0.1588280534
O      -2.6044338119      0.6721952772      0.5437613855
C       1.2373135801      0.9697573207     -0.7058768935
C       2.5046485689      0.8609175759     -1.0887350773
C       0.8225822926     -1.1047417504      0.8023628581
H       0.5745956580      1.7654548906     -1.2270518757
H       3.3713142779      0.3315096623     -0.8772857005
H       2.6646021645      1.5081485849     -1.9190993313
H       0.1222523754     -1.3902459873      1.6675299152
H       1.8454418165     -0.8924400816      1.0202157536
H       0.7211319436     -1.9853015478      0.0986379666
12
Frame=955  time=478.000fs  energy=-306.16497059Ha  molecule=COOCCCHHHHHH
C       0.1434758802      0.1755231503      0.1613144352
O      -0.9265044753      0.7365442106      0.1575051992
O      -2.6129838837      0.6664175803      0.5415967827
C       1.2322065696      0.9695110333     -0.6981749932
C       2.5119258100      0.8658951820     -1.0874316391
C       0.8317398498     -1.1019027703      0.7951906973
H       0.5553537328      1.7736454461     -1.2408314953
H       3.3725217753      0.3319560308     -0.8618619821
H       2.6732786796      1.5274039085     -1.9042786616
H       0.1603036108     -1.3999883650      1.6619767564
H       1.8520203192     -0.8887330497      1.0301095634
H       0.7258852089     -1.9723849935      0.0979537658
12
Frame=956  time=478.500fs  energy=-306.16508639Ha  molecule=COOCCCHHHHHH
C       0.1474893220      0.1688262658      0.1622118485
O      -0.9319338634      0.7395442273      0.1562919631
O      -2.6213210699      0.6606027492      0.5394210290
C       1.2266294611      0.9693463103     -0.6906458310
C       2.5185213122      0.8711624764     -1.0862719421
C       0.8403480512     -1.0993244408      0.7883477206
H       0.5423299579      1.7786677955     -1.2526503538
H       3.3773553790      0.3282336903     -0.8437268221
H       2.6836168663      1.5491600442     -1.8913461972
H       0.2014376463     -1.4088002239      1.6542057584
H       1.8587369974     -0.8849716026      1.0408684353
H       0.7318629643     -1.9574371837      0.0968202887
12
Frame=957  time=479.000fs  energy=-306.16520775Ha  molecule=COOCCCHHHHHH
C       0.1518904822      0.1624053415      0.1628714520
O      -0.9375877288      0.7424130696      0.1552015250
O      -2.6294430383      0.6547490165      0.5372369620
C       1.2206485911      0.9692696348     -0.6833489862
C       2.5243903771      0.8767029598     -1.0852105336
C       0.8484677055     -1.0969756112      0.7818545676
H       0.5359457400      1.7802988657     -1.2622577731
H       3.3850033115      0.3208890992     -0.8231509804
H       2.6957678482      1.5731120400     -1.8801354463
H       0.2444825649     -1.4167957993      1.6449067571
H       1.8657453202     -0.8810445766      1.0519663168
H       0.7391878850     -1.9408122272      0.0947330115
12
Frame=958  time=479.500fs  energy=-306.16517551Ha  molecule=COOCCCHHHHHH
C       0.1565732989      0.1563649944      0.1632888351
O      -0.9433738620      0.7450839349      0.1542394552
O      -2.6373518502      0.6488552215      0.5350476354
C       1.2143293814      0.9692728422     -0.6763323679
C       2.5295571871      0.8824796239     -1.0842043800
C       0.8561917586     -1.0948077744      0.7757078630
H       0.5363495330      1.7784865953     -1.2694651989
H       3.3941194619      0.3108901921     -0.8006512267
H       2.7097771459      1.5987196081     -1.8702040387
H       0.2880831250     -1.4241958594      1.6350152576
H       1.8731090149     -0.8768745252      1.0628773483
H       0.7479612365     -1.9229499953      0.0911821247
12
Frame=959  time=480.000fs  energy=-306.16488913Ha  molecule=COOCCCHHHHHH
C       0.1614585217      0.1507914488      0.1634662671
O      -0.9492155347      0.7475087874      0.1534043083
O      -2.6450537304      0.6429210643      0.5328559871
C       1.2077356364      0.9693457346     -0.6696432239
C       2.5340860048      0.8884488068     -1.0832128185
C       0.8636388409     -1.0927549875      0.7698817843
H       0.5434867073      1.7732387833     -1.2740654585
H       3.4031823616      0.2994139579     -0.7769057680
H       2.7255421143      1.6252338194     -1.8608802645
H       0.3307962424     -1.4313508673      1.6256949309
H       1.8807608122     -0.8724069670      1.0730778921
H       0.7582576546     -1.9043946037      0.0856623679
12
Frame=960  time=480.500fs  energy=-306.16437823Ha  molecule=COOCCCHHHHHH
C       0.1664885287      0.1457573482      0.1634107521
O      -0.9550474627      0.7496556285      0.1526880765
O      -2.6525589111      0.6369470258      0.5306648292
C       1.2009295650      0.9694804610     -0.6633316043
C       2.5380577040      0.8945705934     -1.0821971925
C       0.8709414408     -1.0907380541      0.7643340688
H       0.5571208547      1.7646037963     -1.2758168935
H       3.4107928313      0.2876551505     -0.7526665315
H       2.7427905203      1.6517527711     -1.8513405747
H       0.3712017742     -1.4387430883      1.6182691908
H       1.8885077439     -0.8675959359      1.0820524705
H       0.7701270649     -1.8857908745      0.0776909169
12
Frame=961  time=481.000fs  energy=-306.16378723Ha  molecule=COOCCCHHHHHH
C       0.1716231382      0.1413268454      0.1631303650
O      -0.9608125250      0.7515056405      0.1520770709
O      -2.6598809815      0.6309341882      0.5284769075
C       1.1939760866      0.9696662905     -0.6574460376
C       2.5415557363      0.9008083065     -1.0811152135
C       0.8782258712     -1.0886771211      0.7590214230
H       0.5767950384      1.7527401376     -1.2744937280
H       3.4157852741      0.2767400727     -0.7287123809
H       2.7611125785      1.6773140082     -1.8407248363
H       0.4080601354     -1.4469178507      1.6140026729
H       1.8961082031     -0.8623837412      1.0893204676
H       0.7835975816     -1.8678431044      0.0668444455
12
Frame=962  time=481.500fs  energy=-306.16327812Ha  molecule=COOCCCHHHHHH
C       0.1768353506      0.1375605137      0.1626302150
O      -0.9664592843      0.7530486651      0.1515542717
O      -2.6670353088      0.6248840746      0.5262948361
C       1.1869522228      0.9698769882     -0.6520231016
C       2.5446541969      0.9071217763     -1.0799132056
C       0.8855881846     -1.0865117082      0.7539216684
H       0.6017624448      1.7380568417     -1.2700050437
H       3.4172409715      0.2676857493     -0.7058121167
H       2.7800316844      1.7010246735     -1.8282758823
H       0.4404817503     -1.4563426747      1.6137608671
H       1.9033797471     -0.8566803590      1.0944692706
H       0.7986871932     -1.8512211468      0.0528191116
12
Frame=963  time=482.000fs  energy=-306.16291193Ha  molecule=COOCCCHHHHHH
C       0.1821063288      0.1345167602      0.1619109125
O      -0.9719406012      0.7542777764      0.1511027380
O      -2.6740373440      0.6187984939      0.5241210214
C       1.1799578808      0.9700582329     -0.6470738836
C       2.5474070670      0.9134618218     -1.0785231421
C       0.8930781234     -1.0842184601      0.7490497017
H       0.6309400037      1.7213650594     -1.2625567264
H       3.4144900743      0.2613504853     -0.6846711853
H       2.7990736563      1.7221892078     -1.8134549464
H       0.4680140536     -1.4672685196      1.6177262150
H       1.9102674419     -0.8503565631      1.0971670011
H       0.8154254397     -1.8364368867      0.0355043182
12
Frame=964  time=482.500fs  energy=-306.16261254Ha  molecule=COOCCCHHHHHH
C       0.1874167819      0.1322455601      0.1609729642
O      -0.9772128705      0.7551856459      0.1507079546
O      -2.6809015761      0.6126794223      0.5219576713
C       1.1731205839      0.9701278509     -0.6425737897
C       2.5498432111      0.9197711573     -1.0768690640
C       0.9006969109     -1.0818178708      0.7444586535
H       0.6629531987      1.7039218674     -1.2527744821
H       3.4071323604      0.2583725749     -0.6658698492
H       2.8178057373      1.7403863494     -1.7959941969
H       0.4906174447     -1.4796573625      1.6253078594
H       1.9168475837     -0.8432677760      1.0971629500
H       0.8338726841     -1.8237515334      0.0150377374
12
Frame=965  time=483.000fs  energy=-306.16222854Ha  molecule=COOCCCHHHHHH
C       0.1927347610      0.1307760055      0.1598268190
O      -0.9822359096      0.7557651413      0.1503573384
O      -2.6876408677      0.6065289941      0.5198067279
C       1.1665939455      0.9699870710     -0.6384581952
C       2.5519660864      0.9259936847     -1.0748806438
C       0.9084069914     -1.0793674328      0.7402254259
H       0.6962401640      1.6873495045     -1.2417448903
H       3.3950938995      0.2591097770     -0.6498109389
H       2.8358545927      1.7554807485     -1.7758891035
H       0.5085639855     -1.4932021378      1.6352813119
H       1.9232860397     -0.8353016757      1.0942964244
H       0.8541230033     -1.8131658772     -0.0081907199
12
Frame=966  time=483.500fs  energy=-306.16166470Ha  molecule=COOCCCHHHHHH
C       0.1980093285      0.1301078871      0.1585005927
O      -0.9869748703      0.7560126228      0.1500384603
O      -2.6942659214      0.6003494774      0.5176696619
C       1.1605512104      0.9695271345     -0.6346261201
C       2.5537564071      0.9320850902     -1.0725034012
C       0.9161485878     -1.0769451237      0.7364257731
H       0.7291289592      1.6735173657     -1.2309454474
H       3.3786603398      0.2636225421     -0.6367005069
H       2.8529516170      1.7675854772     -1.7533582554
H       0.5223093796     -1.5074300557      1.6460986845
H       1.9297757158     -0.8264003840      1.0884973675
H       0.8762841137     -1.8044759525     -0.0335773047
12
Frame=967  time=484.000fs  energy=-306.16097656Ha  molecule=COOCCCHHHHHH
C       0.2031757386      0.1302155072      0.1570372423
O      -0.9914015685      0.7559283960      0.1497390670
O      -2.7007849328      0.5941431379      0.5155472233
C       1.1551636694      0.9686380758     -0.6309624252
C       2.5551793509      0.9380136545     -1.0696984351
C       0.9238581802     -1.0746328128      0.7331114984
H       0.7599443036      1.6643470100     -1.2219719338
H       3.3584237637      0.2717178329     -0.6265629496
H       2.8690005877      1.7770014554     -1.7287865691
H       0.5323813497     -1.5218321125      1.6562191739
H       1.9364703856     -0.8165354207      1.0797612212
H       0.9004389131     -1.7973193222     -0.0603537762
12
Frame=968  time=484.500fs  energy=-306.16035186Ha  molecule=COOCCCHHHHHH
C       0.2081647290      0.1310583712      0.1554835959
O      -0.9954922138      0.7555140989      0.1494486261
O      -2.7072039407      0.5879121388      0.5134393533
C       1.1505784347      0.9672211496     -0.6273594930
C       2.5561829786      0.9437588994     -1.0664403573
C       0.9314831796     -1.0725078397      0.7303004303
H       0.7871485261      1.6616297574     -1.2162937666
H       3.3352667690      0.2829551121     -0.6192374819
H       2.8840779431      1.7841611489     -1.7026605767
H       0.5393098297     -1.5359505831      1.6643159487
H       1.9434403859     -0.8056874974      1.0681401407
H       0.9266019045     -1.7911917091     -0.0876375997
12
Frame=969  time=485.000fs  energy=-306.15996035Ha  molecule=COOCCCHHHHHH
C       0.2129123482      0.1325888521      0.1538804291
O      -0.9992252952      0.7547718619      0.1491591849
O      -2.7135281914      0.5816585286      0.5113454522
C       1.1468955815      0.9652235418     -0.6237483604
C       2.5566795039      0.9493215013     -1.0627217092
C       0.9389873833     -1.0706393836      0.7279765182
H       0.8096716819      1.6665881136     -1.2148929743
H       3.3104809440      0.2965449599     -0.6143118062
H       2.8983558028      1.7895989501     -1.6755194785
H       0.5436103068     -1.5494086182      1.6693400737
H       1.9506602030     -0.7938544336      1.0537711861
H       0.9546782172     -1.7854927571     -0.1144775188
12
Frame=970  time=485.500fs  energy=-306.15976527Ha  molecule=COOCCCHHHHHH
C       0.2173674479      0.1347561076      0.1522575021
O      -1.0025816024      0.7537053045      0.1488649530
O      -2.7197627380      0.5753841976      0.5092646897
C       1.1441577420      0.9626768714     -0.6201321885
C       2.5565294629      0.9547357703     -1.0585586806
C       0.9463486806     -1.0690836695      0.7260938806
H       0.8271605426      1.6793688587     -1.2178604465
H       3.2858682779      0.3112654827     -0.6110682137
H       2.9120194400      1.7939233487     -1.6479156156
H       0.5457922983     -1.5619028188      1.6705229184
H       1.9580163536     -0.7810713181      1.0369162035
H       0.9844399346     -1.7796213895     -0.1399134388
12
Frame=971  time=486.000fs  energy=-306.15958267Ha  molecule=COOCCCHHHHHH
C       0.2214950685      0.1375091477      0.1506308987
O      -1.0055463570      0.7523198296      0.1485624210
O      -2.7259120496      0.5690906453      0.5071961510
C       1.1423669863      0.9596992363     -0.6165879793
C       2.5555457711      0.9600710437     -1.0539898832
C       0.9535544094     -1.0678814567      0.7245828529
H       0.8398974688      1.6989615573     -1.2243522750
H       3.2636098670      0.3255389106     -0.6085324355
H       2.9252436390      1.7977753103     -1.6203864158
H       0.5463625027     -1.5731815531      1.6673757823
H       1.9653224854     -0.7674201810      1.0179738153
H       1.0155370101     -1.7730497556     -0.1630496181
12
Frame=972  time=486.500fs  energy=-306.15930316Ha  molecule=COOCCCHHHHHH
C       0.2252754344      0.1408011761      0.1490016716
O      -1.0081117310      0.7506214992      0.1482514504
O      -2.7319800402      0.5627786094      0.5051390303
C       1.1415100430      0.9564706206     -0.6132444440
C       2.5535268868      0.9654125272     -1.0490622444
C       0.9605984497     -1.0670610347      0.7233574308
H       0.8485297640      1.7234739623     -1.2328432876
H       3.2458451385      0.3376997614     -0.6056519345
H       2.9382171097      1.8018029325     -1.5934566641
H       0.5458140360     -1.5830247978      1.6596758441
H       1.9723425366     -0.7530295074      0.9974500356
H       1.0475431986     -1.7653330515     -0.1831018914
12
Frame=973  time=487.000fs  energy=-306.15898896Ha  molecule=COOCCCHHHHHH
C       0.2286969039      0.1445921537      0.1473599146
O      -1.0102778055      0.7486150210      0.1479362430
O      -2.7379705159      0.5564478403      0.5030929218
C       1.1415693404      0.9532068439     -0.6102571547
C       2.5503176345      0.9708244647     -1.0438083896
C       0.9674800443     -1.0666411088      0.7223229040
H       0.8537854583      1.7505507709     -1.2414809893
H       3.2341573539      0.3464237431     -0.6016055623
H       2.9511385529      1.8066153525     -1.5676202761
H       0.5445965834     -1.5912403462      1.6474303462
H       1.9788312381     -0.7380942270      0.9759393468
H       1.0800120676     -1.7561061815     -0.1994226806
12
Frame=974  time=487.500fs  energy=-306.15878218Ha  molecule=COOCCCHHHHHH
C       0.2317467952      0.1488462865      0.1456932727
O      -1.0120524766      0.7463016602      0.1476259180
O      -2.7438870442      0.5500973318      0.5010578826
C       1.1425195054      0.9501353292     -0.6077839648
C       2.5458612385      0.9763207694     -1.0382305982
C       0.9742014720     -1.0666272058      0.7213812257
H       0.8563145389      1.7778253636     -1.2484705931
H       3.2292862151      0.3511209516     -0.5961137177
H       2.9641630160      1.8126846087     -1.5432735547
H       0.5430778346     -1.5976860765      1.6308399108
H       1.9845915893     -0.7229186719      0.9541605494
H       1.1125130322     -1.7451100186     -0.2115313585
12
Frame=975  time=488.000fs  energy=-306.15876609Ha  molecule=COOCCCHHHHHH
C       0.2344067915      0.1535284664      0.1439923704
O      -1.0134491278      0.7436784891      0.1473336453
O      -2.7497323481      0.5437259422      0.4990341838
C       1.1443222240      0.9474651825     -0.6059568782
C       2.5402140590      0.9818613559     -1.0323000531
C       0.9807633259     -1.0670050260      0.7204350596
H       0.8566459440      1.8033264279     -1.2524241770
H       3.2311268436      0.3520703658     -0.5895562398
H       2.9773363362      1.8202578803     -1.5206570845
H       0.5415162471     -1.6023042152      1.6102775030
H       1.9895435383     -0.7079316365      0.9329931156
H       1.1446496091     -1.7322299515     -0.2191599740
12
Frame=976  time=488.500fs  energy=-306.15889173Ha  molecule=COOCCCHHHHHH
C       0.2366548153      0.1586027584      0.1422511750
O      -1.0144806125      0.7407398664      0.1470734799
O      -2.7555085230      0.5373328843      0.4970221418
C       1.1469220980      0.9453663107     -0.6048653636
C       2.5335342828      0.9873678091     -1.0259662684
C       0.9871600551     -1.0677355426      0.7193908615
H       0.8551979768      1.8256493967     -1.2524816237
H       3.2388449933      0.3502924761     -0.5828654840
H       2.9905374200      1.8293178593     -1.4998407487
H       0.5400416199     -1.6051587867      1.5863019065
H       1.9937851278     -0.6936297711      0.9134384491
H       1.1760726331     -1.7175289714     -0.2223035763
12
Frame=977  time=489.000fs  energy=-306.15903690Ha  molecule=COOCCCHHHHHH
C       0.2384711260      0.1640327082      0.1404651213
O      -1.0151532978      0.7374799278      0.1468569150
O      -2.7612180645      0.5309177938      0.4950221556
C       1.1502452952      0.9439688219     -0.6045599880
C       2.5260564392      0.9927479958     -1.0191702724
C       0.9933794033     -1.0687518243      0.7181580616
H       0.8523010819      1.8438385765     -1.2481726465
H       3.2510492848      0.3472409395     -0.5772600731
H       3.0034564723      1.8395977111     -1.4807550935
H       0.5386251464     -1.6064876345      1.5597195450
H       1.9976124513     -0.6804646072      0.8965012218
H       1.2064925853     -1.7012656718     -0.2212496363
12
Frame=978  time=489.500fs  energy=-306.15912506Ha  molecule=COOCCCHHHHHH
C       0.2398446047      0.1697833337      0.1386289937
O      -1.0154648202      0.7338947981      0.1466909726
O      -2.7668648079      0.5244805966      0.4930347622
C       1.1542018386      0.9433696007     -0.6050620690
C       2.5180575371      0.9979224090     -1.0118597161
C       0.9994066886     -1.0699594148      0.7166477012
H       0.8482019588      1.8572039295     -1.2392337996
H       3.2660472050      0.3444181438     -0.5739209458
H       3.0156212651      1.8506390629     -1.4632483690
H       0.5370531199     -1.6067475299      1.5316305549
H       2.0014743661     -0.6687378456      0.8830442548
H       1.2356944249     -1.6838886599     -0.2165629160
12
Frame=979  time=490.000fs  energy=-306.15918722Ha  molecule=COOCCCHHHHHH
C       0.2407759374      0.1758244809      0.1367348554
O      -1.0154051109      0.7299842966      0.1465777050
O      -2.7724543404      0.5180214169      0.4910606162
C       1.1586858308      0.9436375666     -0.6063693980
C       2.5098295077      1.0028419549     -1.0040022149
C       1.0052297635     -1.0712455705      0.7147806085
H       0.8430603238      1.8652099474     -1.2255009855
H       3.2821075302      0.3430882340     -0.5737560576
H       3.0264439443      1.8618588234     -1.4471329571
H       0.5349647344     -1.6065856600      1.5033282767
H       2.0058707949     -0.6585648749      0.8736891129
H       1.2635469942     -1.6660004327     -0.2090192520
12
Frame=980  time=490.500fs  energy=-306.15933856Ha  molecule=COOCCCHHHHHH
C       0.2412775278      0.1821327651      0.1347705982
O      -1.0149579094      0.7257530703      0.1465143121
O      -2.7779941304      0.5115405534      0.4891004734
C       1.1635720732      0.9448150191     -0.6084563028
C       2.5016651698      1.0074926133     -0.9955939884
C       1.0108407881     -1.0724941762      0.7125018492
H       0.8369467394      1.8674591842     -1.2068888431
H       3.2976342340      0.3441611675     -0.5773097308
H       3.0352729007      1.8726123811     -1.4322084887
H       0.5319611229     -1.6067359445      1.4760758138
H       2.0112410517     -0.6499130130      0.8687985861
H       1.2899955476     -1.6482881479     -0.1995055657
12
Frame=981  time=491.000fs  energy=-306.15969347Ha  molecule=COOCCCHHHHHH
C       0.2413722720      0.1886886905      0.1327206444
O      -1.0141007347      0.7212111177      0.1464932618
O      -2.7834939109      0.5050384706      0.4871552733
C       1.1687123402      0.9469107372     -0.6112667713
C       2.4938499269      1.0118914074     -0.9866642861
C       1.0162394422     -1.0735923633      0.7097820377
H       0.8298264827      1.8637939985     -1.1834569881
H       3.3112681571      0.3481670214     -0.5847528562
H       3.0414634368      1.8822721392     -1.4182780138
H       0.5276734654     -1.6079507421      1.4509926340
H       2.0178876874     -0.6426626700      0.8685207512
H       1.3150389004     -1.6314500991     -0.1889343091
12
Frame=982  time=491.500fs  energy=-306.16026093Ha  molecule=COOCCCHHHHHH
C       0.2410918570      0.1954688430      0.1305703553
O      -1.0128042666      0.7163737108      0.1465024741
O      -2.7889664275      0.4985158008      0.4852262697
C       1.1739360514      0.9498796058     -0.6146990261
C       2.4866535233      1.0160791227     -0.9772760592
C       1.0214367704     -1.0744290582      0.7066099611
H       0.8215130522      1.8545638137     -1.1555793666
H       3.3219581002      0.3552582581     -0.5959056477
H       3.0444689953      1.8903256637     -1.4051715735
H       0.5217732448     -1.6109539883      1.4290459177
H       2.0259369411     -0.6366390398      0.8728412464
H       1.3387096168     -1.6161720419     -0.1782168672
12
Frame=983  time=492.000fs  energy=-306.16086661Ha  molecule=COOCCCHHHHHH
C       0.2404728785      0.2024352819      0.1283149878
O      -1.0110348459      0.7112602066      0.1465267836
O      -2.7944279543      0.4919733887      0.4833150321
C       1.1790619865      0.9535915648     -0.6185878076
C       2.4803207227      1.0201149859     -0.9675234118
C       1.0264486601     -1.0749004394      0.7030000852
H       0.8116051339      1.8410225956     -1.1241796692
H       3.3290244282      0.3652326726     -0.6102884241
H       3.0439311475      1.8964663713     -1.3927755297
H       0.5140578406     -1.6162755904      1.4109021849
H       2.0353048986     -0.6316103878      0.8816070859
H       1.3610750436     -1.6031626289     -0.1682843741
12
Frame=984  time=492.500fs  energy=-306.16123620Ha  molecule=COOCCCHHHHHH
C       0.2395486720      0.2095269983      0.1259706393
O      -1.0087624176      0.7058914392      0.1465514973
O      -2.7998976333      0.4854123596      0.4814231952
C       1.1839246340      0.9578164000     -0.6227068667
C       2.4750570942      1.0240762684     -0.9575259784
C       1.0312825693     -1.0749229436      0.6990085745
H       0.7994566857      1.8255585198     -1.0908271179
H       3.3322430757      0.3775590746     -0.6271920950
H       3.0397314295      1.9006456348     -1.3810538665
H       0.5046012895     -1.6240297116      1.3966909649
H       2.0456611664     -0.6272877692      0.8945516439
H       1.3822434303     -1.5931997957     -0.1600999041
12
Frame=985  time=493.000fs  energy=-306.16128490Ha  molecule=COOCCCHHHHHH
C       0.2383409331      0.2166627788      0.1235768300
O      -1.0059674986      0.7002869322      0.1465656929
O      -2.8053953403      0.4788340484      0.4795521359
C       1.1884013212      0.9622646468     -0.6268131975
C       2.4710105529      1.0280562701     -0.9474172314
C       1.0359352988     -1.0744415290      0.6947315322
H       0.7842282829      1.8113153807     -1.0574287393
H       3.3319336575      0.3913910935     -0.6457576789
H       3.0319354598      1.9030689669     -1.3700413587
H       0.4937926680     -1.6338614060      1.3859680360
H       2.0564282452     -0.6233842810      0.9113702869
H       1.4023424179     -1.5871099767     -0.1546016474
12
Frame=986  time=493.500fs  energy=-306.16125854Ha  molecule=COOCCCHHHHHH
C       0.2368620914      0.2237582679      0.1211813421
O      -1.0026392871      0.6944633180      0.1465628100
O      -2.8109388825      0.4722396526      0.4777029053
C       1.1924139894      0.9666773104     -0.6307111180
C       2.4682609735      1.0321493998     -0.9373228332
C       1.0404088300     -1.0734278378      0.6902783352
H       0.7650811794      1.8012501189     -1.0256396656
H       3.3289017738      0.4056351686     -0.6650923153
H       3.0206305512      1.9041595929     -1.3598228859
H       0.4821771640     -1.6451439297      1.3779711862
H       2.0668245613     -0.6197588374      0.9317972647
H       1.4214720565     -1.5856020587     -0.1525341934
12
Frame=987  time=494.000fs  energy=-306.16146573Ha  molecule=COOCCCHHHHHH
C       0.2351278096      0.2307452123      0.1188183239
O      -0.9987731588      0.6884343088      0.1465403711
O      -2.8165418787      0.4656298077      0.4758763705
C       1.1959049828      0.9708960263     -0.6342856684
C       2.4668184525      1.0364331609     -0.9273396598
C       1.0447306312     -1.0718811526      0.6857415569
H       0.7415294594      1.7972906404     -0.9964764637
H       3.3241796504      0.4190979501     -0.6843966252
H       3.0058703142      1.9045424008     -1.3505432586
H       0.4702581560     -1.6572292428      1.3719252482
H       2.0759029536     -0.6165646512      0.9555596944
H       1.4396717443     -1.5889896923     -0.1541874915
12
Frame=988  time=494.500fs  energy=-306.16196587Ha  molecule=COOCCCHHHHHH
C       0.2331668759      0.2375813198      0.1164985551
O      -0.9943752759      0.6822129091      0.1464993939
O      -2.8222138214      0.4590045322      0.4740732772
C       1.1988087621      0.9748761258     -0.6374940635
C       2.4666270095      1.0409642149     -0.9175322721
C       1.0489580977     -1.0698440987      0.6811891894
H       0.7137004867      1.8000450464     -0.9702951145
H       3.3188086302      0.4305981049     -0.7029994174
H       2.9878034804      1.9050307883     -1.3424281197
H       0.4584724639     -1.6694860457      1.3671088308
H       2.0826099425     -0.6142703013      0.9822261241
H       1.4569102701     -1.5970134863     -0.1592054425
12
Frame=989  time=495.000fs  energy=-306.16258544Ha  molecule=COOCCCHHHHHH
C       0.2310202857      0.2442477463      0.1142145600
O      -0.9894664180      0.6758134535      0.1464433030
O      -2.8279612045      0.4523637079      0.4722940326
C       1.2010430391      0.9786696940     -0.6403454765
C       2.4675766217      1.0457788667     -0.9079376784
C       1.0531638326     -1.0674154517      0.6766750422
H       0.6823252242      1.8089238230     -0.9469302707
H       3.3137726393      0.4390069360     -0.7203192140
H       2.9667599056      1.9065988996     -1.3357826267
H       0.4472926052     -1.6811709535      1.3627400855
H       2.0859216262     -0.6135047379      1.0111241134
H       1.4730651521     -1.6089211484     -0.1666380602
12
Frame=990  time=495.500fs  energy=-306.16313864Ha  molecule=COOCCCHHHHHH
C       0.2287317007      0.2507382706      0.1119514751
O      -0.9840798556      0.6692508324      0.1463777416
O      -2.8337882993      0.4457076828      0.4705384092
C       1.2025248569      0.9824035856     -0.6428863870
C       2.4695159138      1.0508927559     -0.8985684429
C       1.0574179932     -1.0647407248      0.6722451659
H       0.6485890734      1.8224255883     -0.9258719091
H       3.3099895777      0.4432788833     -0.7358426837
H       2.9431981288      1.9103127743     -1.3309547733
H       0.4372517982     -1.6913859553      1.3579442973
H       2.0850180350     -0.6148247568      1.0414184847
H       1.4878932837     -1.6237047654     -0.1752048264
12
Frame=991  time=496.000fs  energy=-306.16358418Ha  molecule=COOCCCHHHHHH
C       0.2263395228      0.2570465041      0.1096966281
O      -0.9782569344      0.6625400853      0.1463100355
O      -2.8396982472      0.4390374192      0.4688056022
C       1.2031922950      0.9862542207     -0.6451867387
C       2.4722666004      1.0563044929     -0.8894185906
C       1.0617778276     -1.0619854351      0.6679359720
H       0.6139808956      1.8384765499     -0.9064581835
H       3.3082584320      0.4425489398     -0.7491595678
H       2.9175988780      1.9171781289     -1.3282590416
H       0.4288507965     -1.6992052274      1.3518730646
H       2.0794041683     -0.6185647492      1.0722853368
H       1.5010490634     -1.6403139122     -0.1836151761
12
Frame=992  time=496.500fs  energy=-306.16402737Ha  molecule=COOCCCHHHHHH
C       0.2238755484      0.2631567705      0.1074445705
O      -0.9720438329      0.6556982340      0.1462473577
O      -2.8456943136      0.4323540952      0.4670946275
C       1.2030171562      0.9904177299     -0.6473229272
C       2.4756458545      1.0619988896     -0.8804728712
C       1.0662801219     -1.0593078013      0.6637750412
H       0.5801635561      1.8548014752     -0.8880672417
H       3.3091002229      0.4363083731     -0.7600275924
H       2.8903765791      1.9279631904     -1.3278967000
H       0.4224636302     -1.7038492919      1.3438405595
H       2.0689421530     -0.6248328258      1.1030634827
H       1.5121802288     -1.6577770934     -0.1908182985
12
Frame=993  time=497.000fs  energy=-306.16461242Ha  molecule=COOCCCHHHHHH
C       0.2213676175      0.2690441433      0.1051952810
O      -0.9654913153      0.6487448066      0.1461960404
O      -2.8517798971      0.4256586057      0.4654046483
C       1.2020134264      0.9950711965     -0.6493594309
C       2.4794967693      1.0679455079     -0.8717163922
C       1.0709348597     -1.0568439137      0.6597868799
H       0.5487407804      1.8693778138     -0.8702794871
H       3.3125452672      0.4245830318     -0.7684133787
H       2.8618497261      1.9430727936     -1.3299082431
H       0.4183150074     -1.7047823631      1.3333750319
H       2.0538146216     -0.6335811833      1.1333275330
H       1.5210390121     -1.6752389409     -0.1961176500
12
Frame=994  time=497.500fs  energy=-306.16535171Ha  molecule=COOCCCHHHHHH
C       0.2188466810      0.2746802811      0.1029480587
O      -0.9586590727      0.6416996258      0.1461634688
O      -2.8579579936      0.4189512869      0.4637351125
C       1.2002377290      1.0003397512     -0.6513351884
C       2.4837209960      1.0740962705     -0.8631445484
C       1.0757240972     -1.0547047776      0.6559946536
H       0.5209905426      1.8808142183     -0.8529550772
H       3.3179616212      0.4080751561     -0.7744880939
H       2.8322683993      1.9624345747     -1.3341356498
H       0.4164891430     -1.7017366083      1.3202152932
H       2.0344668830     -0.6446526129      1.1628912713
H       1.5275370256     -1.6919406990     -0.1991595478
12
Frame=995  time=498.000fs  energy=-306.16603804Ha  molecule=COOCCCHHHHHH
C       0.2163617555      0.2800378526      0.1006949773
O      -0.9516233596      0.6345805583      0.1461609648
O      -2.8642322510      0.4122318078      0.4620859299
C       1.1977755725      1.0062874767     -0.6532585664
C       2.4882911507      1.0803931418     -0.8547731622
C       1.0806064850     -1.0529745704      0.6524123318
H       0.4977872743      1.8884329280     -0.8362108667
H       3.3240557751      0.3882127969     -0.7785778327
H       2.8018741864      1.9853504821     -1.3401636744
H       0.4168880792     -1.6947447853      1.3043387828
H       2.0115875821     -0.6577709064      1.1917640733
H       1.5317453561     -1.7071996796     -0.1998651544
12
Frame=996  time=498.500fs  energy=-306.16636970Ha  molecule=COOCCCHHHHHH
C       0.2139980602      0.2850931009      0.0984155919
O      -0.9444825801      0.6274035189      0.1462052784
O      -2.8706096167      0.4054991699      0.4604576947
C       1.1947252057      1.0129270454     -0.6551110527
C       2.4932218811      1.0867923985     -0.8466440906
C       1.0855244599     -1.0517051751      0.6490333599
H       0.4796813717      1.8920919027     -0.8203262504
H       3.3291948544      0.3669418108     -0.7810754754
H       2.7709699164      2.0104350585     -1.3472878127
H       0.4191268838     -1.6842025656      1.2860345029
H       1.9861260847     -0.6725114874      1.2200842275
H       1.5338765890     -1.7204285415     -0.1983693667
12
Frame=997  time=499.000fs  energy=-306.16617063Ha  molecule=COOCCCHHHHHH
C       0.2118858677      0.2898290443      0.0960749587
O      -0.9373556003      0.6201846785      0.1463173052
O      -2.8771026384      0.3987518558      0.4588517731
C       1.1911935984      1.0202320333     -0.6568564275
C       2.4985150303      1.0932870457     -0.8388187759
C       1.0904134614     -1.0509122794      0.6458279368
H       0.4669421433      1.8919641667     -0.8056321106
H       3.3319354498      0.3462540586     -0.7823528238
H       2.7399736771      2.0358507437     -1.3546078002
H       0.4224705223     -1.6708818539      1.2659287203
H       1.9592442497     -0.6883226417      1.2480501019
H       1.5342661311     -1.7311794839     -0.1949756780
12
Frame=998  time=499.500fs  energy=-306.16547045Ha  molecule=COOCCCHHHHHH
C       0.2101944631      0.2942387702      0.0936265274
O      -0.9303721975      0.6129429644      0.1465184408
O      -2.8837298482      0.3919880016      0.4572702356
C       1.1873003113      1.0281435943     -0.6584497968
C       2.5041145860      1.0999072761     -0.8313603005
C       1.0952159438     -1.0505760346      0.6427520713
H       0.4595135329      1.8884453614     -0.7924461654
H       3.3314566385      0.3277128256     -0.7827248576
H       2.7094332716      2.0597756893     -1.3612327190
H       0.4258977698     -1.6558468756      1.2449063494
H       1.9321268013     -0.7046362085      1.2758625848
H       1.5333449687     -1.7391770700     -0.1901049219
12
Frame=999  time=500.000fs  energy=-306.16442223Ha  molecule=COOCCCHHHHHH
C       0.2091162341      0.2983252426      0.0910187699
O      -0.9236594502      0.6057012617      0.1468262022
O      -2.8905138105      0.3852054783      0.4557156736
C       1.1831745559      1.0365733552     -0.6598427800
C       2.5098966101      1.1067048888     -0.8243157061
C       1.0998992656     -1.0506446885      0.6397592120
H       0.4569676482      1.8821935020     -0.7810724767
H       3.3276822426      0.3122481914     -0.7824714612
H       2.6799939831      2.0807611199     -1.3664553678
H       0.4282466172     -1.6403180523      1.2239780505
H       1.9057342506     -0.7210160433      1.3036879578
H       1.5315822304     -1.7443219926     -0.1842236755
12
Frame=1000  time=500.500fs  energy=-306.16320018Ha  molecule=COOCCCHHHHHH
C       0.2088499778      0.3020932855      0.0882037206
O      -0.9173302167      0.5984873557      0.1472504304
O      -2.8974779176      0.3784019120      0.4541909590
C       1.1789451094      1.0454063114     -0.6609844281
C       2.5156908224      1.1137346174     -0.8177078310
C       1.1044669280     -1.0510451524      0.6368075628
H       0.4584866199      1.8742119536     -0.7718303479
H       3.3211236430      0.3002041732     -0.7818528955
H       2.6523462050      2.0978838743     -1.3698447344
H       0.4283668156     -1.6255141941      1.2041342518
H       1.8806589775     -0.7372433660      1.3316386503
H       1.5293984837     -1.7466520241     -0.1777533763
12
Frame=1001  time=501.000fs  energy=-306.16193851Ha  molecule=COOCCCHHHHHH
C       0.2095908229      0.3055359270      0.0851454451
O      -0.9114786590      0.5913359519      0.1477909064
O      -2.9046438582      0.3715746600      0.4526990785
C       1.1747367626      1.0545046529     -0.6618209986
C       2.5213055383      1.1210396333     -0.8115353063
C       1.1089518985     -1.0517029105      0.6338671612
H       0.4628558977      1.8658834434     -0.7650633859
H       3.3126279013      0.2914774760     -0.7810861013
H       2.6272127567      2.1107809959     -1.3712793019
H       0.4252452501     -1.6124886527      1.1861923147
H       1.8571643702     -0.7532659750      1.3597288969
H       1.5271060690     -1.7462685497     -0.1710020017
12
Frame=1002  time=501.500fs  energy=-306.16075039Ha  molecule=COOCCCHHHHHH
C       0.2115251806      0.3086262104      0.0818247390
O      -0.9061817459      0.5842895434      0.1484374925
O      -2.9120307805      0.3647208353      0.4512430155
C       1.1706752187      1.0637119858     -0.6622986514
C       2.5265438547      1.1286450947     -0.8057770744
C       1.1133935155     -1.0525626246      0.6309316561
H       0.4684920624      1.8588986036     -0.7610978769
H       3.3031375166      0.2856996744     -0.7803180750
H       2.6053902582      2.1195745664     -1.3709193912
H       0.4181137387     -1.6019981002      1.1706606049
H       1.8353340430     -0.7690624608      1.3878034786
H       1.5249178415     -1.7432836119     -0.1641635102
12
Frame=1003  time=502.000fs  energy=-306.15979207Ha  molecule=COOCCCHHHHHH
C       0.2148213139      0.3113231293      0.0782374721
O      -0.9015005489      0.5773937996      0.1491736601
O      -2.9196553357      0.3578375884      0.4498254798
C       1.1668849450      1.0728627706     -0.6623690789
C       2.5312204649      1.1365594656     -0.8004000135
C       1.1178086184     -1.0535989974      0.6280304953
H       0.4736030042      1.8550438157     -0.7601701746
H       3.2935119015      0.2824108674     -0.7796221592
H       2.5877595840      2.1247402468     -1.3691371512
H       0.4065884673     -1.5944093148      1.1576399977
H       1.8151950260     -0.7845566634      1.4155230906
H       1.5229953324     -1.7378294441     -0.1573703242
12
Frame=1004  time=502.500fs  energy=-306.15925359Ha  molecule=COOCCCHHHHHH
C       0.2196108831      0.3135855346      0.0743899580
O      -0.8974775714      0.5706871953      0.1499823756
O      -2.9275305342      0.3509226877      0.4484484192
C       1.1634708226      1.0818074310     -0.6619950130
C       2.5351833023      1.1447775832     -0.7953678013
C       1.1221692303     -1.0548145882      0.6252326313
H       0.4765496603      1.8558544602     -0.7623880914
H       3.2844131998      0.2811881165     -0.7790124580
H       2.5751981042      2.1269626732     -1.3664206676
H       0.3908097153     -1.5896542890      1.1467927135
H       1.7967600179     -0.7996257887      1.4424326698
H       1.5214930301     -1.7301044398     -0.1507539711
12
Frame=1005  time=503.000fs  energy=-306.15926444Ha  molecule=COOCCCHHHHHH
C       0.2259680756      0.3153802817      0.0702974691
O      -0.8941322842      0.5641902178      0.1508516622
O      -2.9356629441      0.3439751407      0.4471125317
C       1.1604998650      1.0904475169     -0.6611536193
C       2.5383278402      1.1532797836     -0.7906477957
C       1.1263966882     -1.0562265739      0.6226388167
H       0.4762450928      1.8623144007     -0.7677758183
H       3.2762451751      0.2817345992     -0.7784613412
H       2.5684454552      2.1269778452     -1.3632621138
H       0.3714560908     -1.5872885078      1.1374183378
H       1.7800274309     -0.8141346194      1.4680385392
H       1.5205911266     -1.7204136653     -0.1444962777
12
Frame=1006  time=503.500fs  energy=-306.15982899Ha  molecule=COOCCCHHHHHH
C       0.2338945780      0.3166821602      0.0659864766
O      -0.8914571432      0.5578992623      0.1517776362
O      -2.9440505202      0.3369955402      0.4458170367
C       1.1579983778      1.0987602322     -0.6598389112
C       2.5405959174      1.1620296781     -0.7862144203
C       1.1303725828     -1.0578478683      0.6203686517
H       0.4723643122      1.8747699597     -0.7763588963
H       3.2691608436      0.2839138747     -0.7779104004
H       2.5680084569      2.1254445094     -1.3600628389
H       0.3495878462     -1.5866573178      1.1286196750
H       1.7649823348     -0.8279472086      1.4918482505
H       1.5205277509     -1.7092089711     -0.1388818406
12
Frame=1007  time=504.000fs  energy=-306.16082109Ha  molecule=COOCCCHHHHHH
C       0.2433116355      0.3174738031      0.0614967243
O      -0.8894140893      0.5517862171      0.1527645088
O      -2.9526830682      0.3299860073      0.4445597467
C       1.1559549827      1.1068084468     -0.6580661878
C       2.5419687470      1.1709751143     -0.7820499909
C       1.1339582292     -1.0596700256      0.6185495921
H       0.4654057982      1.8929194523     -0.7881866102
H       3.2631182874      0.2877272486     -0.7772742788
H       2.5741071507      2.1228918797     -1.3570830490
H       0.3264059114     -1.5870924136      1.1194826141
H       1.7516042854     -0.8409244679      1.5133861895
H       1.5216304486     -1.6971354433     -0.1343497550
12
Frame=1008  time=504.500fs  energy=-306.16201849Ha  molecule=COOCCCHHHHHH
C       0.2540597076      0.3177506117      0.0568803550
O      -0.8879331885      0.5458027021      0.1538221969
O      -2.9615454727      0.3229498034      0.4433373998
C       1.1543231051      1.1147401155     -0.6558797669
C       2.5424625850      1.1800526607     -0.7781434908
C       1.1370142941     -1.0616564155      0.6173083563
H       0.4566808774      1.9157435906     -0.8032426942
H       3.2579412928      0.2932635782     -0.7764427471
H       2.5866404119      2.1197411377     -1.3544419378
H       0.3030461373     -1.5880531364      1.1092071361
H       1.7398726215     -0.8529250279      1.5322118980
H       1.5243228386     -1.6850386078     -0.1315070371
12
Frame=1009  time=505.000fs  energy=-306.16321572Ha  molecule=COOCCCHHHHHH
C       0.2659113525      0.3175256005      0.0521983100
O      -0.8869171241      0.5398879912      0.1549625923
O      -2.9706222559      0.3158907859      0.4421462119
C       1.1530357150      1.1227692813     -0.6533599420
C       2.5421219016      1.1891940254     -0.7744872400
C       1.1394176859     -1.0637517982      0.6167584068
H       0.4481006543      1.9415442041     -0.8213073540
H       3.2533713068      0.3006444043     -0.7752850178
H       2.6052097251      2.1163582025     -1.3521595070
H       0.2804688112     -1.5891759661      1.0971797661
H       1.7297637988     -0.8638146963      1.5479548607
H       1.5290696782     -1.6738529613     -0.1310419347
12
Frame=1010  time=505.500fs  energy=-306.16434909Ha  molecule=COOCCCHHHHHH
C       0.2785986124      0.3168246520      0.0475165689
O      -0.8862517198      0.5339785454      0.1561958105
O      -2.9799006526      0.3088129365      0.4409824385
C       1.1520353353      1.1311376512     -0.6506209119
C       2.5410041269      1.1983315129     -0.7710731472
C       1.1410750952     -1.0659036386      0.6169810179
H       0.4417304670      1.9682626750     -0.8419036773
H       3.2491125102      0.3099807097     -0.7736530871
H       2.6292226072      2.1130855148     -1.3502079771
H       0.2594315951     -1.5902448571      1.0830028877
H       1.7212421851     -0.8734822462      1.5603425504
H       1.5362625231     -1.6643632689     -0.1335284500
12
Frame=1011  time=506.000fs  energy=-306.16549574Ha  molecule=COOCCCHHHHHH
C       0.2918445070      0.3156730025      0.0429034329
O      -0.8858173265      0.5280161212      0.1575274136
O      -2.9893704742      0.3017201131      0.4398426887
C       1.1512966444      1.1400731505     -0.6477955891
C       2.5391631800      1.2074023626     -0.7678921512
C       1.1419306891     -1.0680808200      0.6180074209
H       0.4393790689      1.9939371188     -0.8643862037
H       3.2448769227      0.3213396231     -0.7713797629
H       2.6580002907      2.1102382932     -1.3485365799
H       0.2405084408     -1.5911288974      1.0664922341
H       1.7142510412     -0.8818586667      1.5691984990
H       1.5461063956     -1.6569663491     -0.1392139322
12
Frame=1012  time=506.500fs  energy=-306.16676005Ha  molecule=COOCCCHHHHHH
C       0.3053871086      0.3140842742      0.0384267600
O      -0.8854971339      0.5219529312      0.1589568442
O      -2.9990221224      0.2946159746      0.4387239976
C       1.1508266316      1.1497591554     -0.6450136353
C       2.5366438470      1.2163547453     -0.7649378969
C       1.1419677294     -1.0702810995      0.6198081998
H       0.4424001985      2.0170566360     -0.8880938748
H       3.2404349586      0.3346987882     -0.7682727120
H       2.6908217211      2.1080909797     -1.3470682499
H       0.2241187207     -1.5917406602      1.0476598094
H       1.7087117500     -0.8889326070      1.5744298109
H       1.5585546811     -1.6515583316     -0.1478807676
12
Frame=1013  time=507.000fs  energy=-306.16817597Ha  molecule=COOCCCHHHHHH
C       0.3189926198      0.3120587224      0.0341507485
O      -0.8851831034      0.5157538279      0.1604773648
O      -3.0088451758      0.2875039358      0.4376238250
C       1.1506493029      1.1603235961     -0.6423857848
C       2.5334887897      1.2251556075     -0.7622116755
C       1.1412059943     -1.0725273369      0.6222922609
H       0.4516787651      2.0366576594     -0.9124450818
H       3.2356556413      0.3498960732     -0.7641116991
H       2.7269246730      2.1068581951     -1.3456849953
H       0.2105414336     -1.5920373934      1.0266952106
H       1.7045344814     -0.8947485140      1.5760301995
H       1.5733020818     -1.6475839773     -0.1588293940
12
Frame=1014  time=507.500fs  energy=-306.16970325Ha  molecule=COOCCCHHHHHH
C       0.3324592629      0.3095889959      0.0301325144
O      -0.8847800839      0.5093958855      0.1620775456
O      -3.0188284975      0.2803870894      0.4365400505
C       1.1507905543      1.1718470137     -0.6400007932
C       2.5297494829      1.2337982317     -0.7597257185
C       1.1396938450     -1.0748540793      0.6253198929
H       0.4676992389      2.0521922159     -0.9369296163
H       3.2305211841      0.3666101154     -0.7586566471
H       2.7655062393      2.1066490710     -1.3442073130
H       0.1999156013     -1.5920472563      1.0039359968
H       1.7016370048     -0.8993818897      1.5740978655
H       1.5898471149     -1.6442450463     -0.1710226452
12
Frame=1015  time=508.000fs  energy=-306.17126422Ha  molecule=COOCCCHHHHHH
C       0.3456154486      0.3066701790      0.0264179627
O      -0.8842066541      0.5028665113      0.1637431498
O      -3.0289612588      0.2732680969      0.4354709519
C       1.1512729593      1.1843748292     -0.6379290234
C       2.5254925425      1.2423064728     -0.7575035655
C       1.1374965781     -1.0772920042      0.6287248584
H       0.4905931507      2.0633450776     -0.9610490327
H       3.2251243719      0.3843823284     -0.7516669199
H       2.8057271174      2.1074068629     -1.3423749326
H       0.1922458758     -1.5918895621      0.9798239786
H       1.6999631655     -0.9029067825      1.5688555183
H       1.6075958002     -1.6407613518     -0.1833181708
12
Frame=1016  time=508.500fs  energy=-306.17275027Ha  molecule=COOCCCHHHHHH
C       0.3583164805      0.3033108022      0.0230369670
O      -0.8833932610      0.4961613494      0.1654582805
O      -3.0392338906      0.2661490525      0.4344151673
C       1.1521203306      1.1979179138     -0.6362226234
C       2.5208000491      1.2507321557     -0.7555767871
C       1.1346893112     -1.0798605783      0.6323297246
H       0.5201109760      2.0699825361     -0.9842970610
H       3.2196574932      0.4026634835     -0.7429241146
H       2.8467140933      2.1088852514     -1.3398516059
H       0.1874159645     -1.5917800826      0.9548674605
H       1.6994932183     -0.9053778722      1.5606612811
H       1.6259259847     -1.6365140807     -0.1946133755
12
Frame=1017  time=509.000fs  energy=-306.17399379Ha  molecule=COOCCCHHHHHH
C       0.3704433054      0.2995407500      0.0199995856
O      -0.8822801987      0.4892824309      0.1672058478
O      -3.0496384139      0.2590313579      0.4333716531
C       1.1533662169      1.2124341381     -0.6349067347
C       2.5157701382      1.2591451356     -0.7539786377
C       1.1313566028     -1.0825676026      0.6359520655
H       0.5555022434      2.0723316757     -1.0062496372
H       3.2143802356      0.4208682982     -0.7322492503
H       2.8875767137      2.1106943633     -1.3362688939
H       0.1851948110     -1.5920326650      0.9296188485
H       1.7002446224     -0.9068303129      1.5499998669
H       1.6441999948     -1.6310541928     -0.2038791621
12
Frame=1018  time=509.500fs  energy=-306.17473790Ha  molecule=COOCCCHHHHHH
C       0.3819026946      0.2954141377      0.0172953359
O      -0.8808163361      0.4822365636      0.1689679024
O      -3.0601682881      0.2519157158      0.4323396193
C       1.1550605382      1.2277955186     -0.6339631260
C       2.5105271746      1.2676208001     -0.7527374774
C       1.1275920027     -1.0854088694      0.6394116822
H       0.5953097355      2.0713481616     -1.0267683942
H       3.2095477119      0.4384350526     -0.7195132788
H       2.9274519191      2.1123832438     -1.3312868976
H       0.1852304354     -1.5930593571      0.9046585602
H       1.7022670404     -0.9072834483      1.5374573351
H       1.6617892175     -1.6240807480     -0.2101989372
12
Frame=1019  time=510.000fs  energy=-306.17471699Ha  molecule=COOCCCHHHHHH
C       0.3926243578      0.2910079069      0.0148960547
O      -0.8789584560      0.4750334541      0.1707265557
O      -3.0708184342      0.2448023335      0.4313184214
C       1.1572708039      1.2437660250     -0.6333164546
C       2.5052429571      1.2762310615     -0.7518731396
C       1.1234923311     -1.0883674181      0.6425425226
H       0.6371888178      2.0690125877     -1.0462243969
H       3.2053074953      0.4548955021     -0.7046519172
H       2.9655577768      2.1134857874     -1.3246248556
H       0.1870380056     -1.5953655919      0.8805812210
H       1.7056399921     -0.9067424485      1.5237053862
H       1.6781435313     -1.6154500331     -0.2128659623
12
Frame=1020  time=510.500fs  energy=-306.17391920Ha  molecule=COOCCCHHHHHH
C       0.4025537952      0.2864153035      0.0127619836
O      -0.8766721780      0.4676828887      0.1724660528
O      -3.0815857129      0.2376911985      0.4303074573
C       1.1600665265      1.2600353707     -0.6328438497
C       2.5001532583      1.2850399630     -0.7513962340
C       1.1191472510     -1.0914134259      0.6452069917
H       0.6780741968      2.0680797176     -1.0655165883
H       3.2016192362      0.4699389427     -0.6876903063
H       3.0012287969      2.1135091013     -1.3160463888
H       0.1899984294     -1.5995401855      0.8579778949
H       1.7104767311     -0.9052108249      1.5094983475
H       1.6928874408     -1.6052082287     -0.2115026230
12
Frame=1021  time=511.000fs  energy=-306.17272498Ha  molecule=COOCCCHHHHHH
C       0.4116462094      0.2817328292      0.0108504018
O      -0.8739327017      0.4601923703      0.1741744000
O      -3.0924688293      0.2305821714      0.4293061318
C       1.1634810435      1.2763059328     -0.6324131419
C       2.4955496237      1.2940995941     -0.7513073174
C       1.1146300568     -1.0945034231      0.6473091229
H       0.7148078093      2.0712565588     -1.0857608713
H       3.1982658087      0.4834209993     -0.6687489795
H       3.0339224368      2.1119379881     -1.3053486130
H       0.1934057744     -1.6062177320      0.8373927990
H       1.7169073731     -0.9027171666      1.4956187792
H       1.7058892782     -1.5935985507     -0.2061180174
12
Frame=1022  time=511.500fs  energy=-306.17172158Ha  molecule=COOCCCHHHHHH
C       0.4198662504      0.2770454287      0.0091233957
O      -0.8707222692      0.4525662656      0.1758431192
O      -3.1034666946      0.2234750385      0.4283138203
C       1.1674851671      1.2923556665     -0.6319165332
C       2.4917351328      1.3034407422     -0.7515932687
C       1.1099970411     -1.0975801351      0.6487980632
H       0.7448030098      2.0805649504     -1.1079358591
H       3.1949712929      0.4953081079     -0.6480033470
H       3.0632089720      2.1083387699     -1.2924141606
H       0.1965741793     -1.6159855831      0.8192617668
H       1.7250126631     -0.8993316041      1.4827526969
H       1.7172339314     -1.5809996748     -0.1970359887
12
Frame=1023  time=512.000fs  energy=-306.17135275Ha  molecule=COOCCCHHHHHH
C       0.4271947190      0.2724173565      0.0075518843
O      -0.8670281488      0.4448054273      0.1774665084
O      -3.1145759471      0.2163697346      0.4273297903
C       1.1719893136      1.3080644512     -0.6312913087
C       2.4889522040      1.3130580616     -0.7522225176
C       1.1052950671     -1.1005764825      0.6496593931
H       0.7665900599      2.0969929119     -1.1325926405
H       3.1915185977      0.5056189191     -0.6256096890
H       3.0887838293      2.1025500356     -1.2773093279
H       0.1989665206     -1.6292593290      0.8038696785
H       1.7347351744     -0.8951530318      1.4713820230
H       1.7271010185     -1.5678247985     -0.1847527122
12
Frame=1024  time=512.500fs  energy=-306.17161113Ha  molecule=COOCCCHHHHHH
C       0.4336360028      0.2678910053      0.0061174605
O      -0.8628427017      0.4369077206      0.1790406700
O      -3.1257893934      0.2092665163      0.4263531925
C       1.1768612652      1.3234229053     -0.6305377728
C       2.4873262675      1.3228948218     -0.7531422621
C       1.1005687707     -1.1034217762      0.6499027579
H       0.7801061972      2.1202778391     -1.1595866138
H       3.1877767250      0.5144074726     -0.6016373952
H       3.1105006908      2.0948724688     -1.2603642516
H       0.2003034495     -1.6461911613      0.7913479564
H       1.7458158029     -0.8902790693      1.4617500183
H       1.7356303365     -1.5544461268     -0.1698337723
12
Frame=1025  time=513.000fs  energy=-306.17205213Ha  molecule=COOCCCHHHHHH
C       0.4392175127      0.2634931936      0.0048119265
O      -0.8581622844      0.4288695284      0.1805620663
O      -3.1370968931      0.2021658391      0.4253832076
C       1.1819415958      1.3385267917     -0.6297306413
C       2.4868623840      1.3328378009     -0.7542773627
C       1.0958593605     -1.1060469737      0.6495547446
H       0.7865708395      2.1488558674     -1.1879026674
H       3.1836757201      0.5217892090     -0.5760730371
H       3.1284069472      2.0861395238     -1.2421927799
H       0.2006063469     -1.6666493643      0.7817081412
H       1.7577880809     -0.8847930923      1.4538891418
H       1.7428731068     -1.5411811124     -0.1528928815
12
Frame=1026  time=513.500fs  energy=-306.17218439Ha  molecule=COOCCCHHHHHH
C       0.4439806381      0.2592462726      0.0036320423
O      -0.8529860588      0.4206876892      0.1820265163
O      -3.1484880477      0.1950680570      0.4244192434
C       1.1870607316      1.3535388817     -0.6290007072
C       2.4874879756      1.3427345890     -0.7555324299
C       1.0911949961     -1.1083924323      0.6486607431
H       0.7879142520      2.1802485868     -1.2158414911
H       3.1791814736      0.5279867914     -0.5489213524
H       3.1427754758      2.0775642375     -1.2236216997
H       0.2001507573     -1.6902607767      0.7748866201
H       1.7700443690     -0.8787811465      1.4476832603
H       1.7488708352     -1.5283301406     -0.1346227091
12
Frame=1027  time=514.000fs  energy=-306.17180628Ha  molecule=COOCCCHHHHHH
C       0.4479714554      0.2551731048      0.0025740712
O      -0.8473163013      0.4123614468      0.1834287911
O      -3.1599537777      0.1879732686      0.4234609431
C       1.1920621479      1.3686305305     -0.6284899292
C       2.4890984919      1.3524209791     -0.7568000841
C       1.0865817780     -1.1104153135      0.6472872456
H       0.7861132472      2.2117734945     -1.2415242735
H       3.1742635870      0.5333552850     -0.5202969290
H       3.1541098574      2.0704891341     -1.2055684088
H       0.1993778714     -1.7164617357      0.7707759469
H       1.7819289667     -0.8723571741      1.4429298225
H       1.7537693630     -1.5162156776     -0.1158071822
12
Frame=1028  time=514.500fs  energy=-306.17102112Ha  molecule=COOCCCHHHHHH
C       0.4512348338      0.2512937847      0.0016329440
O      -0.8411582820      0.4038930968      0.1847625913
O      -3.1714862467      0.1808813713      0.4225080348
C       1.1968196395      1.3839368289     -0.6283129050
C       2.4915830195      1.3617382522     -0.7579715150
C       1.0820031537     -1.1120896273      0.6455184824
H       0.7827919871      2.2411230517     -1.2633332850
H       3.1688641358      0.5383620446     -0.4904315239
H       3.1631051573      2.0662291012     -1.1889417132
H       0.1988328860     -1.7445098452      0.7692308743
H       1.7927848052     -0.8656784609      1.4393761280
H       1.7578666884     -1.5051999452     -0.0972955622
12
Frame=1029  time=515.000fs  energy=-306.17008945Ha  molecule=COOCCCHHHHHH
C       0.4538102667      0.2476225313      0.0008036806
O      -0.8345195429      0.3952869208      0.1860212735
O      -3.1830786442      0.1737921388      0.4215602396
C       1.2012448105      1.3995327469     -0.6285392348
C       2.4948363793      1.3705456528     -0.7589457469
C       1.0774272069     -1.1134011475      0.6434506736
H       0.7790869384      2.2666619173     -1.2801354071
H       3.1628975192      0.5435313740     -0.4596420055
H       3.1705523610      2.0659554000     -1.1745544971
H       0.1991275702     -1.7734898797      0.7700571809
H       1.8019573818     -0.8589426632      1.4367429439
H       1.7615917209     -1.4956801445     -0.0799690220
12
Frame=1030  time=515.500fs  energy=-306.16929386Ha  molecule=COOCCCHHHHHH
C       0.4557300309      0.2441673132      0.0000825068
O      -0.8274099617      0.3865479235      0.1871988819
O      -3.1947251236      0.1667052502      0.4206172803
C       1.2052869122      1.4154337275     -0.6291963786
C       2.4987667373      1.3787339876     -0.7596375550
C       1.0728180809     -1.1143430354      0.6411845557
H       0.7756873739      2.2874378133     -1.2912952974
H       3.1562704178      0.5493831488     -0.4282967974
H       3.1771834040      2.0705516611     -1.1630267779
H       0.2008875767     -1.8023707240      0.7730070932
H       1.8088077174     -0.8523655661      1.4347573417
H       1.7654356240     -1.4880564675     -0.0646986011
12
Frame=1031  time=516.000fs  energy=-306.16886471Ha  molecule=COOCCCHHHHHH
C       0.4570206480      0.2409301627     -0.0005326567
O      -0.8198428676      0.3776816405      0.1882906984
O      -3.2064206794      0.1596203416      0.4196789178
C       1.2089268094      1.4316148373     -0.6302844389
C       2.5033020584      1.3862363223     -0.7599829468
C       1.0681485979     -1.1149148460      0.6388147010
H       0.7729602776      2.3030106816     -1.2965563442
H       3.1488997792      0.5563845492     -0.3967856974
H       3.1835087364      2.0804850582     -1.1547103041
H       0.2046745829     -1.8301187623      0.7777954470
H       1.8127556060     -0.8461497873      1.4331859173
H       1.7698488998     -1.4826710826     -0.0522656396
12
Frame=1032  time=516.500fs  energy=-306.16893441Ha  molecule=COOCCCHHHHHH
C       0.4577066016      0.2379073137     -0.0010421677
O      -0.8118368079      0.3686948101      0.1892933161
O      -3.2181609257      0.1525371086      0.4187449730
C       1.2121703513      1.4480313627     -0.6317902543
C       2.5083929996      1.3930336308     -0.7599416594
C       1.0634117164     -1.1151242450      0.6364172603
H       0.7710680122      2.3132709932     -1.2959113785
H       3.1407295399      0.5649132621     -0.3654928879
H       3.1897100778      2.0957362577     -1.1496584262
H       0.2109098520     -1.8558222044      0.7841302272
H       1.8133313725     -0.8404565777      1.4318484558
H       1.7751271649     -1.4797297125     -0.0432504226
12
Frame=1033  time=517.000fs  energy=-306.16949768Ha  molecule=COOCCCHHHHHH
C       0.4578146191      0.2350884280     -0.0014443844
O      -0.8034177224      0.3595961855      0.1902046386
O      -3.2299417995      0.1454554064      0.4178153261
C       1.2150460555      1.4646284831     -0.6336931842
C       2.5140096517      1.3991562918     -0.7594974476
C       1.0586281437     -1.1149889975      0.6340403081
H       0.7700299861      2.3183618086     -1.2895482532
H       3.1317527378      0.5752281128     -0.3347733048
H       3.1956111767      2.1157914038     -1.1476356507
H       0.2198293636     -1.8787739879      0.7917415672
H       1.8102082193     -0.8353878646      1.4306096297
H       1.7813236280     -1.4792360088     -0.0379372698
12
Frame=1034  time=517.500fs  energy=-306.17040061Ha  molecule=COOCCCHHHHHH
C       0.4573776326      0.2324537943     -0.0017344697
O      -0.7946214464      0.3503971256      0.1910239907
O      -3.2417592476      0.1383752832      0.4168898986
C       1.2176070916      1.4813389220     -0.6359623904
C       2.5201317169      1.4046807110     -0.7586563145
C       1.0538479571     -1.1145371663      0.6316998154
H       0.7697331081      2.3187149391     -1.2778788813
H       3.1220359560      0.5874507720     -0.3049322062
H       3.2007334571      2.1397052202     -1.1481645758
H       0.2314778890     -1.8984900184      0.8003973469
H       1.8032093711     -0.8309788617      1.4293633859
H       1.7882189687     -1.4809676166     -0.0362801751
12
Frame=1035  time=518.000fs  energy=-306.17138355Ha  molecule=COOCCCHHHHHH
C       0.4564381993      0.2299694268     -0.0019024270
O      -0.7854964409      0.3411119620      0.1917522679
O      -3.2536089761      0.1312969358      0.4159686215
C       1.2199339475      1.4980749344     -0.6385497052
C       2.5267348553      1.4097192240     -0.7574422841
C       1.0491456757     -1.1138050755      0.6293815144
H       0.7699219034      2.3151419150     -1.2616081834
H       3.1117340330      0.6015655210     -0.2762088541
H       3.2044293968      2.1662482344     -1.1506136372
H       0.2457298881     -1.9146759703      0.8099037100
H       1.7923028481     -0.8271978427      1.4280264378
H       1.7953557209     -1.4845027294     -0.0379393050
12
Frame=1036  time=518.500fs  energy=-306.17216369Ha  molecule=COOCCCHHHHHH
C       0.4550513702      0.2275824643     -0.0019316058
O      -0.7761063936      0.3317580284      0.1923920449
O      -3.2654863195      0.1242206342      0.4150513987
C       1.2221339475      1.5147235628     -0.6413841611
C       2.5337792988      1.4144051894     -0.7558915844
C       1.0446102737     -1.1128335576      0.6270467336
H       0.7701957663      2.3088866142     -1.2417744112
H       3.1010894872      0.6174410670     -0.2487687869
H       3.2060425526      2.1940975961     -1.1543038775
H       0.2623175199     -1.9271780730      0.8200967224
H       1.7775992545     -0.8239503375      1.4265510422
H       1.8021212253     -1.4892853609     -0.0423690510
12
Frame=1037  time=519.000fs  energy=-306.17251668Ha  molecule=COOCCCHHHHHH
C       0.4532868616      0.2252211355     -0.0017993204
O      -0.7665317876      0.3223549442      0.1929477178
O      -3.2773862825      0.1171466638      0.4141380795
C       1.2243372783      1.5311481116     -0.6443715662
C       2.5412062678      1.4188796553     -0.7540475130
C       1.0403334423     -1.1116631754      0.6246393035
H       0.7699998278      2.3015958268     -1.2197272595
H       3.0904273380      0.6348646474     -0.2227060804
H       3.2050237660      2.2219810478     -1.1585875979
H       0.2808483154     -1.9359510518      0.8308323699
H       1.7593605082     -0.8210850012      1.4249576827
H       1.8078489456     -1.4947030956     -0.0489246693
12
Frame=1038  time=519.500fs  energy=-306.17234635Ha  molecule=COOCCCHHHHHH
C       0.4512294692      0.2228017056     -0.0014801112
O      -0.7568688757      0.3129230977      0.1934256494
O      -3.2893037501      0.1100752944      0.4132284480
C       1.2266908804      1.5471920458     -0.6473987986
C       2.5489424756      1.4232841471     -0.7519578101
C       1.0363993627     -1.1103297912      0.6220914361
H       0.7685916894      2.2952307782     -1.1970518231
H       3.0801515195      0.6535650244     -0.1980438171
H       3.2009772896      2.2487310603     -1.1628760359
H       0.3008089722     -1.9410533393      0.8419786836
H       1.7380180277     -0.8183959072      1.4233760655
H       1.8119103282     -1.5001497717     -0.0569567592
12
Frame=1039  time=520.000fs  energy=-306.17174266Ha  molecule=COOCCCHHHHHH
C       0.4489765121      0.2202389333     -0.0009501389
O      -0.7472253638      0.3034823324      0.1938338898
O      -3.3012337462      0.1030067574      0.4123222379
C       1.2293468090      1.5626900067     -0.6503460668
C       2.5569069755      1.4277574729     -0.7496743096
C       1.0328773357     -1.1088624131      0.6193284143
H       0.7650694337      2.2918713870     -1.1753961094
H       3.0707314398      0.6732183546     -0.1747243552
H       3.1936667715      2.2732965151     -1.1666410136
H       0.3215717726     -1.9426533932      0.8534103717
H       1.7141879296     -0.8156206440      1.4220759013
H       1.8137835963     -1.5050651204     -0.0658746373
12
Frame=1040  time=520.500fs  energy=-306.17096222Ha  molecule=COOCCCHHHHHH
C       0.4466339101      0.2174532336     -0.0001902345
O      -0.7377153369      0.2940513334      0.1941815859
O      -3.3131715545      0.0959412429      0.4114191665
C       1.2324441676      1.5774945380     -0.6531086444
C       2.5650113971      1.4324298222     -0.7472516881
C       1.0298175986     -1.1072835853      0.6162729151
H       0.7585506056      2.2933669883     -1.1561935566
H       3.0626726860      0.6934600379     -0.1526062506
H       3.1830380580      2.2947858996     -1.1694292658
H       0.3424231789     -1.9410233868      0.8650038384
H       1.6886606716     -0.8124448513      1.4214714692
H       1.8130934738     -1.5089613850     -0.0751743846
12
Frame=1041  time=521.000fs  energy=-306.17028966Ha  molecule=COOCCCHHHHHH
C       0.4443137633      0.2143745692      0.0008121493
O      -0.7284558405      0.2846465585      0.1944790795
O      -3.3251126490      0.0888789702      0.4105189533
C       1.2360909515      1.5915087204     -0.6556198344
C       2.5731548648      1.4374119826     -0.7447423708
C       1.0272510989     -1.1056095711      0.6128497397
H       0.7484243191      2.3009508759     -1.1403877759
H       3.0564631172      0.7139109319     -0.1314829344
H       3.1692690933      2.3125541258     -1.1708998940
H       0.3626065667     -1.9365220436      0.8766337820
H       1.6623505986     -0.8085196804      1.4220854099
H       1.8096238920     -1.5114393382     -0.0844403921
12
Frame=1042  time=521.500fs  energy=-306.16988360Ha  molecule=COOCCCHHHHHH
C       0.4421336850      0.2109470949      0.0020606195
O      -0.7195646497      0.2752803749      0.1947388966
O      -3.3370525073      0.0818203126      0.4096212964
C       1.2403532910      1.6047004622     -0.6578605261
C       2.5812241057      1.4427846440     -0.7421888828
C       1.0251933844     -1.1038466544      0.6089920803
H       0.7345042569      2.3150510290     -1.1283187968
H       3.0524992430      0.7342085890     -0.1111213597
H       3.1527942625      2.3262800518     -1.1708635860
H       0.3813446042     -1.9295973885      0.8881765203
H       1.6362152591     -0.8034874005      1.4244641254
H       1.8033226850     -1.5121940702     -0.0933395979
12
Frame=1043  time=522.000fs  energy=-306.16971560Ha  molecule=COOCCCHHHHHH
C       0.4402142037      0.2071332670      0.0035486087
O      -0.7111568992      0.2659595410      0.1949763938
O      -3.3489864558      0.0747658735      0.4087258287
C       1.2452499502      1.6171008252     -0.6598555993
C       2.5890989904      1.4485911726     -0.7396173067
C       1.0236512708     -1.1019833734      0.6046506284
H       0.7170818065      2.3352863945     -1.1197623184
H       3.0510374643      0.7540345923     -0.0913071065
H       3.1342861808      2.3360093346     -1.1693067306
H       0.3978254222     -1.9208210675      0.8995219147
H       1.6111617262     -0.7970170117      1.4290568829
H       1.7943180133     -1.5110240805     -0.1016282634
12
Frame=1044  time=522.500fs  energy=-306.16961056Ha  molecule=COOCCCHHHHHH
C       0.4386706915      0.2029153552      0.0052608067
O      -0.7033387800      0.2566853359      0.1952087962
O      -3.3609096948      0.0677164310      0.4078320988
C       1.2507505627      1.6287970756     -0.6616635159
C       2.5966589256      1.4548348832     -0.7370345466
C       1.0226292188     -1.0999838758      0.5998053959
H       0.6969218212      2.3605521582     -1.1140491823
H       3.0521908939      0.7731287864     -0.0718776527
H       3.1146096312      2.3421661420     -1.1663965108
H       0.4111929192     -1.9109105634      0.9105882694
H       1.5879486850     -0.7888562761      1.4360825659
H       1.7829448489     -1.5078513273     -0.1091747725
