12
Lattice="20.0 0.0 0.0 0.0 20.0 0.0 0.0 0.0 20.0" Properties=species:S:1:pos:R:3:REF_forces:R:3 REF_energy=-8332.253641926698 pbc="F F F"
C        0.00475169       0.02928901       0.00096741       0.20761538      -0.04459266      -0.01375582
O        1.28414818      -0.12777159       0.00010682      -0.09466984       0.14526849      -0.00018903
O        2.12046044       0.94586659      -0.00029759      -0.13048068      -0.12703538       0.00433360
C       -0.68910120       1.28848411      -0.01225176       0.00828686       0.06937515       0.15813644
C       -0.14593546       2.52636191       0.03837708       0.05893023       0.07465215      -0.54143004
C       -0.74614992      -1.26962700      -0.00045670      -0.00509777       0.00590543       0.00561030
H       -1.77306019       1.18612461       0.00142092       0.00385022      -0.00343462      -0.00331296
H        0.92470893       2.66386108      -0.16130460      -0.12803002      -0.03550695       0.19910015
H       -0.80060280       3.39484027      -0.15702174       0.05686588      -0.11306701       0.19356724
H       -0.04815587      -2.10926621       0.00107223      -0.00170145       0.00793382      -0.00097048
H       -1.39122048      -1.34255568       0.88400376       0.01113522       0.00769667      -0.00765181
H       -1.39384332      -1.34760710      -0.88254766       0.01377525       0.01306444       0.00618309
12
Lattice="20.0 0.0 0.0 0.0 20.0 0.0 0.0 0.0 20.0" Properties=species:S:1:pos:R:3:REF_forces:R:3 REF_energy=-8332.400615938352 pbc="F F F"
C        0.00744553       0.02814326      -0.00000003       0.18084387      -0.02491261      -0.00000005
O        1.28512865      -0.12076928       0.00000005      -0.12001252       0.02119064      -0.00000026
O        2.11642489       0.94009633       0.00000001      -0.06063604      -0.02283956       0.00000012
C       -0.69047635       1.28921912      -0.00000025       0.08028421       0.08472742       0.00000239
C       -0.14602407       2.52828736       0.00000023      -0.01843796      -0.16870146      -0.00000301
C       -0.74213678      -1.27339205       0.00000002      -0.05231953       0.04693678       0.00000017
H       -1.76930153       1.18693043       0.00000089      -0.04563543      -0.00490189      -0.00000106
H        0.92188707       2.66206253      -0.00000035       0.04074252       0.00022196       0.00000040
H       -0.79207980       3.39412905      -0.00000134      -0.04928311       0.04415755       0.00000143
H       -0.06777049      -2.13249239       0.00000008       0.01430473       0.03450897       0.00000008
H       -1.39444791      -1.32898636       0.88072877       0.01503824      -0.00764503      -0.00500076
H       -1.39444799      -1.32898668      -0.88072865       0.01503829      -0.00764470       0.00500070
12
Lattice="20.0 0.0 0.0 0.0 20.0 0.0 0.0 0.0 20.0" Properties=species:S:1:pos:R:3:REF_forces:R:3 REF_energy=-8332.367989831651 pbc="F F F"
C        0.01159472       0.05097870       0.00000000       0.08619508      -0.47428693      -0.00000000
O        1.27972130      -0.13229025      -0.00000000       0.01721424       0.25956021       0.00000000
O        2.12012649       0.94730340       0.00000000      -0.11601311      -0.15475289       0.00000000
C       -0.68801885       1.29117925       0.00000000      -0.01912900       0.03232579      -0.00000000
C       -0.14360095       2.52171230      -0.00000000      -0.07315971       0.01640144       0.00000000
C       -0.74677859      -1.27767734       0.00000000       0.00297892       0.15776940       0.00000000
H       -1.76787041       1.15355702       0.00000000      -0.00012446       0.05538404      -0.00000000
H        0.92651324       2.66178723       0.00000000       0.00383036      -0.00163837      -0.00000000
H       -0.81795712       3.37460197       0.00000000       0.03004770       0.02355426      -0.00000000
H       -0.06536013      -2.13126534      -0.00000000       0.02711798       0.04432192      -0.00000000
H       -1.39835006      -1.35180363       0.87990033       0.02093389       0.02088385      -0.00041052
H       -1.39835006      -1.35180363      -0.87990033       0.02093389       0.02088385       0.00041052
12
Lattice="20.0 0.0 0.0 0.0 20.0 0.0 0.0 0.0 20.0" Properties=species:S:1:pos:R:3:REF_forces:R:3 REF_energy=-8332.371057835171 pbc="F F F"
C        0.00477295       0.02926569      -0.00000001       0.00000000       0.00000000       0.00000000
O        1.28416606      -0.12776279      -0.00000000       0.00000000       0.00000000       0.00000000
O        2.12044958       0.94586145      -0.00000000       0.00000000       0.00000000       0.00000000
C       -0.69049464       1.28838691       0.00000001       0.00000000       0.00000000       0.00000000
C       -0.14571767       2.52568343       0.00000000       0.00000000       0.00000000       0.00000000
C       -0.74401863      -1.27134566      -0.00000004       0.00000000       0.00000000       0.00000000
H       -1.75647244       1.18763396       0.00000005       0.00000000       0.00000000       0.00000000
H        0.92801028       2.66420330      -0.00000003       0.00000000       0.00000000       0.00000000
H       -0.80651376       3.40260736      -0.00000001       0.00000000       0.00000000       0.00000000
H       -0.06613066      -2.08762947       0.00000000       0.00000000       0.00000000       0.00000000
H       -1.39641002      -1.34573740       0.88919897       0.00000000       0.00000000       0.00000000
H       -1.39640964      -1.34573730      -0.88919850       0.00000000       0.00000000       0.00000000
12
Lattice="20.0 0.0 0.0 0.0 20.0 0.0 0.0 0.0 20.0" Properties=species:S:1:pos:R:3:REF_forces:R:3 REF_energy=-8332.260290389584 pbc="F F F"
C        0.00475169       0.02928901       0.00089999       0.21943198      -0.03982678      -0.00897214
O        1.28414818      -0.12777159      -0.00284899      -0.10096108       0.13196835       0.04571563
O        2.12046044       0.94586659       0.00105663      -0.12725714      -0.11490016      -0.01747054
C       -0.68910120       1.28848411       0.02222356      -0.16893396       0.03988207      -0.32081815
C       -0.14593546       2.52636191      -0.00286356       0.01367781      -0.03833982       0.03849811
C       -0.74614992      -1.26962700       0.00271417      -0.00494197       0.00587864      -0.03537271
H       -1.77306019       1.18612461      -0.20712685       0.16307299       0.01827540       0.25776210
H        0.92470893       2.66386108      -0.10607430      -0.03073804      -0.00660935       0.11755449
H       -0.80060280       3.39484027       0.07763439       0.01336683      -0.02569283      -0.08777117
H       -0.04815587      -2.10926621      -0.00472020      -0.00131573       0.00823658       0.00511199
H       -1.39817015      -1.35177747       0.88075976       0.01831102       0.01840012      -0.00465762
H       -1.38689365      -1.33838531      -0.88579166       0.00642175       0.00328813       0.01042056
12
Lattice="20.0 0.0 0.0 0.0 20.0 0.0 0.0 0.0 20.0" Properties=species:S:1:pos:R:3:REF_forces:R:3 REF_energy=-8332.374167566208 pbc="F F F"
C        0.00917323       0.03516905      -0.00000000       0.15569897      -0.12282012       0.00000000
O        1.29415401      -0.11628422       0.00000000      -0.29865384      -0.09162839       0.00000000
O        2.11328292       0.93665206      -0.00000000       0.01861931       0.06844750      -0.00000000
C       -0.68352378       1.28566364       0.00000000      -0.07150364       0.12329876      -0.00000000
C       -0.15020499       2.52711730      -0.00000000       0.03713502      -0.08889536       0.00000000
C       -0.75928055      -1.26923577       0.00000000       0.17470103      -0.00722712      -0.00000000
H       -1.76484369       1.15611278       0.00000000      -0.00167994       0.03616623       0.00000000
H        0.92427784       2.63672370       0.00000000       0.00371014       0.02718009       0.00000000
H       -0.78280724       3.41159963       0.00000000      -0.01954467      -0.03088944       0.00000000
H       -0.02703294      -2.08168851      -0.00000000      -0.03143066      -0.02024115       0.00000000
H       -1.39423291      -1.38177491       0.88821425       0.01709267       0.05334157      -0.01569969
H       -1.39423291      -1.38177491      -0.88821425       0.01709267       0.05334157       0.01569969
12
Lattice="20.0 0.0 0.0 0.0 20.0 0.0 0.0 0.0 20.0" Properties=species:S:1:pos:R:3:REF_forces:R:3 REF_energy=-8332.40184834232 pbc="F F F"
C        0.00743947       0.02815931       0.00000123       0.18161468      -0.02687066      -0.00028237
O        1.28513072      -0.12076902       0.00000104      -0.12035507       0.02109796      -0.00013155
O        2.11642056       0.94009711       0.00000047      -0.05991050      -0.02294514      -0.00006618
C       -0.69004154       1.28930715      -0.00000106       0.02434286       0.07299198       0.00008922
C       -0.14597012       2.52773035       0.00000001      -0.02555553      -0.09655032       0.00001891
C       -0.74212165      -1.27339939       0.00041883      -0.05378392       0.04796020      -0.05024934
H       -1.77407150       1.18650155       0.00000593       0.00578206      -0.00022770      -0.00004689
H        0.92507047       2.66244803       0.00000155       0.00674362      -0.00378219      -0.00002695
H       -0.79620570       3.39959670      -0.00000196      -0.00489848      -0.01525157       0.00000400
H       -0.06785019      -2.13241505       0.00008147       0.01513718       0.03367230      -0.00069501
H       -1.39256643      -1.32880332       0.87825405      -0.00425043      -0.00911282       0.02016900
H       -1.39643386      -1.32920284      -0.88335806       0.03500383      -0.00589164       0.03125647
12
Lattice="20.0 0.0 0.0 0.0 20.0 0.0 0.0 0.0 20.0" Properties=species:S:1:pos:R:3:REF_forces:R:3 REF_energy=-8332.358098267054 pbc="F F F"
C       -0.00659949       0.03542221      -0.00000001       0.00000000       0.00000000       0.00000000
O        1.29045484      -0.12917357      -0.00000002       0.00000000       0.00000000       0.00000000
O        2.12047922       0.94599787       0.00000003       0.00000000       0.00000000       0.00000000
C       -0.68609974       1.28446450      -0.00000002       0.00000000       0.00000000       0.00000000
C       -0.14734502       2.52573079      -0.00000003       0.00000000       0.00000000       0.00000000
C       -0.74311257      -1.27412770      -0.00000034       0.00000000       0.00000000       0.00000000
H       -1.77022821       1.18420208       0.00000003       0.00000000       0.00000000       0.00000000
H        0.92218782       2.67022614       0.00000024       0.00000000       0.00000000       0.00000000
H       -0.78946540       3.40359668       0.00000003       0.00000000       0.00000000       0.00000000
H       -0.03048576      -2.10028412       0.00000374       0.00000000       0.00000000       0.00000000
H       -1.41724137      -1.32810571       0.86565074       0.00000000       0.00000000       0.00000000
H       -1.41724327      -1.32810184      -0.86565020       0.00000000       0.00000000       0.00000000
12
Lattice="20.0 0.0 0.0 0.0 20.0 0.0 0.0 0.0 20.0" Properties=species:S:1:pos:R:3:REF_forces:R:3 REF_energy=-8332.288251450578 pbc="F F F"
C        0.01063958       0.03660935       0.00000028       0.00000000       0.00000000       0.00000000
O        1.28164969      -0.12815728      -0.00000005       0.00000000       0.00000000       0.00000000
O        2.12023771       0.94546064       0.00000020       0.00000000       0.00000000       0.00000000
C       -0.69536060       1.26094497      -0.00000034       0.00000000       0.00000000       0.00000000
C       -0.13840876       2.54773670      -0.00000022       0.00000000       0.00000000       0.00000000
C       -0.74725338      -1.27065192       0.00000003       0.00000000       0.00000000       0.00000000
H       -1.78679752       1.22464099       0.00000003       0.00000000       0.00000000       0.00000000
H        0.94252719       2.63846551       0.00000094       0.00000000       0.00000000       0.00000000
H       -0.82884085       3.39211712      -0.00000000       0.00000000       0.00000000       0.00000000
H       -0.04478025      -2.10662547      -0.00000069       0.00000000       0.00000000       0.00000000
H       -1.39660145      -1.34609710       0.88076005       0.00000000       0.00000000       0.00000000
H       -1.39660179      -1.34610002      -0.88075976       0.00000000       0.00000000       0.00000000
12
Lattice="20.0 0.0 0.0 0.0 20.0 0.0 0.0 0.0 20.0" Properties=species:S:1:pos:R:3:REF_forces:R:3 REF_energy=-8331.865726982833 pbc="F F F"
C        0.01953745       0.03056510       0.05419091       0.59636249      -0.41846456      -0.24830834
O        1.32529526      -0.11378903       0.01150217      -0.41530418       0.30093402       0.04480044
O        2.16874657       1.00202606      -0.00098582      -0.30615958      -0.32344136      -0.00062943
C       -0.71141507       1.25854951       0.00603748       0.31696416      -0.28276773       0.27442578
C       -0.17055744       2.47095106      -0.08387640       0.16653272       0.14743942      -0.23219531
C       -0.81122888      -1.29039344       0.02256931       0.22994606       0.90948507       0.17868044
H       -1.72784882       1.04334778       0.25084503      -0.28834244       0.17164756      -0.08805399
H        0.88667139       2.66792018      -0.25441362      -0.06716713      -0.12897562       0.05491737
H       -0.82734722       3.29636510      -0.17348876      -0.20246067       0.27623153       0.07466804
H       -0.14601346      -2.13294033       0.00764811      -0.03273521      -0.18891483       0.11209820
H       -1.49502490      -1.08759542       0.86669996       0.06998224      -0.35403978       0.02734851
H       -1.43364182      -1.20567782      -0.85127130      -0.06764640      -0.10884248      -0.19810795
12
Lattice="20.0 0.0 0.0 0.0 20.0 0.0 0.0 0.0 20.0" Properties=species:S:1:pos:R:3:REF_forces:R:3 REF_energy=-8332.293349086136 pbc="F F F"
C        0.05165052      -0.01475546       0.00000277       0.00000000       0.00000000       0.00000000
O        1.33020903      -0.15764287       0.00000224       0.00000000       0.00000000       0.00000000
O        2.05210832       1.01408348      -0.00000173       0.00000000       0.00000000       0.00000000
C       -0.61536141       1.25232529       0.00000098       0.00000000       0.00000000       0.00000000
C       -0.13929146       2.52064380      -0.00000183       0.00000000       0.00000000       0.00000000
C       -0.81508079      -1.24552257      -0.00000107       0.00000000       0.00000000       0.00000000
H       -1.69824840       1.13489184      -0.00000701       0.00000000       0.00000000       0.00000000
H        0.91550714       2.75324147       0.00000544       0.00000000       0.00000000       0.00000000
H       -0.86691975       3.33548324      -0.00001176       0.00000000       0.00000000       0.00000000
H       -0.22607453      -2.17572065      -0.00001113       0.00000000       0.00000000       0.00000000
H       -1.47396945      -1.23726693       0.88149952       0.00000000       0.00000000       0.00000000
H       -1.47398197      -1.23725587      -0.88149331       0.00000000       0.00000000       0.00000000
12
Lattice="20.0 0.0 0.0 0.0 20.0 0.0 0.0 0.0 20.0" Properties=species:S:1:pos:R:3:REF_forces:R:3 REF_energy=-8332.358060961178 pbc="F F F"
C        0.00742984       0.02813170      -0.00000003       0.18318464      -0.02280048      -0.00000003
O        1.28515040      -0.12077196       0.00000005      -0.12431838       0.02144163      -0.00000028
O        2.11635447       0.94012642       0.00000001      -0.04824366      -0.02740398       0.00000013
C       -0.69019647       1.28942343      -0.00000025       0.04506369       0.05729752       0.00000239
C       -0.15038960       2.52819384       0.00000023       0.53006219      -0.18103093      -0.00000302
C       -0.74212574      -1.27340049       0.00000002      -0.05374900       0.04803471       0.00000016
H       -1.77164656       1.18685761       0.00000089      -0.02221817      -0.00445722      -0.00000109
H        0.96733715       2.66875561      -0.00000035      -0.42248999      -0.06757938       0.00000060
H       -0.78551939       3.38595830      -0.00000134      -0.13497571       0.15369929       0.00000125
H       -0.06784853      -2.13242285       0.00000008       0.01502589       0.03365690       0.00000008
H       -1.39448467      -1.32900435       0.88078979       0.01542588      -0.00734426      -0.00565081
H       -1.39448474      -1.32900467      -0.88078966       0.01542592      -0.00734392       0.00565075
12
Lattice="20.0 0.0 0.0 0.0 20.0 0.0 0.0 0.0 20.0" Properties=species:S:1:pos:R:3:REF_forces:R:3 REF_energy=-8332.365218496372 pbc="F F F"
C        0.00475169       0.02928901      -0.01426163       0.21722835      -0.04054585       0.20506183
O        1.28414818      -0.12777159       0.00071028      -0.10374754       0.13763682      -0.01687514
O        2.12046044       0.94586659       0.00052100      -0.12569906      -0.11757572      -0.01012630
C       -0.68910120       1.28848411       0.00249826       0.01158870       0.08235239      -0.03609741
C       -0.14593546       2.52636191       0.00034932      -0.02555311      -0.07993119      -0.00510048
C       -0.74614992      -1.26962700       0.01575564      -0.01508682      -0.00114712      -0.22107826
H       -1.77306019       1.18612461       0.00374782       0.00516846      -0.00013212      -0.00422562
H        0.92470893       2.66386108       0.00612226       0.00627739      -0.00525086      -0.00728780
H       -0.80060280       3.39484027      -0.01183137      -0.00017396      -0.00977333       0.01439285
H       -0.04815587      -2.10926621      -0.03234077      -0.00673808       0.01422328       0.03786211
H       -1.43130889      -1.39573171       0.86478665       0.06455909       0.07107354       0.00028633
H       -1.35375491      -1.29443108      -0.90176477      -0.02732970      -0.05080803       0.04296878
12
Lattice="20.0 0.0 0.0 0.0 20.0 0.0 0.0 0.0 20.0" Properties=species:S:1:pos:R:3:REF_forces:R:3 REF_energy=-8331.851590585375 pbc="F F F"
C        0.03468516       0.02388765       0.00000000       0.05352474      -0.15671161       0.00000000
O        1.33941321      -0.19318285      -0.00000000      -0.69322822       0.80056032      -0.00000000
O        2.11686756       0.97395101       0.00000000      -0.04237730      -0.39225617      -0.00000000
C       -0.76126521       1.34252577       0.00000000       0.48287529      -0.16642792      -0.00000000
C       -0.16298479       2.57602565      -0.00000000       0.21760785      -0.32111355      -0.00000000
C       -0.75834281      -1.30882563       0.00000000       0.08092083       0.28256268      -0.00000000
H       -1.84312199       1.18887331       0.00000000       0.06068914      -0.00583698       0.00000000
H        0.94384145       2.46173677       0.00000000      -0.22356493       0.16847266       0.00000000
H       -0.62639160       3.58866367      -0.00000000      -0.02041811      -0.31958114       0.00000000
H       -0.10122521      -2.18340437      -0.00000000       0.03106183       0.06653749       0.00000000
H       -1.41188492      -1.36115367       0.88077332       0.02667718       0.02205638      -0.00605236
H       -1.41188492      -1.36115367      -0.88077332       0.02667718       0.02205638       0.00605236
12
Lattice="20.0 0.0 0.0 0.0 20.0 0.0 0.0 0.0 20.0" Properties=species:S:1:pos:R:3:REF_forces:R:3 REF_energy=-8332.39436573306 pbc="F F F"
C        0.00744462       0.02815389      -0.00000003       0.18124939      -0.02484002      -0.00000005
O        1.28511503      -0.12077077       0.00000005      -0.11827261       0.02124436      -0.00000026
O        2.11642350       0.94010035       0.00000001      -0.06036023      -0.02344924       0.00000012
C       -0.69006614       1.28929027      -0.00000025       0.02730650       0.07471837       0.00000242
C       -0.14596881       2.52773900       0.00000023      -0.02568793      -0.09743325      -0.00000310
C       -0.74128443      -1.27282921       0.00000002      -0.14899945      -0.01571221       0.00000017
H       -1.77372867       1.18655005       0.00000089       0.00236416      -0.00074514      -0.00000110
H        0.92507492       2.66243302      -0.00000035       0.00670011      -0.00363471       0.00000041
H       -0.79621475       3.39961767      -0.00000134      -0.00479479      -0.01543773       0.00000151
H       -0.06333914      -2.13764454       0.00000008      -0.02654138       0.08439266       0.00000007
H       -1.40170377      -1.32974316       0.89105900       0.08346622      -0.00194831      -0.10143999
H       -1.40170385      -1.32974347      -0.89105887       0.08346627      -0.00194795       0.10143993
12
Lattice="20.0 0.0 0.0 0.0 20.0 0.0 0.0 0.0 20.0" Properties=species:S:1:pos:R:3:REF_forces:R:3 REF_energy=-8332.386465808151 pbc="F F F"
C        0.01076203       0.02676310       0.00000000       0.13951692      -0.00762902      -0.00000000
O        1.28634498      -0.11211383       0.00000000      -0.14975207      -0.13401188       0.00000000
O        2.11142710       0.93296598      -0.00000000       0.03233360       0.10727070       0.00000000
C       -0.69120366       1.29032476      -0.00000000       0.03837303       0.05980491       0.00000000
C       -0.14601343       2.52942209       0.00000000      -0.02467084      -0.11541551       0.00000000
C       -0.73714238      -1.27806261      -0.00000000      -0.11317485       0.09688056       0.00000000
H       -1.77532097       1.18696661      -0.00000000       0.00734789      -0.00077662      -0.00000000
H        0.92551725       2.66069835      -0.00000000       0.00512176      -0.00164118      -0.00000000
H       -0.79076910       3.40547753       0.00000000      -0.01006325      -0.02061307      -0.00000000
H       -0.09219441      -2.16102929       0.00000000       0.03138016       0.07126332      -0.00000000
H       -1.39693314      -1.30912941       0.87775310       0.02198467      -0.02733190      -0.00616011
H       -1.39693314      -1.30912941      -0.87775310       0.02198467      -0.02733190       0.00616011
12
Lattice="20.0 0.0 0.0 0.0 20.0 0.0 0.0 0.0 20.0" Properties=species:S:1:pos:R:3:REF_forces:R:3 REF_energy=-8332.266190300612 pbc="F F F"
C       -0.01795067       0.04155540      -0.00000001       0.00000000       0.00000000       0.00000000
O        1.29676151      -0.13057556      -0.00000004       0.00000000       0.00000000       0.00000000
O        2.12049799       0.94612915       0.00000006       0.00000000       0.00000000       0.00000000
C       -0.68309828       1.28044489      -0.00000004       0.00000000       0.00000000       0.00000000
C       -0.14875457       2.52509967      -0.00000006       0.00000000       0.00000000       0.00000000
C       -0.74007522      -1.27862839      -0.00000069       0.00000000       0.00000000       0.00000000
H       -1.76739624       1.18227956       0.00000006       0.00000000       0.00000000       0.00000000
H        0.91966671       2.67659120       0.00000048       0.00000000       0.00000000       0.00000000
H       -0.77832800       3.41235310       0.00000006       0.00000000       0.00000000       0.00000000
H       -0.01281566      -2.09130202       0.00000748       0.00000000       0.00000000       0.00000000
H       -1.44195083      -1.31113002       0.84802577       0.00000000       0.00000000       0.00000000
H       -1.44195465      -1.31112229      -0.84802468       0.00000000       0.00000000       0.00000000
12
Lattice="20.0 0.0 0.0 0.0 20.0 0.0 0.0 0.0 20.0" Properties=species:S:1:pos:R:3:REF_forces:R:3 REF_energy=-8332.272779492763 pbc="F F F"
C       -0.04214715       0.07333349      -0.00000277       0.00000000       0.00000000       0.00000000
O        1.23808732      -0.09790030      -0.00000224       0.00000000       0.00000000       0.00000000
O        2.18881257       0.87764969       0.00000173       0.00000000       0.00000000       0.00000000
C       -0.76284100       1.32464293      -0.00000098       0.00000000       0.00000000       0.00000000
C       -0.15257946       2.53208003       0.00000183       0.00000000       0.00000000       0.00000000
C       -0.67721904      -1.29373143       0.00000107       0.00000000       0.00000000       0.00000000
H       -1.84787198       1.23735738       0.00000701       0.00000000       0.00000000       0.00000000
H        0.93391071       2.57448069      -0.00000544       0.00000000       0.00000000       0.00000000
H       -0.73428585       3.45419729       0.00001176       0.00000000       0.00000000       0.00000000
H        0.12976279      -2.04281178       0.00001113       0.00000000       0.00000000       0.00000000
H       -1.31109435      -1.45289585       0.88505190       0.00000000       0.00000000       0.00000000
H       -1.31108183      -1.45290691      -0.88505811       0.00000000       0.00000000       0.00000000
12
Lattice="20.0 0.0 0.0 0.0 20.0 0.0 0.0 0.0 20.0" Properties=species:S:1:pos:R:3:REF_forces:R:3 REF_energy=-8332.391315004323 pbc="F F F"
C        0.00475152       0.02928899       0.00021631       0.00000000       0.00000000       0.00000000
O        1.28414819      -0.12777172       0.00002389       0.00000000       0.00000000       0.00000000
O        2.12046054       0.94586670      -0.00006654       0.00000000       0.00000000       0.00000000
C       -0.68910123       1.28848399      -0.00273958       0.00000000       0.00000000       0.00000000
C       -0.14593535       2.52636192       0.00858138       0.00000000       0.00000000       0.00000000
C       -0.74615001      -1.26962686      -0.00010212       0.00000000       0.00000000       0.00000000
H       -1.77306033       1.18612471       0.00031776       0.00000000       0.00000000       0.00000000
H        0.92470900       2.66386171      -0.03606879       0.00000000       0.00000000       0.00000000
H       -0.80060315       3.39483999      -0.03511115       0.00000000       0.00000000       0.00000000
H       -0.04815527      -2.10926552       0.00023975       0.00000000       0.00000000       0.00000000
H       -1.39223861      -1.34451702       0.88343859       0.00000000       0.00000000       0.00000000
H       -1.39282508      -1.34564653      -0.88311300       0.00000000       0.00000000       0.00000000
12
Lattice="20.0 0.0 0.0 0.0 20.0 0.0 0.0 0.0 20.0" Properties=species:S:1:pos:R:3:REF_forces:R:3 REF_energy=-8332.288227477275 pbc="F F F"
C       -0.00739997       0.01829398      -0.00000002       0.00000000       0.00000000       0.00000000
O        1.29083321      -0.12582316       0.00000003       0.00000000       0.00000000       0.00000000
O        2.12048203       0.94480581       0.00000004       0.00000000       0.00000000       0.00000000
C       -0.69246025       1.29869378      -0.00000004       0.00000000       0.00000000       0.00000000
C       -0.13703821       2.53674755      -0.00000005       0.00000000       0.00000000       0.00000000
C       -0.74150311      -1.26484886      -0.00000026       0.00000000       0.00000000       0.00000000
H       -1.77085654       1.12115913      -0.00000055       0.00000000       0.00000000       0.00000000
H        0.94485402       2.60255784       0.00000037       0.00000000       0.00000000       0.00000000
H       -0.87624021       3.34014636       0.00000014       0.00000000       0.00000000       0.00000000
H       -0.04907169      -2.10846065       0.00000281       0.00000000       0.00000000       0.00000000
H       -1.40693832      -1.34771798       0.86969757       0.00000000       0.00000000       0.00000000
H       -1.40693967      -1.34771600      -0.86969708       0.00000000       0.00000000       0.00000000
12
Lattice="20.0 0.0 0.0 0.0 20.0 0.0 0.0 0.0 20.0" Properties=species:S:1:pos:R:3:REF_forces:R:3 REF_energy=-8331.870029737478 pbc="F F F"
C       -0.01293447       0.00576887       0.00000000       0.49409557       0.28335112       0.00000000
O        1.24412485      -0.17372106      -0.00000000       0.50010855       0.76749689      -0.00000000
O        2.14917056       0.98272469       0.00000000      -0.45959300      -0.55727178      -0.00000000
C       -0.71141090       1.29976601      -0.00000000       0.25899774      -0.03467711       0.00000000
C       -0.12885735       2.52334037       0.00000000      -0.25468552      -0.00939116      -0.00000000
C       -0.69362739      -1.27119191      -0.00000000      -0.82566084      -0.08687474      -0.00000000
H       -1.80592619       1.30617192      -0.00000000       0.07969998      -0.14570826       0.00000000
H        0.92643329       2.77241064      -0.00000000      -0.04318395      -0.13024490       0.00000000
H       -0.87178503       3.32780280      -0.00000000       0.12144258       0.04909297      -0.00000000
H       -0.13264759      -2.21957702       0.00000000       0.03676548       0.21816718       0.00000000
H       -1.38572786      -1.19830731       0.86352153       0.04654312      -0.17755042      -0.03292765
H       -1.38572786      -1.19830731      -0.86352153       0.04654312      -0.17755042       0.03292765
12
Lattice="20.0 0.0 0.0 0.0 20.0 0.0 0.0 0.0 20.0" Properties=species:S:1:pos:R:3:REF_forces:R:3 REF_energy=-8331.850214906863 pbc="F F F"
C        0.00475169       0.02928901       0.00004504       0.20707269      -0.04726401      -0.00578829
O        1.28414818      -0.12777159       0.00003542      -0.10107488       0.13740301      -0.00467028
O        2.12046044       0.94586659       0.00001644      -0.12789724      -0.11990780      -0.00254233
C       -0.68910120       1.28848411      -0.00002891       0.01098760       0.08181664       0.00234288
C       -0.14593546       2.52636191      -0.00000796      -0.02506871      -0.08043855       0.00089741
C       -0.74614992      -1.26962700       0.01498378       0.56497678       0.07664617      -1.97097349
H       -1.77306019       1.18612461       0.00018039       0.00553693      -0.00028394      -0.00180830
H        0.92470893       2.66386108       0.00006818       0.00628563      -0.00495651      -0.00067542
H       -0.80060280       3.39484027      -0.00002235      -0.00039273      -0.00944107       0.00026029
H       -0.04815587      -2.10926621       0.00291162      -0.00558044       0.01086191      -0.02730985
H       -1.32335060      -1.33794022       0.79197033      -1.02986018      -0.10357734       1.35180245
H       -1.46171320      -1.35222256      -0.97458109       0.49565606       0.05945332       0.65833110
12
Lattice="20.0 0.0 0.0 0.0 20.0 0.0 0.0 0.0 20.0" Properties=species:S:1:pos:R:3:REF_forces:R:3 REF_energy=-8332.23501959814 pbc="F F F"
C        0.00507581       0.03184779       0.01180662       0.37107236      -0.18088778      -0.06670637
O        1.29365447      -0.12580207       0.00215284      -0.21746763       0.19720128       0.00797995
O        2.13057031       0.95766955      -0.00017800      -0.17096541      -0.17278093      -0.00106973
C       -0.68876504       1.28720380      -0.00077339      -0.41798419      -0.22224411       0.10420519
C       -0.14885267       2.50918063      -0.01526701      -0.23955602       0.39855289      -0.06450842
C       -0.75812260      -1.27685880       0.00775426      -0.08538335       0.12370027      -0.32003121
H       -1.81042889       1.13589170       0.06174341       0.37027039       0.12082738      -0.05574616
H        0.91110587       2.67059007      -0.05160488       0.07808784      -0.02544153       0.00523404
H       -0.82570882       3.40106424      -0.04060591       0.17038686      -0.23447946       0.03149889
H       -0.04073975      -2.12736344      -0.00665091      -0.18533487       0.13098932       0.03956647
H       -1.42139146      -1.26903255       0.88692800       0.04892256      -0.11202723      -0.03930528
H       -1.43680920      -1.30866778      -0.92310305       0.27776821      -0.02220010       0.35833068
12
Lattice="20.0 0.0 0.0 0.0 20.0 0.0 0.0 0.0 20.0" Properties=species:S:1:pos:R:3:REF_forces:R:3 REF_energy=-8332.373941666814 pbc="F F F"
C        0.00429799       0.02811858      -0.00000160       0.00000000       0.00000000       0.00000000
O        1.28015471      -0.14891060       0.00000134       0.00000000       0.00000000       0.00000000
O        2.09402234       0.92942164      -0.00000053       0.00000000       0.00000000       0.00000000
C       -0.66248762       1.30864229      -0.00000026       0.00000000       0.00000000       0.00000000
C       -0.15595416       2.56646679       0.00000056       0.00000000       0.00000000       0.00000000
C       -0.72643412      -1.28381683      -0.00000036       0.00000000       0.00000000       0.00000000
H       -1.74685577       1.20574061       0.00000324       0.00000000       0.00000000       0.00000000
H        0.90656239       2.76345807      -0.00000327       0.00000000       0.00000000       0.00000000
H       -0.85107335       3.40515340       0.00000590       0.00000000       0.00000000       0.00000000
H        0.00185121      -2.09867394      -0.00000093       0.00000000       0.00000000       0.00000000
H       -1.36845053      -1.38439494       0.88413181       0.00000000       0.00000000       0.00000000
H       -1.36845406      -1.38439612      -0.88412978       0.00000000       0.00000000       0.00000000
12
Lattice="20.0 0.0 0.0 0.0 20.0 0.0 0.0 0.0 20.0" Properties=species:S:1:pos:R:3:REF_forces:R:3 REF_energy=-8332.100480187963 pbc="F F F"
C        0.00461452       0.02098553       0.00000000       0.22250867       0.15046848      -0.00000000
O        1.28026487      -0.12719015      -0.00000000       0.01243936       0.11609727      -0.00000000
O        2.12230223       0.94676884      -0.00000000      -0.18211789      -0.14230563       0.00000000
C       -0.71510026       1.27258264      -0.00000000       0.45221324       0.33274201       0.00000000
C       -0.12234605       2.54219016       0.00000000      -0.43659768      -0.32528277       0.00000000
C       -0.74660461      -1.26473920      -0.00000000       0.00574812      -0.10977664       0.00000000
H       -1.78587882       0.99862376      -0.00000000       0.08817016       0.35693431      -0.00000000
H        0.93166626       2.81620333      -0.00000000      -0.03891326      -0.29263464      -0.00000000
H       -0.74094971       3.44364567      -0.00000000      -0.11868854      -0.10649992      -0.00000000
H       -0.04647317      -2.10245135       0.00000000      -0.00518004      -0.00458278      -0.00000000
H       -1.38618303      -1.34629995       0.88765851       0.00096093       0.01222640      -0.01492792
H       -1.38618303      -1.34629995      -0.88765851       0.00096093       0.01222640       0.01492792
12
Lattice="20.0 0.0 0.0 0.0 20.0 0.0 0.0 0.0 20.0" Properties=species:S:1:pos:R:3:REF_forces:R:3 REF_energy=-8332.259526653781 pbc="F F F"
C        0.00472867       0.02931327      -0.00000000       0.21359479      -0.05067839      -0.00000000
O        1.28421834      -0.12776377      -0.00000000      -0.11350607       0.13627081      -0.00000000
O        2.12044732       0.94585208       0.00000000      -0.12451423      -0.11598470      -0.00000000
C       -0.68899122       1.28855961       0.00000000      -0.00151870       0.07425541       0.00000000
C       -0.14594129       2.52632323      -0.00000000      -0.02460564      -0.07626138      -0.00000000
C       -0.74989410      -1.27217691       0.00000000       0.53312259       0.33690046       0.00000000
H       -1.77459338       1.18590771       0.00000000       0.02053094       0.00208450       0.00000000
H        0.92468905       2.66392820      -0.00000000       0.00657826      -0.00583453       0.00000000
H       -0.80056234       3.39474650      -0.00000000      -0.00084833      -0.00850133       0.00000000
H       -0.06832988      -2.08587925       0.00000000       0.20992578      -0.23640735       0.00000000
H       -1.36031612      -1.34177096       0.83742343      -0.35907613      -0.02779077       0.52075709
H       -1.36031612      -1.34177096      -0.83742343      -0.35907614      -0.02779077      -0.52075709
12
Lattice="20.0 0.0 0.0 0.0 20.0 0.0 0.0 0.0 20.0" Properties=species:S:1:pos:R:3:REF_forces:R:3 REF_energy=-8332.27070551867 pbc="F F F"
C       -0.01893118       0.03819447       0.00000028       0.00000000       0.00000000       0.00000000
O        1.29471459      -0.13037803      -0.00000003       0.00000000       0.00000000       0.00000000
O        2.12092145       0.94627170       0.00000005       0.00000000       0.00000000       0.00000000
C       -0.68446493       1.28166352      -0.00000010       0.00000000       0.00000000       0.00000000
C       -0.14672109       2.52871115      -0.00000006       0.00000000       0.00000000       0.00000000
C       -0.74750877      -1.26780012       0.00000026       0.00000000       0.00000000       0.00000000
H       -1.76859713       1.18092858       0.00000006       0.00000000       0.00000000       0.00000000
H        0.92509853       2.65904813       0.00000047       0.00000000       0.00000000       0.00000000
H       -0.79837070       3.39915498       0.00000018       0.00000000       0.00000000       0.00000000
H       -0.09235630      -2.14424200      -0.00000493       0.00000000       0.00000000       0.00000000
H       -1.33523342      -1.34457572       0.92457042       0.00000000       0.00000000       0.00000000
H       -1.33523132      -1.34458364      -0.92457109       0.00000000       0.00000000       0.00000000
12
Lattice="20.0 0.0 0.0 0.0 20.0 0.0 0.0 0.0 20.0" Properties=species:S:1:pos:R:3:REF_forces:R:3 REF_energy=-8332.103895371589 pbc="F F F"
C        0.00475169       0.02928901       0.00443448       0.21129427      -0.04836582      -0.12835200
O        1.28414818      -0.12777159      -0.00003401      -0.10056991       0.13732859       0.00328347
O        2.12046044       0.94586659       0.00001608      -0.12631715      -0.11749780      -0.00055457
C       -0.68910120       1.28848411      -0.00098217       0.01272440       0.08582663       0.02744628
C       -0.14593546       2.52636191      -0.00010513      -0.02609251      -0.08071644       0.00292919
C       -0.74614992      -1.26962700       0.01434511       0.03082227      -0.06522341      -0.40519657
H       -1.77306019       1.18612461       0.00148455       0.00506406       0.00046643      -0.00402806
H        0.92470893       2.66386108      -0.00004768       0.00642488      -0.00531507       0.00022295
H       -0.80060280       3.39484027       0.00212510      -0.00048098      -0.00930651      -0.00502131
H       -0.04815587      -2.10926621      -0.18776807      -0.03136439       0.06443165       0.44651498
H       -1.43658503      -1.22794599       0.87010692       0.11339293      -0.25747125      -0.00081274
H       -1.34847877      -1.46221679      -0.89644450      -0.09438483       0.29599769       0.06371094
12
Lattice="20.0 0.0 0.0 0.0 20.0 0.0 0.0 0.0 20.0" Properties=species:S:1:pos:R:3:REF_forces:R:3 REF_energy=-8331.867970852618 pbc="F F F"
C        0.00941105       0.03433208       0.03657791       0.59276069      -0.38907921      -0.19514636
O        1.31284871      -0.12035046       0.00706927      -0.38899166       0.28988718       0.03084577
O        2.15227278       0.98294153      -0.00059844      -0.25271693      -0.27344040      -0.00112233
C       -0.69648730       1.27751017       0.00010695      -0.52003863      -0.57896903       0.31670115
C       -0.15928596       2.48103966      -0.05082116      -0.16764640       0.74293824      -0.20110206
C       -0.78632782      -1.28953337       0.01899049      -0.09401736       0.58742666      -0.35587729
H       -1.80900790       1.05663609       0.18227832       0.42198222       0.27165822      -0.17094806
H        0.89535283       2.67888116      -0.16494183       0.02215991      -0.09493340       0.02762794
H       -0.84280064       3.36427557      -0.12209798       0.15674990      -0.20813654       0.08917456
H       -0.06945785      -2.13976436      -0.01029213      -0.26268216       0.09701688       0.10392209
H       -1.47374921      -1.13406024       0.88441140       0.12689544      -0.32503653      -0.08704628
H       -1.47269473      -1.23874842      -0.92987999       0.36496888      -0.11977317       0.44296616
12
Lattice="20.0 0.0 0.0 0.0 20.0 0.0 0.0 0.0 20.0" Properties=species:S:1:pos:R:3:REF_forces:R:3 REF_energy=-8332.339284040465 pbc="F F F"
C        0.00476711       0.02927274      -0.00000000       0.00000000       0.00000000       0.00000000
O        1.28410109      -0.12777686       0.00000000       0.00000000       0.00000000       0.00000000
O        2.12046927       0.94587633       0.00000003       0.00000000       0.00000000       0.00000000
C       -0.68917508       1.28843346      -0.00000004       0.00000000       0.00000000       0.00000000
C       -0.14593154       2.52638791      -0.00000001       0.00000000       0.00000000       0.00000000
C       -0.74363825      -1.26791646       0.00000001       0.00000000       0.00000000       0.00000000
H       -1.77203041       1.18627032      -0.00000016       0.00000000       0.00000000       0.00000000
H        0.92472206       2.66381597       0.00000007       0.00000000       0.00000000       0.00000000
H       -0.80062974       3.39490291      -0.00000001       0.00000000       0.00000000       0.00000000
H       -0.03462275      -2.12495468      -0.00000003       0.00000000       0.00000000       0.00000000
H       -1.41414289      -1.34730199       0.91403427       0.00000000       0.00000000       0.00000000
H       -1.41414296      -1.34730219      -0.91403424       0.00000000       0.00000000       0.00000000
12
Lattice="20.0 0.0 0.0 0.0 20.0 0.0 0.0 0.0 20.0" Properties=species:S:1:pos:R:3:REF_forces:R:3 REF_energy=-8331.977150428911 pbc="F F F"
C        0.00472025       0.02919885      -0.00000000       0.22023626      -0.02820380      -0.00000000
O        1.28421248      -0.12778118       0.00000000      -0.11746177       0.13946733       0.00000000
O        2.12024458       0.94596233      -0.00000000      -0.08466977      -0.13332732       0.00000000
C       -0.68960721       1.28886387       0.00000000       0.08531287       0.03446699       0.00000000
C       -0.16036942       2.52787568      -0.00000000       1.49525679      -0.49061549       0.00000000
C       -0.74616326      -1.26963060       0.00000000      -0.00327349       0.00691175       0.00000000
H       -1.76514038       1.18728752       0.00000000      -0.08807327      -0.01403845      -0.00000000
H        1.06275130       2.68446156       0.00000000      -1.04683895      -0.17152189      -0.00000000
H       -0.76570144       3.35029742       0.00000000      -0.48179393       0.62752744      -0.00000000
H       -0.04815045      -2.10929167      -0.00000000      -0.00152765       0.00849514      -0.00000000
H       -1.39248148      -1.34508608       0.88322238       0.01182321       0.01055551      -0.00625888
H       -1.39248148      -1.34508608      -0.88322238       0.01182322       0.01055551       0.00625888
12
Lattice="20.0 0.0 0.0 0.0 20.0 0.0 0.0 0.0 20.0" Properties=species:S:1:pos:R:3:REF_forces:R:3 REF_energy=-8332.337137040562 pbc="F F F"
C        0.00475240       0.02928875       0.03692135       0.00000000       0.00000000       0.00000000
O        1.28414965      -0.12777313      -0.01585899       0.00000000       0.00000000       0.00000000
O        2.12045976       0.94586707       0.00643372       0.00000000       0.00000000       0.00000000
C       -0.68910272       1.28848527      -0.03620396       0.00000000       0.00000000       0.00000000
C       -0.14593545       2.52636250       0.00298510       0.00000000       0.00000000       0.00000000
C       -0.74615017      -1.26962718       0.00630632       0.00000000       0.00000000       0.00000000
H       -1.77306142       1.18612528       0.04125536       0.00000000       0.00000000       0.00000000
H        0.92470943       2.66385882      -0.06683655       0.00000000       0.00000000       0.00000000
H       -0.80060031       3.39484279       0.11133890       0.00000000       0.00000000       0.00000000
H       -0.04815702      -2.10926733      -0.02206869       0.00000000       0.00000000       0.00000000
H       -1.41774109      -1.39017515       0.86660046       0.00000000       0.00000000       0.00000000
H       -1.36732336      -1.29998619      -0.89995114       0.00000000       0.00000000       0.00000000
12
Lattice="20.0 0.0 0.0 0.0 20.0 0.0 0.0 0.0 20.0" Properties=species:S:1:pos:R:3:REF_forces:R:3 REF_energy=-8331.955838185222 pbc="F F F"
C        0.00465666       0.02939341       0.00000000       0.22893189      -0.06094545       0.00000000
O        1.28406822      -0.12781088      -0.00000000      -0.09170908       0.14429324       0.00000000
O        2.12050898       0.94588954       0.00000000      -0.13534357      -0.12196384       0.00000000
C       -0.68286666       1.28891912       0.00000000      -0.60745292       0.04727814      -0.00000000
C       -0.14690986       2.52939661      -0.00000000       0.13240509      -0.51669383       0.00000000
C       -0.75567979      -1.26194218       0.00000000       0.96134463      -0.61132955      -0.00000001
H       -1.84727702       1.17937149      -0.00000000       0.62505730       0.05544577      -0.00000000
H        0.90994403       2.66233069       0.00000000       0.16610987       0.01148554      -0.00000000
H       -0.77416324       3.36009828       0.00000000      -0.31964434       0.40838704      -0.00000000
H        0.03221679      -2.20601301       0.00000000      -0.57954414       0.70037359       0.00000000
H       -1.37519180      -1.34214835       0.85679123      -0.18981919      -0.02803577       0.30528758
H       -1.37519180      -1.34214835      -0.85679123      -0.18981918      -0.02803577      -0.30528757
12
Lattice="20.0 0.0 0.0 0.0 20.0 0.0 0.0 0.0 20.0" Properties=species:S:1:pos:R:3:REF_forces:R:3 REF_energy=-8332.015009721157 pbc="F F F"
C        0.05358614       0.00784355       0.07849196       0.10361036      -0.22634515      -0.19023497
O        1.34038565      -0.09584446       0.02140745      -0.17208622       0.15628111       0.04944207
O        2.19408121       1.03194116      -0.00188549      -0.38570027      -0.33591172      -0.00756995
C       -0.72104254       1.21170038       0.02810270       0.23063104       0.45546078       0.27864588
C       -0.18767504       2.45703876      -0.15779885      -0.47075032      -0.13927777      -0.14217578
C       -0.84337660      -1.25675716       0.04151615       0.41298465       0.15093138      -0.04817290
H       -1.76445668       1.08669181       0.35432923       0.08441679       0.04324783      -0.16407442
H        0.84793692       2.59095126      -0.40313214       0.10036895      -0.00628121       0.02269331
H       -0.89374201       3.30700558      -0.23719938       0.15397111      -0.10713458       0.08610156
H       -0.30474786      -2.21611187       0.09461171      -0.02010242       0.11723535      -0.01505383
H       -1.52842475      -1.16148428       0.87210402      -0.08184611      -0.05515094       0.11711834
H       -1.44549729      -1.19142718      -0.87500021       0.04488302      -0.05322539       0.01375294
12
Lattice="20.0 0.0 0.0 0.0 20.0 0.0 0.0 0.0 20.0" Properties=species:S:1:pos:R:3:REF_forces:R:3 REF_energy=-8332.39847399094 pbc="F F F"
C        0.00743150       0.02816806      -0.00000003       0.18262641      -0.02767961      -0.00000005
O        1.28512401      -0.12077232       0.00000005      -0.11943918       0.02153336      -0.00000026
O        2.11642464       0.94009903       0.00000001      -0.06058909      -0.02328067       0.00000012
C       -0.68951876       1.28934363      -0.00000025      -0.03989708       0.06885020       0.00000247
C       -0.14605182       2.52798482       0.00000023      -0.01503571      -0.12882770      -0.00000305
C       -0.74292076      -1.27275500       0.00000002       0.04274825      -0.03203318       0.00000017
H       -1.78029477       1.18593528       0.00000089       0.06986152       0.00557406      -0.00000116
H        0.92383240       2.66231970      -0.00000035       0.01967781      -0.00246849       0.00000041
H       -0.79398868       3.39668350      -0.00000134      -0.02834843       0.01572724       0.00000147
H       -0.06111074      -2.14052752       0.00000008      -0.05166671       0.11735572       0.00000007
H       -1.39304609      -1.32875698       0.87858533      -0.00006871      -0.00982526       0.01784644
H       -1.39304617      -1.32875730      -0.87858520      -0.00006867      -0.00982493      -0.01784649
12
Lattice="20.0 0.0 0.0 0.0 20.0 0.0 0.0 0.0 20.0" Properties=species:S:1:pos:R:3:REF_forces:R:3 REF_energy=-8332.350981754762 pbc="F F F"
C        0.00475077       0.02928831       0.03072963       0.00000000       0.00000000       0.00000000
O        1.28414940      -0.12777275      -0.00482311       0.00000000       0.00000000       0.00000000
O        2.12046134       0.94586462       0.02990954       0.00000000       0.00000000       0.00000000
C       -0.68910379       1.28848626       0.10390227       0.00000000       0.00000000       0.00000000
C       -0.14593295       2.52636434      -0.09162359       0.00000000       0.00000000       0.00000000
C       -0.74615165      -1.26962752      -0.05142327       0.00000000       0.00000000       0.00000000
H       -1.77306505       1.18612929       0.27794931       0.00000000       0.00000000       0.00000000
H        0.92471347       2.66386024      -0.29045699       0.00000000       0.00000000       0.00000000
H       -0.80059801       3.39484573      -0.06294410       0.00000000       0.00000000       0.00000000
H       -0.04815709      -2.10926812      -0.16158780       0.00000000       0.00000000       0.00000000
H       -1.35440576      -1.42967688       0.85283665       0.00000000       0.00000000       0.00000000
H       -1.43066225      -1.26048346      -0.91371724       0.00000000       0.00000000       0.00000000
12
Lattice="20.0 0.0 0.0 0.0 20.0 0.0 0.0 0.0 20.0" Properties=species:S:1:pos:R:3:REF_forces:R:3 REF_energy=-8332.10644348207 pbc="F F F"
C        0.02513239       0.04772696      -0.00000000      -0.34540081      -0.53278608       0.00000000
O        1.27293576      -0.13103922       0.00000000       0.33775461       0.24078665      -0.00000000
O        2.12042437       0.94764567       0.00000000      -0.12105790      -0.17324684      -0.00000000
C       -0.68346774       1.27136306       0.00000000      -0.20133191       0.53834362      -0.00000000
C       -0.16085683       2.50894466      -0.00000000       0.37477309       0.49666399       0.00000000
C       -0.75394321      -1.27763857       0.00000000       0.19277593       0.20450256      -0.00000000
H       -1.77675551       1.29507816       0.00000000       0.05127658      -0.24308327      -0.00000000
H        0.89092478       2.76666616       0.00000000       0.06554370      -0.26511990      -0.00000000
H       -0.67375721       3.48656303       0.00000000      -0.26490342      -0.27749049      -0.00000000
H       -0.04662696      -2.11062151       0.00000000      -0.00477048       0.01089337       0.00000000
H       -1.36836496      -1.34066706       0.90605077      -0.04162202      -0.00024653      -0.05884831
H       -1.36836496      -1.34066706      -0.90605077      -0.04162202      -0.00024653       0.05884830
12
Lattice="20.0 0.0 0.0 0.0 20.0 0.0 0.0 0.0 20.0" Properties=species:S:1:pos:R:3:REF_forces:R:3 REF_energy=-8332.131451261714 pbc="F F F"
C        0.04446963       0.01435485      -0.00000000      -1.13299741       0.38904778       0.00000000
O        1.26642732      -0.12340071       0.00000000       0.77589840      -0.05988179       0.00000000
O        2.11968733       0.94518726      -0.00000000      -0.08088958      -0.08307369      -0.00000000
C       -0.69687618       1.29992116       0.00000000       0.22219033      -0.23038861       0.00000000
C       -0.14461800       2.52242297      -0.00000000      -0.06156626       0.05082651      -0.00000000
C       -0.74387098      -1.27269065      -0.00000000      -0.09585076       0.07599268      -0.00000000
H       -1.78054576       1.19484392       0.00000000       0.02042881      -0.02084212       0.00000000
H        0.92405634       2.67193072       0.00000000       0.00605590      -0.02435494       0.00000000
H       -0.80434701       3.38760508       0.00000000       0.00945586       0.00777340       0.00000000
H        0.02596904      -2.05061129       0.00000000      -0.19514162      -0.13205538       0.00000000
H       -1.48862643      -1.34592440       0.81402152       0.26578297       0.01398418       0.15552595
H       -1.48862643      -1.34592440      -0.81402152       0.26578297       0.01398418      -0.15552595
12
Lattice="20.0 0.0 0.0 0.0 20.0 0.0 0.0 0.0 20.0" Properties=species:S:1:pos:R:3:REF_forces:R:3 REF_energy=-8332.32142682289 pbc="F F F"
C       -0.01301047       0.03596811       0.00000021       0.00000000       0.00000000       0.00000000
O        1.29207298      -0.12972642      -0.00000002       0.00000000       0.00000000       0.00000000
O        2.12080620       0.94617042       0.00000004       0.00000000       0.00000000       0.00000000
C       -0.68562400       1.28336867      -0.00000007       0.00000000       0.00000000       0.00000000
C       -0.14652468       2.52812384      -0.00000004       0.00000000       0.00000000       0.00000000
C       -0.74716906      -1.26825684       0.00000020       0.00000000       0.00000000       0.00000000
H       -1.76971289       1.18222759       0.00000005       0.00000000       0.00000000       0.00000000
H        0.92500113       2.66025136       0.00000035       0.00000000       0.00000000       0.00000000
H       -0.79892873       3.39807630       0.00000013       0.00000000       0.00000000       0.00000000
H       -0.08130619      -2.13549805      -0.00000370       0.00000000       0.00000000       0.00000000
H       -1.34955804      -1.34470214       0.91424674       0.00000000       0.00000000       0.00000000
H       -1.34955646      -1.34470808      -0.91424724       0.00000000       0.00000000       0.00000000
12
Lattice="20.0 0.0 0.0 0.0 20.0 0.0 0.0 0.0 20.0" Properties=species:S:1:pos:R:3:REF_forces:R:3 REF_energy=-8332.283798314758 pbc="F F F"
C        0.00475236       0.02928912      -0.00086525       0.00000000       0.00000000       0.00000000
O        1.28414810      -0.12777106      -0.00009555       0.00000000       0.00000000       0.00000000
O        2.12046005       0.94586614       0.00026617       0.00000000       0.00000000       0.00000000
C       -0.68910109       1.28848459       0.01095832       0.00000000       0.00000000       0.00000000
C       -0.14593592       2.52636189      -0.03432550       0.00000000       0.00000000       0.00000000
C       -0.74614953      -1.26962754       0.00040846       0.00000000       0.00000000       0.00000000
H       -1.77305962       1.18612421      -0.00127102       0.00000000       0.00000000       0.00000000
H        0.92470864       2.66385860       0.14427516       0.00000000       0.00000000       0.00000000
H       -0.80060137       3.39484137       0.14044458       0.00000000       0.00000000       0.00000000
H       -0.04815825      -2.10926898      -0.00095899       0.00000000       0.00000000       0.00000000
H       -1.39370506      -1.34733886       0.88262419       0.00000000       0.00000000       0.00000000
H       -1.39135919      -1.34282083      -0.88392654       0.00000000       0.00000000       0.00000000
12
Lattice="20.0 0.0 0.0 0.0 20.0 0.0 0.0 0.0 20.0" Properties=species:S:1:pos:R:3:REF_forces:R:3 REF_energy=-8331.81253221475 pbc="F F F"
C        0.00475169       0.02928901      -0.11007814       0.24867252       0.00635841       0.73827191
O        1.28414818      -0.12777159       0.04728237      -0.15062368       0.13006445      -0.42618031
O        2.12046044       0.94586659      -0.01918163      -0.12115535      -0.10879027       0.15976391
C       -0.68910120       1.28848411       0.10793937      -0.18319804      -0.00680692      -0.73132877
C       -0.14593546       2.52636191      -0.00889986      -0.04708299       0.18292195       0.00320626
C       -0.74614992      -1.26962700      -0.01880187      -0.10458197      -0.03816432       0.12251210
H       -1.77306019       1.18612461      -0.12299951       0.17857901       0.02558679       0.10795549
H        0.92470893       2.66386108       0.19926800      -0.16391269       0.00976327      -0.14151758
H       -0.80060280       3.39484027      -0.33194849       0.22358092      -0.27536558       0.27130221
H       -0.04815587      -2.10926621       0.06579617      -0.00918826       0.03536086      -0.03868491
H       -1.31737363      -1.21063561       0.93299193       0.01781884      -0.06443797      -0.13116866
H       -1.46769017      -1.47952717      -0.83355949       0.11136206       0.10377424       0.06623802
12
Lattice="20.0 0.0 0.0 0.0 20.0 0.0 0.0 0.0 20.0" Properties=species:S:1:pos:R:3:REF_forces:R:3 REF_energy=-8332.229279865971 pbc="F F F"
C       -0.04309819       0.01520416      -0.00000000       0.24418035       0.00648953      -0.00000000
O        1.24313661      -0.10091456      -0.00000000      -0.02507101       0.09815304       0.00000000
O        2.02430860       1.01211587       0.00000000       0.10372521      -0.33492610       0.00000000
C       -0.67734593       1.30062347       0.00000000       0.01473755       0.11090638       0.00000000
C       -0.00629307       2.49068195      -0.00000000      -0.24381992      -0.00594875       0.00000000
C       -0.71417495      -1.33398186       0.00000000      -0.02572148       0.05082804       0.00000001
H       -1.76948603       1.29046311       0.00000000       0.04639810      -0.00549955      -0.00000000
H        1.07338043       2.52115860      -0.00000000      -0.09942374       0.04038263      -0.00000000
H       -0.58193514       3.41969884      -0.00000000      -0.01481820      -0.05061947      -0.00000000
H        0.06025235      -2.11086771       0.00000000      -0.04294700       0.03683027      -0.00000000
H       -1.35106795      -1.46884643       0.88466004       0.02149075       0.02674602      -0.01707056
H       -1.35106795      -1.46884643      -0.88466004       0.02149076       0.02674602       0.01707056
12
Lattice="20.0 0.0 0.0 0.0 20.0 0.0 0.0 0.0 20.0" Properties=species:S:1:pos:R:3:REF_forces:R:3 REF_energy=-8332.39714513427 pbc="F F F"
C        0.00743432       0.02816473      -0.00000003       0.18188078      -0.02892543      -0.00000006
O        1.28514641      -0.12076728       0.00000005      -0.12240389       0.02093874      -0.00000026
O        2.11641763       0.94009386       0.00000001      -0.05948188      -0.02246272       0.00000012
C       -0.69001695       1.28932403      -0.00000025       0.02137041       0.07126542       0.00000242
C       -0.14597142       2.52772170       0.00000023      -0.02542004      -0.09567354      -0.00000310
C       -0.74295888      -1.27396957       0.00000002       0.04955298       0.11406359       0.00000017
H       -1.77441433       1.18645304       0.00000089       0.00919889       0.00028632      -0.00000110
H        0.92506603       2.66246304      -0.00000035       0.00678468      -0.00392564       0.00000041
H       -0.79619666       3.39957574      -0.00000134      -0.00500110      -0.01506719       0.00000151
H       -0.07236123      -2.12718557       0.00000008       0.05835972      -0.01889837       0.00000008
H       -1.38729644      -1.32826268       0.87055324      -0.05751429      -0.01330886       0.09714245
H       -1.38729651      -1.32826300      -0.87055311      -0.05751427      -0.01330856      -0.09714251
12
Lattice="20.0 0.0 0.0 0.0 20.0 0.0 0.0 0.0 20.0" Properties=species:S:1:pos:R:3:REF_forces:R:3 REF_energy=-8332.379126136231 pbc="F F F"
C        0.00735757       0.02964915      -0.00000003       0.00000000       0.00000000       0.00000000
O        1.28375354      -0.12744376       0.00000004       0.00000000       0.00000000       0.00000000
O        2.11997244       0.94546555       0.00000001       0.00000000       0.00000000       0.00000000
C       -0.69026770       1.29069036      -0.00000001       0.00000000       0.00000000       0.00000000
C       -0.14470139       2.52656807      -0.00000001       0.00000000       0.00000000       0.00000000
C       -0.75230880      -1.27824385       0.00000008       0.00000000       0.00000000       0.00000000
H       -1.77355502       1.17889152      -0.00000035       0.00000000       0.00000000       0.00000000
H        0.92674757       2.65888407      -0.00000006       0.00000000       0.00000000       0.00000000
H       -0.80988708       3.38699368       0.00000006       0.00000000       0.00000000       0.00000000
H       -0.01625402      -2.08595962      -0.00000068       0.00000000       0.00000000       0.00000000
H       -1.37684084      -1.31130318       0.90153577       0.00000000       0.00000000       0.00000000
H       -1.37684043      -1.31130435      -0.90153584       0.00000000       0.00000000       0.00000000
12
Lattice="20.0 0.0 0.0 0.0 20.0 0.0 0.0 0.0 20.0" Properties=species:S:1:pos:R:3:REF_forces:R:3 REF_energy=-8332.268460296047 pbc="F F F"
C        0.00495108       0.03152181       0.01003742       0.35031325      -0.16181640      -0.05679323
O        1.29224867      -0.12612207       0.00182348      -0.20197797       0.18888745       0.00658835
O        2.12904615       0.95589226      -0.00015033      -0.16458931      -0.16480086      -0.00095999
C       -0.68860603       1.28753468      -0.00069905      -0.37783198      -0.18195451       0.08752906
C       -0.14829771       2.51156995      -0.01291594      -0.22377899       0.34456206      -0.05461929
C       -0.75625742      -1.27580248       0.00673903      -0.07989653       0.09804518      -0.29424126
H       -1.80690473       1.14288896       0.05260549       0.33815071       0.10499539      -0.04634566
H        0.91274736       2.66966872      -0.04377961       0.07334312      -0.02171208       0.00449020
H       -0.82290100       3.40145179      -0.03457757       0.15604777      -0.21579667       0.02656770
H       -0.04080225      -2.12534168      -0.00585009      -0.16620095       0.12083793       0.03381799
H       -1.41718188      -1.27995143       0.88653285       0.04258881      -0.09463576      -0.03380248
H       -1.43166789      -1.31407279      -0.91915821       0.25372194      -0.01536245       0.32727960
12
Lattice="20.0 0.0 0.0 0.0 20.0 0.0 0.0 0.0 20.0" Properties=species:S:1:pos:R:3:REF_forces:R:3 REF_energy=-8332.401256870746 pbc="F F F"
C        0.00743947       0.02815931      -0.00000003       0.00000000       0.00000000       0.00000000
O        1.28513072      -0.12076902       0.00000005       0.00000000       0.00000000       0.00000000
O        2.11642056       0.94009711       0.00000001       0.00000000       0.00000000       0.00000000
C       -0.69004154       1.28930715      -0.00000025       0.00000000       0.00000000       0.00000000
C       -0.14597012       2.52773035       0.00000023       0.00000000       0.00000000       0.00000000
C       -0.74212165      -1.27339939       0.00000002       0.00000000       0.00000000       0.00000000
H       -1.77407150       1.18650155       0.00000089       0.00000000       0.00000000       0.00000000
H        0.92507047       2.66244803      -0.00000035       0.00000000       0.00000000       0.00000000
H       -0.79620570       3.39959670      -0.00000134       0.00000000       0.00000000       0.00000000
H       -0.06785019      -2.13241505       0.00000008       0.00000000       0.00000000       0.00000000
H       -1.39450010      -1.32900292       0.88080612       0.00000000       0.00000000       0.00000000
H       -1.39450018      -1.32900324      -0.88080599       0.00000000       0.00000000       0.00000000
12
Lattice="20.0 0.0 0.0 0.0 20.0 0.0 0.0 0.0 20.0" Properties=species:S:1:pos:R:3:REF_forces:R:3 REF_energy=-8332.245314194266 pbc="F F F"
C        0.00475031       0.02928796       0.04609444       0.00000000       0.00000000       0.00000000
O        1.28415001      -0.12777333      -0.00723467       0.00000000       0.00000000       0.00000000
O        2.12046178       0.94586363       0.04486431       0.00000000       0.00000000       0.00000000
C       -0.68910509       1.28848734       0.15585340       0.00000000       0.00000000       0.00000000
C       -0.14593170       2.52636555      -0.13743538       0.00000000       0.00000000       0.00000000
C       -0.74615251      -1.26962779      -0.07713490       0.00000000       0.00000000       0.00000000
H       -1.77306747       1.18613163       0.41692397       0.00000000       0.00000000       0.00000000
H        0.92471574       2.66385982      -0.43568549       0.00000000       0.00000000       0.00000000
H       -0.80059562       3.39484846      -0.09441615       0.00000000       0.00000000       0.00000000
H       -0.04815770      -2.10926907      -0.24238170       0.00000000       0.00000000       0.00000000
H       -1.33534269      -1.47197462       0.83761712       0.00000000       0.00000000       0.00000000
H       -1.44972742      -1.21818450      -0.92893801       0.00000000       0.00000000       0.00000000
12
Lattice="20.0 0.0 0.0 0.0 20.0 0.0 0.0 0.0 20.0" Properties=species:S:1:pos:R:3:REF_forces:R:3 REF_energy=-8332.379878588414 pbc="F F F"
C        0.00870630       0.03454837      -0.00001191       0.00000000       0.00000000       0.00000000
O        1.29309812      -0.11749678       0.00000058       0.00000000       0.00000000       0.00000000
O        2.11404049       0.93762466       0.00000043       0.00000000       0.00000000       0.00000000
C       -0.68411302       1.28596136       0.00000189       0.00000000       0.00000000       0.00000000
C       -0.14975387       2.52703721       0.00000037       0.00000000       0.00000000       0.00000000
C       -0.75789436      -1.26927692       0.00001318       0.00000000       0.00000000       0.00000000
H       -1.76571179       1.15928267       0.00000497       0.00000000       0.00000000       0.00000000
H        0.92432343       2.63959091       0.00000569       0.00000000       0.00000000       0.00000000
H       -0.78468738       3.40982872      -0.00001054       0.00000000       0.00000000       0.00000000
H       -0.02926254      -2.08459966      -0.00002728       0.00000000       0.00000000       0.00000000
H       -1.39408594      -1.37794380       0.88767741       0.00000000       0.00000000       0.00000000
H       -1.39402090      -1.37785875      -0.88770853       0.00000000       0.00000000       0.00000000
12
Lattice="20.0 0.0 0.0 0.0 20.0 0.0 0.0 0.0 20.0" Properties=species:S:1:pos:R:3:REF_forces:R:3 REF_energy=-8332.372846904187 pbc="F F F"
C        0.00473042       0.02931234       0.00000001       0.00000000       0.00000000       0.00000000
O        1.28413030      -0.12778038       0.00000000       0.00000000       0.00000000       0.00000000
O        2.12047131       0.94587172       0.00000000       0.00000000       0.00000000       0.00000000
C       -0.68770776       1.28858131      -0.00000001       0.00000000       0.00000000       0.00000000
C       -0.14615325       2.52704040      -0.00000000       0.00000000       0.00000000       0.00000000
C       -0.74828120      -1.26790834       0.00000004       0.00000000       0.00000000       0.00000000
H       -1.78964794       1.18461526      -0.00000005       0.00000000       0.00000000       0.00000000
H        0.92140757       2.66351886       0.00000003       0.00000000       0.00000000       0.00000000
H       -0.79469184       3.38707318       0.00000001       0.00000000       0.00000000       0.00000000
H       -0.03018108      -2.13090295      -0.00000000       0.00000000       0.00000000       0.00000000
H       -1.38865378      -1.34442538       0.87735245       0.00000000       0.00000000       0.00000000
H       -1.38865416      -1.34442549      -0.87735292       0.00000000       0.00000000       0.00000000
12
Lattice="20.0 0.0 0.0 0.0 20.0 0.0 0.0 0.0 20.0" Properties=species:S:1:pos:R:3:REF_forces:R:3 REF_energy=-8332.359767540207 pbc="F F F"
C        0.00475169       0.02928901       0.03791265       0.22259119      -0.05213184      -0.03815290
O        1.28414818      -0.12777159       0.07638601      -0.09378897       0.17399134      -0.12187731
O        2.12046044       0.94586659      -0.06319423      -0.14765718      -0.14782406       0.10170603
C       -0.68910120       1.28848411      -0.00836292       0.01286047       0.07836557       0.00880577
C       -0.14593546       2.52636191       0.00565037      -0.02733036      -0.08124791      -0.00490075
C       -0.74614992      -1.26962700      -0.03522286      -0.01345634      -0.01212974       0.03429370
H       -1.77306019       1.18612461      -0.03994561       0.00990546      -0.00034178       0.00423074
H        0.92470893       2.66386108       0.02410708       0.00670762      -0.00666502      -0.00114350
H       -0.80060280       3.39484027       0.00218310      -0.00023003      -0.00919254      -0.00162163
H       -0.04815587      -2.10926621      -0.11740841      -0.01681981       0.03390629       0.01198218
H       -1.38821316      -1.42470268       0.84424694       0.02403906       0.02210927      -0.02833169
H       -1.39685064      -1.26546010      -0.92230448       0.02369114       0.00170583       0.03521308
12
Lattice="20.0 0.0 0.0 0.0 20.0 0.0 0.0 0.0 20.0" Properties=species:S:1:pos:R:3:REF_forces:R:3 REF_energy=-8331.836554728994 pbc="F F F"
C        0.02107843       0.02977251       0.05594841       0.58397689      -0.41506134      -0.25063224
O        1.32646146      -0.11292345       0.01202552      -0.41107756       0.29823603       0.04578263
O        2.17046882       1.00401969      -0.00103146      -0.31188766      -0.32686225      -0.00070677
C       -0.71308300       1.25593033       0.00700931       0.43813031      -0.22453999       0.25354866
C       -0.17172836       2.47025956      -0.08781479       0.18885844       0.06387081      -0.22921738
C       -0.81393517      -1.28967224       0.02295014       0.29857916       0.91864453       0.26505320
H       -1.71921938       1.04439836       0.25702925      -0.38872517       0.14978126      -0.06612144
H        0.88502698       2.66527406      -0.26391558      -0.06747104      -0.12781708       0.05639973
H       -0.82665209       3.29031635      -0.17832904      -0.23952964       0.32623129       0.07088791
H       -0.15590397      -2.13344776       0.01100469      -0.00727423      -0.21635172       0.11057165
H       -1.49636635      -1.08668076       0.86453386       0.05551045      -0.34648833       0.04719705
H       -1.42823109      -1.20353408      -0.84201019      -0.13937578      -0.09932250      -0.30309725
12
Lattice="20.0 0.0 0.0 0.0 20.0 0.0 0.0 0.0 20.0" Properties=species:S:1:pos:R:3:REF_forces:R:3 REF_energy=-8332.386076351115 pbc="F F F"
C        0.00744474       0.02817443      -0.00000003       0.18077435      -0.02907031      -0.00000006
O        1.28511993      -0.12076742       0.00000005      -0.11822922       0.02101243      -0.00000025
O        2.11645677       0.94008105       0.00000001      -0.06632576      -0.02043156       0.00000012
C       -0.68995668       1.28924346      -0.00000025       0.01367356       0.08223709       0.00000243
C       -0.14354947       2.52747648       0.00000023      -0.37913300      -0.06663052      -0.00000309
C       -0.74211941      -1.27339879       0.00000002      -0.05446153       0.04786600       0.00000016
H       -1.77539969       1.18630652       0.00000089       0.02092148       0.00207721      -0.00000111
H        0.90192006       2.65899323      -0.00000035       0.29574734       0.03832478       0.00000027
H       -0.80205884       3.40706677      -0.00000134       0.06104944      -0.09925140       0.00000164
H       -0.06785110      -2.13241078       0.00000008       0.01520595       0.03367935       0.00000008
H       -1.39450856      -1.32900213       0.88081506       0.01567899      -0.00755869      -0.00589433
H       -1.39450863      -1.32900245      -0.88081494       0.01567903      -0.00755836       0.00589427
12
Lattice="20.0 0.0 0.0 0.0 20.0 0.0 0.0 0.0 20.0" Properties=species:S:1:pos:R:3:REF_forces:R:3 REF_energy=-8332.36053527474 pbc="F F F"
C        0.00804262       0.03338158      -0.00000000       0.10520422      -0.19050930       0.00000000
O        1.28275175      -0.12798724      -0.00000000      -0.03790979       0.14869684      -0.00000000
O        2.12033589       0.94563963       0.00000000      -0.12085687      -0.10740739      -0.00000000
C       -0.69260021       1.27308899       0.00000000       0.11126829       0.59108053      -0.00000000
C       -0.14172795       2.53831072      -0.00000000      -0.15679895      -0.46471146      -0.00000000
C       -0.74676673      -1.27019998       0.00000000       0.01666831       0.02754139      -0.00000000
H       -1.78073961       1.20765551      -0.00000000       0.03059955      -0.06239920       0.00000000
H        0.93466971       2.64966474      -0.00000000      -0.02201783       0.03488202       0.00000000
H       -0.81638801       3.39331829       0.00000000       0.04495728      -0.00463867       0.00000000
H       -0.04626906      -2.10779035       0.00000000      -0.00680497       0.00384984       0.00000000
H       -1.39480649      -1.34564946       0.88186970       0.01838922       0.01170534      -0.00252848
H       -1.39480649      -1.34564946      -0.88186970       0.01838921       0.01170534       0.00252848
12
Lattice="20.0 0.0 0.0 0.0 20.0 0.0 0.0 0.0 20.0" Properties=species:S:1:pos:R:3:REF_forces:R:3 REF_energy=-8332.40062229845 pbc="F F F"
C        0.00743947       0.02815931      -0.00000254       0.18159562      -0.02688268       0.00056444
O        1.28513072      -0.12076902      -0.00000193      -0.12034708       0.02109793       0.00026235
O        2.11642056       0.94009711      -0.00000091      -0.05991474      -0.02294994       0.00013273
C       -0.69004154       1.28930715       0.00000136       0.02434077       0.07299242      -0.00017119
C       -0.14597012       2.52773035       0.00000067      -0.02555499      -0.09655111      -0.00004712
C       -0.74212165      -1.27339939      -0.00083760      -0.05249318       0.04807267       0.10052098
H       -1.77407150       1.18650155      -0.00000920       0.00578313      -0.00022807       0.00009048
H        0.92507047       2.66244803      -0.00000417       0.00674324      -0.00378151       0.00005511
H       -0.79620570       3.39959670      -0.00000009      -0.00489827      -0.01525181      -0.00000346
H       -0.06785019      -2.13241505      -0.00016268       0.01512729       0.03367841       0.00139012
H       -1.39836746      -1.32940212       0.88591024       0.05400403      -0.00433113      -0.05618623
H       -1.39063283      -1.32860403      -0.87570187      -0.02452066      -0.01077369      -0.04668494
12
Lattice="20.0 0.0 0.0 0.0 20.0 0.0 0.0 0.0 20.0" Properties=species:S:1:pos:R:3:REF_forces:R:3 REF_energy=-8332.369405151901 pbc="F F F"
C        0.00475872       0.02930917       0.00000000       0.00000000       0.00000000       0.00000000
O        1.28413380      -0.12776944      -0.00000000       0.00000000       0.00000000       0.00000000
O        2.12050871       0.94584517      -0.00000001       0.00000000       0.00000000       0.00000000
C       -0.68898810       1.28839920       0.00000001       0.00000000       0.00000000       0.00000000
C       -0.14270793       2.52602344       0.00000000       0.00000000       0.00000000       0.00000000
C       -0.74614693      -1.26962620       0.00000001       0.00000000       0.00000000       0.00000000
H       -1.77483072       1.18586459       0.00000003       0.00000000       0.00000000       0.00000000
H        0.89384157       2.65925467      -0.00000002       0.00000000       0.00000000       0.00000000
H       -0.80840680       3.40480012       0.00000001       0.00000000       0.00000000       0.00000000
H       -0.04815714      -2.10926044      -0.00000002       0.00000000       0.00000000       0.00000000
H       -1.39254313      -1.34508037       0.88328759       0.00000000       0.00000000       0.00000000
H       -1.39254320      -1.34508031      -0.88328773       0.00000000       0.00000000       0.00000000
12
Lattice="20.0 0.0 0.0 0.0 20.0 0.0 0.0 0.0 20.0" Properties=species:S:1:pos:R:3:REF_forces:R:3 REF_energy=-8331.836113149 pbc="F F F"
C        0.00677800       0.03452601      -0.00000000       0.14033795      -0.07483293       0.00000000
O        1.30200294      -0.03323168       0.00000000      -0.22990593      -0.18887900      -0.00000000
O        2.23869955       1.01940627      -0.00000000      -0.32155270      -0.22042558      -0.00000000
C       -0.80812346       1.19833720      -0.00000000       0.35616684       0.39933501       0.00000000
C       -0.10113301       2.34700812      -0.00000000      -0.09249565       0.32341073      -0.00000000
C       -0.83431554      -1.20617207       0.00000000       0.15156339      -0.27496883      -0.00000000
H       -1.89025213       1.09840423       0.00000000       0.02332785       0.01411027       0.00000000
H        1.00585965       2.21844802      -0.00000000      -0.19538135       0.14917044       0.00000000
H       -0.57489163       3.34871961       0.00000000       0.06019397      -0.18388634       0.00000000
H       -0.27177846      -2.15663194       0.00000000      -0.04188223       0.11830646       0.00000000
H       -1.50021208      -1.16927530       0.87945162       0.07477341      -0.03035120      -0.03907992
H       -1.50021208      -1.16927530      -0.87945162       0.07477341      -0.03035120       0.03907992
12
Lattice="20.0 0.0 0.0 0.0 20.0 0.0 0.0 0.0 20.0" Properties=species:S:1:pos:R:3:REF_forces:R:3 REF_energy=-8332.400711025986 pbc="F F F"
C        0.00744478       0.02815347      -0.00000003       0.18094606      -0.02636480      -0.00000005
O        1.28513519      -0.12076683       0.00000005      -0.12096658       0.02081389      -0.00000026
O        2.11641785       0.94009582       0.00000001      -0.05946149      -0.02272115       0.00000012
C       -0.69039006       1.28928283      -0.00000025       0.06861748       0.07589876       0.00000238
C       -0.14591565       2.52756071       0.00000023      -0.03233524      -0.07544342      -0.00000313
C       -0.74158892      -1.27382899       0.00000002      -0.12107419       0.10461388       0.00000016
H       -1.76992266       1.18687906       0.00000089      -0.03836686      -0.00422908      -0.00000106
H        0.92589586       2.66253358      -0.00000035      -0.00183289      -0.00465738       0.00000041
H       -0.79768372       3.40153884      -0.00000134       0.01043847      -0.03551775       0.00000154
H       -0.07234316      -2.12700674       0.00000008       0.06216573      -0.02536442       0.00000008
H       -1.39546945      -1.32916688       0.88228664       0.02589463      -0.00597768      -0.02134119
H       -1.39546952      -1.32916720      -0.88228652       0.02589467      -0.00597734       0.02134113
12
Lattice="20.0 0.0 0.0 0.0 20.0 0.0 0.0 0.0 20.0" Properties=species:S:1:pos:R:3:REF_forces:R:3 REF_energy=-8332.391775024236 pbc="F F F"
C        0.00472337       0.02926421      -0.00000000       0.00000000       0.00000000       0.00000000
O        1.28416250      -0.12777109      -0.00000000       0.00000000       0.00000000       0.00000000
O        2.12045885       0.94586529      -0.00000000       0.00000000       0.00000000       0.00000000
C       -0.69014584       1.28841583       0.00000001       0.00000000       0.00000000       0.00000000
C       -0.14576440       2.52579845       0.00000000       0.00000000       0.00000000       0.00000000
C       -0.74685397      -1.26907977      -0.00000004       0.00000000       0.00000000       0.00000000
H       -1.76057395       1.18720555      -0.00000000       0.00000000       0.00000000       0.00000000
H        0.92743901       2.66415661      -0.00000000       0.00000000       0.00000000       0.00000000
H       -0.80541838       3.40117438      -0.00000001       0.00000000       0.00000000       0.00000000
H       -0.04239680      -2.11616705       0.00000000       0.00000000       0.00000000       0.00000000
H       -1.39114449      -1.34482869       0.88117027       0.00000000       0.00000000       0.00000000
H       -1.39114413      -1.34482866      -0.88116981       0.00000000       0.00000000       0.00000000
12
Lattice="20.0 0.0 0.0 0.0 20.0 0.0 0.0 0.0 20.0" Properties=species:S:1:pos:R:3:REF_forces:R:3 REF_energy=-8332.315501777583 pbc="F F F"
C        0.02843456       0.02038356      -0.00000028       0.00000000       0.00000000       0.00000000
O        1.27358177      -0.12516515       0.00000003       0.00000000       0.00000000       0.00000000
O        2.11999944       0.94546147      -0.00000005       0.00000000       0.00000000       0.00000000
C       -0.69373747       1.29530470       0.00000010       0.00000000       0.00000000       0.00000000
C       -0.14514983       2.52401268       0.00000006       0.00000000       0.00000000       0.00000000
C       -0.74479106      -1.27145388      -0.00000026       0.00000000       0.00000000       0.00000000
H       -1.77752325       1.19132064      -0.00000006       0.00000000       0.00000000       0.00000000
H        0.92431932       2.66867404      -0.00000047       0.00000000       0.00000000       0.00000000
H       -0.80283489       3.39052555      -0.00000018       0.00000000       0.00000000       0.00000000
H       -0.00395544      -2.07429043       0.00000493       0.00000000       0.00000000       0.00000000
H       -1.44983038      -1.34558707       0.84198100       0.00000000       0.00000000       0.00000000
H       -1.44983248      -1.34557915      -0.84198033       0.00000000       0.00000000       0.00000000
12
Lattice="20.0 0.0 0.0 0.0 20.0 0.0 0.0 0.0 20.0" Properties=species:S:1:pos:R:3:REF_forces:R:3 REF_energy=-8332.343256598491 pbc="F F F"
C        0.00471531       0.02938528       0.00000002       0.00000000       0.00000000       0.00000000
O        1.28416056      -0.12777009       0.00000000       0.00000000       0.00000000       0.00000000
O        2.12043454       0.94587128       0.00000004       0.00000000       0.00000000       0.00000000
C       -0.68649216       1.28901230      -0.00000006       0.00000000       0.00000000       0.00000000
C       -0.14561169       2.52301996      -0.00000003       0.00000000       0.00000000       0.00000000
C       -0.74605934      -1.26967084      -0.00000007       0.00000000       0.00000000       0.00000000
H       -1.80168213       1.18355125      -0.00000012       0.00000000       0.00000000       0.00000000
H        0.94380828       2.66617385       0.00000013       0.00000000       0.00000000       0.00000000
H       -0.82535767       3.42764538      -0.00000001       0.00000000       0.00000000       0.00000000
H       -0.04863182      -2.10880490       0.00000004       0.00000000       0.00000000       0.00000000
H       -1.39284538      -1.34518070       0.88374008       0.00000000       0.00000000       0.00000000
H       -1.39284478      -1.34518092      -0.88373913       0.00000000       0.00000000       0.00000000
12
Lattice="20.0 0.0 0.0 0.0 20.0 0.0 0.0 0.0 20.0" Properties=species:S:1:pos:R:3:REF_forces:R:3 REF_energy=-8332.10816975342 pbc="F F F"
C        0.00494168       0.02945538       0.00000000       0.19327344      -0.06829177       0.00000000
O        1.28405212      -0.12777492      -0.00000000      -0.08932299       0.13906459       0.00000000
O        2.12047110       0.94587525       0.00000000      -0.12866085      -0.11908219       0.00000000
C       -0.68209467       1.28894204       0.00000000      -0.66511332       0.04960856      -0.00000000
C       -0.14708284       2.53014112       0.00000000       0.17275434      -0.63927779       0.00000000
C       -0.74142530      -1.27329941       0.00000000      -0.67712512       0.57923287      -0.00000000
H       -1.85680706       1.17887469      -0.00000000       0.68655310       0.05699384      -0.00000000
H        0.90639811       2.66187905       0.00000000       0.20672817       0.01650081      -0.00000000
H       -0.76830389       3.35235644      -0.00000000      -0.40338103       0.51822633      -0.00000000
H       -0.08680405      -2.06295571       0.00000000       0.49184430      -0.58505738      -0.00000000
H       -1.40184266      -1.34677707       0.89740497       0.10651966       0.02636372      -0.14777231
H       -1.40184266      -1.34677707      -0.89740497       0.10651966       0.02636372       0.14777231
12
Lattice="20.0 0.0 0.0 0.0 20.0 0.0 0.0 0.0 20.0" Properties=species:S:1:pos:R:3:REF_forces:R:3 REF_energy=-8331.821392789161 pbc="F F F"
C        0.09983042       0.03800564       0.15485303       0.23625745      -0.62194158       0.08471545
O        1.37991687      -0.08651911       0.09708974      -0.24731548       0.20228352      -0.07369675
O        2.15074412       1.06695533      -0.01463406      -0.17201592      -0.23364521       0.01805084
C       -0.65189996       1.22237402       0.18513023      -0.31050126       0.65147033      -0.29823038
C       -0.32107859       2.32335825      -0.55635161      -0.56849628       0.09984821       0.40617512
C       -0.80865399      -1.21562419       0.15433222       0.70328989       0.25749588       0.00789671
H       -1.68222332       1.08709771       0.62228670       0.31261709       0.13570712      -0.16088092
H        0.64483649       2.43975535      -1.00121121       0.11431439      -0.01901141      -0.05977625
H       -1.09586064       3.14896845      -0.65186177       0.32005522      -0.28467380       0.00970763
H       -0.24280331      -2.13819207       0.31438286      -0.06398147       0.01069077      -0.02355630
H       -1.50735730      -1.01086296       0.92477476      -0.24713413      -0.10156285       0.28393067
H       -1.34605488      -1.19625542      -0.77496865      -0.07763741      -0.09591114      -0.19474218
12
Lattice="20.0 0.0 0.0 0.0 20.0 0.0 0.0 0.0 20.0" Properties=species:S:1:pos:R:3:REF_forces:R:3 REF_energy=-8332.398627753822 pbc="F F F"
C        0.00743037       0.02818338      -0.00000003       0.18275737      -0.02980224      -0.00000006
O        1.28513382      -0.12076864       0.00000005      -0.12088095       0.02097483      -0.00000026
O        2.11641408       0.94009828       0.00000001      -0.05882707      -0.02308985       0.00000012
C       -0.68938933       1.28943919      -0.00000025      -0.05667854       0.05565447       0.00000246
C       -0.14588919       2.52689483       0.00000023      -0.03388114       0.00705879      -0.00000322
C       -0.74209896      -1.27341041       0.00000002      -0.05705754       0.04940127       0.00000016
H       -1.78122647       1.18585822       0.00000089       0.08002802       0.00651007      -0.00000116
H        0.92984559       2.66302628      -0.00000035      -0.04312610      -0.00971353       0.00000043
H       -0.80239456       3.40779819      -0.00000134       0.05820070      -0.09982686       0.00000163
H       -0.06796974      -2.13229905       0.00000008       0.01639633       0.03241220       0.00000008
H       -1.39457839      -1.32902776       0.88092213       0.01641364      -0.00724467      -0.00701970
H       -1.39457847      -1.32902808      -0.88092201       0.01641368      -0.00724434       0.00701965
12
Lattice="20.0 0.0 0.0 0.0 20.0 0.0 0.0 0.0 20.0" Properties=species:S:1:pos:R:3:REF_forces:R:3 REF_energy=-8332.171562001695 pbc="F F F"
C        0.00475169       0.02928901       0.10898800       0.25676883      -0.08484801      -0.26428325
O        1.28414818      -0.12777159      -0.06354963      -0.18911161       0.20051314       0.21254525
O        2.12046044       0.94586659       0.00740486      -0.15800140      -0.13366103      -0.02995890
C       -0.68910120       1.28848411       0.02334845      -0.17593559       0.06942015      -0.08861421
C       -0.14593546       2.52636191      -0.01421472       0.07988144       0.19888286       0.00796724
C       -0.74614992      -1.26962700      -0.00734214      -0.03794411       0.00934351       0.01486326
H       -1.77306019       1.18612461      -0.21012645       0.21598991      -0.01316376       0.07926065
H        0.92470893       2.66386108       0.27649839      -0.33437357       0.00911986      -0.14435492
H       -0.80060280       3.39484027      -0.34576201       0.27570919      -0.30260807       0.18161453
H       -0.04815587      -2.10926621      -0.04686531      -0.00246923       0.01574321       0.00923800
H       -1.44204352      -1.42080101       0.83194941       0.04298685       0.02982928      -0.03254881
H       -1.34302028      -1.26936178      -0.93460201       0.02653458       0.00156280       0.05378869
12
Lattice="20.0 0.0 0.0 0.0 20.0 0.0 0.0 0.0 20.0" Properties=species:S:1:pos:R:3:REF_forces:R:3 REF_energy=-8332.398679466853 pbc="F F F"
C        0.00744744       0.02815055      -0.00000003       0.18060711      -0.02612701      -0.00000005
O        1.28513742      -0.12076573       0.00000005      -0.12126948       0.02067388      -0.00000026
O        2.11641649       0.94009518       0.00000001      -0.05923960      -0.02261075       0.00000012
C       -0.69056432       1.28927068      -0.00000025       0.09119880       0.07739684       0.00000236
C       -0.14588841       2.52747588       0.00000023      -0.03565635      -0.06501185      -0.00000315
C       -0.74132255      -1.27404378       0.00000002      -0.15520472       0.13402143       0.00000016
H       -1.76784823       1.18706781       0.00000089      -0.06088045      -0.00627097      -0.00000104
H        0.92630855       2.66257636      -0.00000035      -0.00610699      -0.00509454       0.00000041
H       -0.79842273       3.40250991      -0.00000134       0.01801914      -0.04553627       0.00000156
H       -0.07458964      -2.12430259       0.00000008       0.08645481      -0.05589615       0.00000008
H       -1.39595412      -1.32924886       0.88302691       0.03100892      -0.00523925      -0.02903769
H       -1.39595419      -1.32924918      -0.88302678       0.03100896      -0.00523891       0.02903763
12
Lattice="20.0 0.0 0.0 0.0 20.0 0.0 0.0 0.0 20.0" Properties=species:S:1:pos:R:3:REF_forces:R:3 REF_energy=-8332.265121519498 pbc="F F F"
C        0.00475169       0.02928901       0.02852325       0.22231846      -0.03706277      -0.40758439
O        1.28414818      -0.12777159      -0.00142057      -0.10223513       0.13793766       0.03368894
O        2.12046044       0.94586659      -0.00104200      -0.12442120      -0.11659050       0.02024304
C       -0.68910120       1.28848411      -0.00499653       0.01095895       0.08438758       0.07187824
C       -0.14593546       2.52636191      -0.00069864      -0.02639305      -0.07916583       0.01015258
C       -0.74614992      -1.26962700      -0.03151127      -0.04280766      -0.02420773       0.44098627
H       -1.77306019       1.18612461      -0.00749563       0.00514249      -0.00013684       0.00849076
H        0.92470893       2.66386108      -0.01224452       0.00590955      -0.00525288       0.01458744
H       -0.80060280       3.39484027       0.02366274       0.00068910      -0.01099232      -0.02879468
H       -0.04815587      -2.10926621       0.06468153      -0.02227923       0.03189120      -0.07776115
H       -1.31497792      -1.24378076       0.92025384      -0.05925835      -0.11569009      -0.10550322
H       -1.47008588      -1.44638202      -0.84629758       0.13319733       0.13559809       0.01958329
12
Lattice="20.0 0.0 0.0 0.0 20.0 0.0 0.0 0.0 20.0" Properties=species:S:1:pos:R:3:REF_forces:R:3 REF_energy=-8332.288061626512 pbc="F F F"
C        0.00565908       0.03162987       0.00000321       0.00000000       0.00000000       0.00000000
O        1.29213510      -0.08549355      -0.00000268       0.00000000       0.00000000       0.00000000
O        2.17333664       0.97875648       0.00000105       0.00000000       0.00000000       0.00000000
C       -0.74232837       1.24816776       0.00000052       0.00000000       0.00000000       0.00000000
C       -0.12589807       2.44615216      -0.00000112       0.00000000       0.00000000       0.00000000
C       -0.78558151      -1.24124734       0.00000073       0.00000000       0.00000000       0.00000000
H       -1.82546903       1.14689260      -0.00000649       0.00000000       0.00000000       0.00000000
H        0.96100200       2.46466712       0.00000655       0.00000000       0.00000000       0.00000000
H       -0.69966170       3.37421400      -0.00001180       0.00000000       0.00000000       0.00000000
H       -0.14817003      -2.13045076       0.00000187       0.00000000       0.00000000       0.00000000
H       -1.44069464      -1.26645429       0.88156351       0.00000000       0.00000000       0.00000000
H       -1.44068759      -1.26645193      -0.88156756       0.00000000       0.00000000       0.00000000
12
Lattice="20.0 0.0 0.0 0.0 20.0 0.0 0.0 0.0 20.0" Properties=species:S:1:pos:R:3:REF_forces:R:3 REF_energy=-8332.315915840329 pbc="F F F"
C        0.00475175       0.02928864      -0.07311138       0.00000000       0.00000000       0.00000000
O        1.28414878      -0.12777088       0.04263039       0.00000000       0.00000000       0.00000000
O        2.12046056       0.94586854      -0.00496733       0.00000000       0.00000000       0.00000000
C       -0.68910192       1.28848217      -0.01566266       0.00000000       0.00000000       0.00000000
C       -0.14593329       2.52635964       0.00953552       0.00000000       0.00000000       0.00000000
C       -0.74615203      -1.26962576       0.00492529       0.00000000       0.00000000       0.00000000
H       -1.77306137       1.18612311       0.14095704       0.00000000       0.00000000       0.00000000
H        0.92471185       2.66385551      -0.18548070       0.00000000       0.00000000       0.00000000
H       -0.80059863       3.39484004       0.23194421       0.00000000       0.00000000       0.00000000
H       -0.04816072      -2.10926757       0.03143820       0.00000000       0.00000000       0.00000000
H       -1.35932112      -1.29428397       0.91770648       0.00000000       0.00000000       0.00000000
H       -1.42574801      -1.39587248      -0.84884494       0.00000000       0.00000000       0.00000000
12
Lattice="20.0 0.0 0.0 0.0 20.0 0.0 0.0 0.0 20.0" Properties=species:S:1:pos:R:3:REF_forces:R:3 REF_energy=-8332.391541783401 pbc="F F F"
C        0.00475158       0.02928896      -0.00020125       0.00000000       0.00000000       0.00000000
O        1.28414823      -0.12777172       0.00063705       0.00000000       0.00000000       0.00000000
O        2.12046051       0.94586668      -0.00023627       0.00000000       0.00000000       0.00000000
C       -0.68910135       1.28848418      -0.00496934       0.00000000       0.00000000       0.00000000
C       -0.14593530       2.52636164       0.00064031       0.00000000       0.00000000       0.00000000
C       -0.74614993      -1.26962682      -0.00060690       0.00000000       0.00000000       0.00000000
H       -1.77306041       1.18612556       0.04631497       0.00000000       0.00000000       0.00000000
H        0.92470886       2.66386230       0.02371896       0.00000000       0.00000000       0.00000000
H       -0.80060369       3.39483918      -0.01735957       0.00000000       0.00000000       0.00000000
H       -0.04815539      -2.10926569       0.00105546       0.00000000       0.00000000       0.00000000
H       -1.39127106      -1.34358416       0.88383838       0.00000000       0.00000000       0.00000000
H       -1.39379254      -1.34657871      -0.88271323       0.00000000       0.00000000       0.00000000
12
Lattice="20.0 0.0 0.0 0.0 20.0 0.0 0.0 0.0 20.0" Properties=species:S:1:pos:R:3:REF_forces:R:3 REF_energy=-8332.390623723317 pbc="F F F"
C        0.00475166       0.02928950       0.01695505       0.00000000       0.00000000       0.00000000
O        1.28414832      -0.12777168       0.03416086       0.00000000       0.00000000       0.00000000
O        2.12046203       0.94586537      -0.02826132       0.00000000       0.00000000       0.00000000
C       -0.68910226       1.28848419      -0.00374000       0.00000000       0.00000000       0.00000000
C       -0.14593625       2.52636230       0.00252692       0.00000000       0.00000000       0.00000000
C       -0.74615009      -1.26962642      -0.01575214       0.00000000       0.00000000       0.00000000
H       -1.77306137       1.18612416      -0.01786420       0.00000000       0.00000000       0.00000000
H        0.92470861       2.66386093       0.01078100       0.00000000       0.00000000       0.00000000
H       -0.80060325       3.39484124       0.00097631       0.00000000       0.00000000       0.00000000
H       -0.04815622      -2.10926589      -0.05250662       0.00000000       0.00000000       0.00000000
H       -1.39060082      -1.38068823       0.86582162       0.00000000       0.00000000       0.00000000
H       -1.39446361      -1.30947281      -0.90073003       0.00000000       0.00000000       0.00000000
12
Lattice="20.0 0.0 0.0 0.0 20.0 0.0 0.0 0.0 20.0" Properties=species:S:1:pos:R:3:REF_forces:R:3 REF_energy=-8332.396471635137 pbc="F F F"
C        0.00743595       0.02814923      -0.00000003       0.18218759      -0.02539058      -0.00000004
O        1.28513791      -0.12077010       0.00000005      -0.12179692       0.02118830      -0.00000027
O        2.11639643       0.94010781       0.00000001      -0.05570961      -0.02455257       0.00000013
C       -0.69009812       1.28934961      -0.00000025       0.03171290       0.06708782       0.00000241
C       -0.14758388       2.52789959       0.00000023       0.18964176      -0.12297084      -0.00000309
C       -0.74212314      -1.27339979       0.00000002      -0.05404539       0.04796142       0.00000017
H       -1.77318604       1.18663156       0.00000089      -0.00438796      -0.00176839      -0.00000110
H        0.94050408       2.66475123      -0.00000035      -0.16364982      -0.02886259       0.00000049
H       -0.79230361       3.39461666      -0.00000134      -0.05090111       0.04402207       0.00000142
H       -0.06784958      -2.13241790       0.00000008       0.01509744       0.03366524       0.00000008
H       -1.39449447      -1.32900344       0.88080015       0.01552887      -0.00743495      -0.00575106
H       -1.39449454      -1.32900376      -0.88080003       0.01552892      -0.00743462       0.00575100
12
Lattice="20.0 0.0 0.0 0.0 20.0 0.0 0.0 0.0 20.0" Properties=species:S:1:pos:R:3:REF_forces:R:3 REF_energy=-8332.376035111376 pbc="F F F"
C        0.00180774       0.02562885      -0.00000014       0.00000000       0.00000000       0.00000000
O        1.28539742      -0.12757874       0.00000003       0.00000000       0.00000000       0.00000000
O        2.12057181       0.94606956      -0.00000010       0.00000000       0.00000000       0.00000000
C       -0.68597150       1.30225368       0.00000017       0.00000000       0.00000000       0.00000000
C       -0.14969881       2.51567452       0.00000011       0.00000000       0.00000000       0.00000000
C       -0.74559818      -1.26911454      -0.00000002       0.00000000       0.00000000       0.00000000
H       -1.76619153       1.16686642      -0.00000001       0.00000000       0.00000000       0.00000000
H        0.91579979       2.67655887      -0.00000047       0.00000000       0.00000000       0.00000000
H       -0.78648377       3.39620184       0.00000000       0.00000000       0.00000000       0.00000000
H       -0.04984368      -2.11058658       0.00000034       0.00000000       0.00000000       0.00000000
H       -1.39049712      -1.34457354       0.88453354       0.00000000       0.00000000       0.00000000
H       -1.39049696      -1.34457208      -0.88453368       0.00000000       0.00000000       0.00000000
12
Lattice="20.0 0.0 0.0 0.0 20.0 0.0 0.0 0.0 20.0" Properties=species:S:1:pos:R:3:REF_forces:R:3 REF_energy=-8332.361028741429 pbc="F F F"
C        0.00470597       0.02652118       0.00000000       0.21728087       0.02165683      -0.00000000
O        1.28285374      -0.12757777      -0.00000000      -0.06536504       0.13115594       0.00000000
O        2.12107437       0.94616734      -0.00000000      -0.14436619      -0.12681042       0.00000000
C       -0.69776755       1.28318362      -0.00000000       0.19094514       0.18973096       0.00000000
C       -0.13807232       2.53163800       0.00000000      -0.18898547      -0.18748178       0.00000000
C       -0.74630148      -1.26799773      -0.00000000      -0.00166561      -0.03087677       0.00000001
H       -1.77733307       1.12362433      -0.00000000       0.01967288       0.11807459      -0.00000000
H        0.92702804       2.71464183      -0.00000000      -0.00143070      -0.10078226      -0.00000000
H       -0.78071844       3.41110874      -0.00000000      -0.03869627      -0.04101510      -0.00000000
H       -0.04759497      -2.10699459       0.00000000      -0.00267620       0.00397313      -0.00000000
H       -1.39041561      -1.34548758       0.88473664       0.00839916       0.01109210      -0.00956367
H       -1.39041561      -1.34548758      -0.88473664       0.00839916       0.01109210       0.00956367
12
Lattice="20.0 0.0 0.0 0.0 20.0 0.0 0.0 0.0 20.0" Properties=species:S:1:pos:R:3:REF_forces:R:3 REF_energy=-8332.367448291587 pbc="F F F"
C        0.00424511       0.02797976       0.00000000       0.21569946      -0.04750094      -0.00000000
O        1.27968449      -0.15140656      -0.00000000      -0.09734349       0.21360560       0.00000000
O        2.09090067       0.92748166       0.00000000      -0.03494539      -0.06922501       0.00000000
C       -0.65934564       1.31102084       0.00000000      -0.04697088       0.04879490      -0.00000000
C       -0.15713607       2.57120036       0.00000000       0.00302069      -0.16866260      -0.00000000
C       -0.72410851      -1.28549073      -0.00000000      -0.05126413       0.02828792       0.00000000
H       -1.74376220       1.20805470      -0.00000000      -0.00059833      -0.00462111      -0.00000000
H        0.90442125       2.77521435       0.00000000      -0.00756937      -0.02822735      -0.00000000
H       -0.85703059       3.40637043      -0.00000000       0.01906521      -0.02127740      -0.00000000
H        0.00774978      -2.09742478      -0.00000000      -0.01832788       0.01102583      -0.00000000
H       -1.36561186      -1.38903291       0.88423173       0.01022847       0.01888112      -0.00939433
H       -1.36561186      -1.38903291      -0.88423173       0.01022847       0.01888112       0.00939433
12
Lattice="20.0 0.0 0.0 0.0 20.0 0.0 0.0 0.0 20.0" Properties=species:S:1:pos:R:3:REF_forces:R:3 REF_energy=-8332.283454814553 pbc="F F F"
C       -0.01021505       0.03198970      -0.00000000       0.37326811      -0.11887679       0.00000000
O        1.25651566      -0.09506595       0.00000000       0.22136116      -0.24454863       0.00000000
O        2.12225689       0.93182438      -0.00000000      -0.14462360       0.04548111      -0.00000000
C       -0.65301920       1.26146328      -0.00000000      -0.34066409       0.38319043      -0.00000000
C       -0.13741079       2.50153004       0.00000000      -0.07020584       0.18051251       0.00000000
C       -0.74005347      -1.25002769      -0.00000000      -0.06334484      -0.17451326      -0.00000000
H       -1.73802929       1.18475026      -0.00000000      -0.01718966      -0.00313533       0.00000000
H        0.91514266       2.76492324      -0.00000000      -0.05141376      -0.08691671       0.00000000
H       -0.88770840       3.29792857       0.00000000       0.10315917       0.02449471       0.00000000
H       -0.02162120      -2.07219713       0.00000000      -0.02198810      -0.01588872       0.00000000
H       -1.38285539      -1.33704525       0.88452690       0.00659436       0.00483409      -0.00850015
H       -1.38285539      -1.33704525      -0.88452690       0.00659436       0.00483409       0.00850015
12
Lattice="20.0 0.0 0.0 0.0 20.0 0.0 0.0 0.0 20.0" Properties=species:S:1:pos:R:3:REF_forces:R:3 REF_energy=-8332.293622878416 pbc="F F F"
C        0.00544620       0.03537862       0.00000115       0.00000000       0.00000000       0.00000000
O        1.30889152      -0.12607661       0.00000009       0.00000000       0.00000000       0.00000000
O        2.11341716       0.93884746       0.00000006       0.00000000       0.00000000       0.00000000
C       -0.71422442       1.29598732       0.00000030       0.00000000       0.00000000       0.00000000
C       -0.13128024       2.51410228      -0.00000039       0.00000000       0.00000000       0.00000000
C       -0.75308749      -1.26983145      -0.00000162       0.00000000       0.00000000       0.00000000
H       -1.80434180       1.26076395      -0.00000768       0.00000000       0.00000000       0.00000000
H        0.92440889       2.75124802      -0.00000087       0.00000000       0.00000000       0.00000000
H       -0.84703447       3.33766378       0.00000338       0.00000000       0.00000000       0.00000000
H       -0.04465423      -2.10184337       0.00000494       0.00000000       0.00000000       0.00000000
H       -1.39618037      -1.36568146       0.88435691       0.00000000       0.00000000       0.00000000
H       -1.39618890      -1.36569423      -0.88435237       0.00000000       0.00000000       0.00000000
12
Lattice="20.0 0.0 0.0 0.0 20.0 0.0 0.0 0.0 20.0" Properties=species:S:1:pos:R:3:REF_forces:R:3 REF_energy=-8331.872684538055 pbc="F F F"
C       -0.02242258       0.00470509       0.00000000       0.93369669       0.65923150       0.00000000
O        1.29909807      -0.12341474      -0.00000000      -0.58614966      -0.05173400      -0.00000000
O        2.12050855       0.94349448      -0.00000000      -0.11994974      -0.01626774      -0.00000000
C       -0.69661248       1.31131218      -0.00000000       0.11998130      -0.54604868       0.00000000
C       -0.12604030       2.54958492       0.00000000      -0.58634714      -0.51856712      -0.00000000
C       -0.73575886      -1.25894490      -0.00000000      -0.31962316      -0.34143688      -0.00000000
H       -1.76813309       1.04085321      -0.00000000       0.04771506       0.34072015       0.00000000
H        0.96975446       2.52678764      -0.00000000      -0.11495066       0.25010481       0.00000000
H       -0.96973025       3.27254325      -0.00000000       0.44236265       0.16631758      -0.00000000
H       -0.05019442      -2.10745915      -0.00000000       0.00258540       0.00534437       0.00000000
H       -1.42475448      -1.35096717       0.85290896       0.09041431       0.02599010       0.05653000
H       -1.42475448      -1.35096717      -0.85290896       0.09041431       0.02599010      -0.05653000
12
Lattice="20.0 0.0 0.0 0.0 20.0 0.0 0.0 0.0 20.0" Properties=species:S:1:pos:R:3:REF_forces:R:3 REF_energy=-8332.353392790883 pbc="F F F"
C       -0.00062387       0.03154842       0.00000005       0.00000000       0.00000000       0.00000000
O        1.28218310      -0.14177671      -0.00000009       0.00000000       0.00000000       0.00000000
O        2.12854020       0.95740554      -0.00000002       0.00000000       0.00000000       0.00000000
C       -0.68722053       1.28683803       0.00000050       0.00000000       0.00000000       0.00000000
C       -0.14586614       2.52362504      -0.00000046       0.00000000       0.00000000       0.00000000
C       -0.75420645      -1.26208221      -0.00000004       0.00000000       0.00000000       0.00000000
H       -1.77103757       1.18537074      -0.00000178       0.00000000       0.00000000       0.00000000
H        0.92398583       2.66668719       0.00000071       0.00000000       0.00000000       0.00000000
H       -0.80939698       3.38532740       0.00000268       0.00000000       0.00000000       0.00000000
H       -0.00876723      -2.06296853      -0.00000017       0.00000000       0.00000000       0.00000000
H       -1.38859549      -1.37723834       0.88821489       0.00000000       0.00000000       0.00000000
H       -1.38859534      -1.37723770      -0.88821514       0.00000000       0.00000000       0.00000000
12
Lattice="20.0 0.0 0.0 0.0 20.0 0.0 0.0 0.0 20.0" Properties=species:S:1:pos:R:3:REF_forces:R:3 REF_energy=-8332.092017171424 pbc="F F F"
C       -0.00851293       0.01164890       0.00000000       0.41980335       0.20065286      -0.00000000
O        1.25413068      -0.16223369      -0.00000000       0.36710087       0.64347947       0.00000000
O        2.14199303       0.97351016       0.00000000      -0.40529580      -0.48410971      -0.00000000
C       -0.70583348       1.29694554      -0.00000000       0.20966118      -0.01352102      -0.00000000
C       -0.13312688       2.52409575       0.00000000      -0.20004535      -0.03266085       0.00000000
C       -0.70675802      -1.27080068      -0.00000000      -0.60493884      -0.04187373      -0.00000000
H       -1.79770969       1.27616009      -0.00000000       0.05424314      -0.10820449      -0.00000000
H        0.92600220       2.74527325      -0.00000000      -0.02180773      -0.09885461      -0.00000000
H       -0.85398947       3.34456217      -0.00000000       0.08383297       0.03757340      -0.00000000
H       -0.11152466      -2.19199932       0.00000000       0.03693841       0.15025144       0.00000000
H       -1.38742887      -1.23500083       0.86846008       0.03093126      -0.12695528      -0.01874877
H       -1.38742887      -1.23500083      -0.86846008       0.03093126      -0.12695528       0.01874877
12
Lattice="20.0 0.0 0.0 0.0 20.0 0.0 0.0 0.0 20.0" Properties=species:S:1:pos:R:3:REF_forces:R:3 REF_energy=-8332.387600748512 pbc="F F F"
C        0.00739699       0.02812211      -0.00000003       0.18587816      -0.02107944      -0.00000006
O        1.28515220      -0.12076828       0.00000005      -0.12391541       0.02076098      -0.00000026
O        2.11641818       0.94009517       0.00000001      -0.05929289      -0.02258723       0.00000012
C       -0.69160825       1.28920475      -0.00000025       0.23360283       0.08658253       0.00000224
C       -0.14571356       2.52688529       0.00000023      -0.05594702       0.00552757      -0.00000325
C       -0.74317811      -1.27257822       0.00000002       0.07378337      -0.05328478       0.00000017
H       -1.75534513       1.18812268       0.00000089      -0.20316000      -0.01826772      -0.00000092
H        0.92916490       2.66289123      -0.00000035      -0.03551430      -0.00831680       0.00000042
H       -0.80342796       3.40909637      -0.00000134       0.06777653      -0.11171569       0.00000166
H       -0.05920819      -2.14277040       0.00000008      -0.06982896       0.13969427       0.00000007
H       -1.39241816      -1.32862375       0.87764672      -0.00684047      -0.01118196       0.02790896
H       -1.39241823      -1.32862407      -0.87764659      -0.00684043      -0.01118164      -0.02790902
12
Lattice="20.0 0.0 0.0 0.0 20.0 0.0 0.0 0.0 20.0" Properties=species:S:1:pos:R:3:REF_forces:R:3 REF_energy=-8332.376091212867 pbc="F F F"
C        0.00749611       0.02820891      -0.00000003       0.17563064      -0.03490454      -0.00000004
O        1.28510208      -0.12077002       0.00000005      -0.11561908       0.02167137      -0.00000026
O        2.11642374       0.94009969       0.00000001      -0.06078134      -0.02338990       0.00000012
C       -0.68795260       1.28944368      -0.00000025      -0.21823272       0.05879073       0.00000260
C       -0.14631220       2.52885709       0.00000023       0.02200230      -0.24491200      -0.00000288
C       -0.74071304      -1.27449429       0.00000002      -0.23494929       0.19874424       0.00000016
H       -1.79903999       1.18434004       0.00000089       0.24851448       0.02045767      -0.00000130
H        0.91961124       2.66185710      -0.00000035       0.06451162       0.00233121       0.00000040
H       -0.78657603       3.38693047      -0.00000134      -0.11068995       0.12497420       0.00000130
H       -0.07937285      -2.11860793       0.00000008       0.14004857      -0.12282844       0.00000009
H       -1.39727604      -1.32950847       0.88501865       0.04473937      -0.00280290      -0.04946301
H       -1.39727611      -1.32950879      -0.88501852       0.04473942      -0.00280256       0.04946295
12
Lattice="20.0 0.0 0.0 0.0 20.0 0.0 0.0 0.0 20.0" Properties=species:S:1:pos:R:3:REF_forces:R:3 REF_energy=-8332.179565696946 pbc="F F F"
C        0.00521142       0.03229970       0.01414757       0.39890884      -0.20658846      -0.08009635
O        1.29552298      -0.12538709       0.00258647      -0.23810251       0.20836578       0.00988472
O        2.13258346       0.96001848      -0.00021423      -0.17933926      -0.18332385      -0.00119722
C       -0.68889194       1.28681471      -0.00088435      -0.47804002      -0.27855855       0.12741611
C       -0.14953816       2.50594724      -0.01835644      -0.26423227       0.47596799      -0.07795421
C       -0.76056193      -1.27826190       0.00916186      -0.09437795       0.15577682      -0.35729870
H       -1.81593713       1.12644676       0.07385293       0.41870965       0.14311156      -0.06922971
H        0.90877067       2.67183652      -0.06192960       0.08591320      -0.03015297       0.00616596
H       -0.82981318       3.40108910      -0.04859647       0.19256001      -0.26348155       0.03834288
H       -0.04025024      -2.13031658      -0.00777840      -0.21298814       0.14709134       0.04727933
H       -1.42698858      -1.25441366       0.88748636       0.05805187      -0.13560314      -0.04770164
H       -1.44423526      -1.30152171      -0.92916709       0.31274512      -0.03160318       0.40375417
12
Lattice="20.0 0.0 0.0 0.0 20.0 0.0 0.0 0.0 20.0" Properties=species:S:1:pos:R:3:REF_forces:R:3 REF_energy=-8332.371851335001 pbc="F F F"
C        0.00475169       0.02928901       0.00001007       0.00000000       0.00000000       0.00000000
O        1.28414818      -0.12777159       0.00000792       0.00000000       0.00000000       0.00000000
O        2.12046044       0.94586659       0.00000368       0.00000000       0.00000000       0.00000000
C       -0.68910125       1.28848412      -0.00000647       0.00000000       0.00000000       0.00000000
C       -0.14593546       2.52636184      -0.00000178       0.00000000       0.00000000       0.00000000
C       -0.74614992      -1.26962699       0.00335048       0.00000000       0.00000000       0.00000000
H       -1.77305966       1.18612465       0.00004034       0.00000000       0.00000000       0.00000000
H        0.92470939       2.66386115       0.00001525       0.00000000       0.00000000       0.00000000
H       -0.80060333       3.39484096      -0.00000500       0.00000000       0.00000000       0.00000000
H       -0.04815582      -2.10926627       0.00065106       0.00000000       0.00000000       0.00000000
H       -1.37706247      -1.34348457       0.86285917       0.00000000       0.00000000       0.00000000
H       -1.40800128      -1.34667820      -0.90369218       0.00000000       0.00000000       0.00000000
12
Lattice="20.0 0.0 0.0 0.0 20.0 0.0 0.0 0.0 20.0" Properties=species:S:1:pos:R:3:REF_forces:R:3 REF_energy=-8332.388963158506 pbc="F F F"
C        0.00478975       0.02982244       0.00236731       0.24824814      -0.07049009      -0.01304285
O        1.28606085      -0.12738551       0.00042928      -0.12795276       0.14976859       0.00136731
O        2.12248434       0.94823013      -0.00003534      -0.13536103      -0.12910708      -0.00026608
C       -0.68895896       1.28827665      -0.00016967      -0.08773794       0.02046904       0.01813608
C       -0.14647819       2.52285090      -0.00303879      -0.07781708       0.02431108      -0.01229255
C       -0.74852514      -1.27108639       0.00160755      -0.02627911       0.02458386      -0.08132838
H       -1.78129613       1.17586454       0.01241935       0.09162875       0.02423965      -0.00861988
H        0.92183876       2.66524093      -0.01031461       0.02368647      -0.00909718       0.00130593
H       -0.80597882       3.39656110      -0.00816143       0.04015082      -0.06299242       0.00559447
H       -0.04629486      -2.11314196      -0.00140275      -0.04274303       0.03678534       0.00782304
H       -1.39835843      -1.32966410       0.88406108       0.01804007      -0.01448849      -0.01133161
H       -1.40194506      -1.33776330      -0.89198655       0.07667640       0.00664764       0.09254436
12
Lattice="20.0 0.0 0.0 0.0 20.0 0.0 0.0 0.0 20.0" Properties=species:S:1:pos:R:3:REF_forces:R:3 REF_energy=-8331.930866384851 pbc="F F F"
C        0.06011623       0.00223879       0.08167466      -0.00844778      -0.15740386      -0.16585314
O        1.34243222      -0.09222023       0.02337386      -0.10786379       0.11387103       0.04767238
O        2.19749714       1.03627521      -0.00208779      -0.39392073      -0.33129822      -0.00896909
C       -0.71947980       1.20452451       0.03335915       0.00418380       0.54979587       0.30959781
C       -0.19184048       2.45387264      -0.17211774      -0.55674921      -0.10878510      -0.11549686
C       -0.84582044      -1.24804981       0.04650212       0.23684933      -0.07794539      -0.20484335
H       -1.79329488       1.09779801       0.36815031       0.33296496       0.02440306      -0.22143174
H        0.84393152       2.57399793      -0.42743442       0.09360088       0.01637403       0.02091501
H       -0.90923835       3.31884612      -0.24352531       0.25608057      -0.23000827       0.08158472
H       -0.33190436      -2.23622777       0.11277098      -0.02848961       0.23631248      -0.05421075
H       -1.54057412      -1.18583528       0.88421767      -0.03191949       0.01181096       0.02929501
H       -1.46224635      -1.19298507      -0.90582716       0.20466358      -0.04729345       0.28210076
12
Lattice="20.0 0.0 0.0 0.0 20.0 0.0 0.0 0.0 20.0" Properties=species:S:1:pos:R:3:REF_forces:R:3 REF_energy=-8332.362905506223 pbc="F F F"
C        0.00743039       0.02813328      -0.00000003       0.18309398      -0.02303549      -0.00000003
O        1.28514928      -0.12077179       0.00000005      -0.12409033       0.02141296      -0.00000028
O        2.11635825       0.94012475       0.00000001      -0.04893234      -0.02714110       0.00000013
C       -0.69018761       1.28941678      -0.00000025       0.04383151       0.05815486       0.00000239
C       -0.15013684       2.52816734       0.00000023       0.50099314      -0.17517603      -0.00000302
C       -0.74212551      -1.27340043       0.00000002      -0.05377567       0.04802809       0.00000016
H       -1.77178525       1.18683725       0.00000089      -0.02060460      -0.00421450      -0.00000109
H        0.96491988       2.66839488      -0.00000035      -0.40097349      -0.06432399       0.00000059
H       -0.78613055       3.38673829      -0.00000134      -0.12718181       0.14346197       0.00000126
H       -0.06784862      -2.13242240       0.00000008       0.01503231       0.03365736       0.00000008
H       -1.39448555      -1.32900427       0.88079072       0.01543498      -0.00735258      -0.00565970
H       -1.39448563      -1.32900459      -0.88079060       0.01543502      -0.00735225       0.00565965
12
Lattice="20.0 0.0 0.0 0.0 20.0 0.0 0.0 0.0 20.0" Properties=species:S:1:pos:R:3:REF_forces:R:3 REF_energy=-8332.241503512905 pbc="F F F"
C       -0.04768278       0.07853100      -0.00000000       0.27898788      -0.17254373       0.00000000
O        1.23264981      -0.09437590       0.00000000       0.05659063       0.13425602       0.00000000
O        2.19687369       0.86960000       0.00000000      -0.31122432      -0.00188545       0.00000000
C       -0.77154042       1.32891156      -0.00000000       0.14210133       0.05289504      -0.00000000
C       -0.15336276       2.53275753       0.00000000      -0.00953452      -0.08445031       0.00000000
C       -0.66907951      -1.29657956       0.00000000      -0.09242513      -0.02014758      -0.00000000
H       -1.85669813       1.24340690       0.00000000       0.01856248      -0.00310515      -0.00000000
H        0.93499661       2.56393801      -0.00000000      -0.04287203       0.01250690      -0.00000000
H       -0.72646015       3.46120390       0.00000000       0.01383014      -0.05380836      -0.00000000
H        0.15077024      -2.03496754       0.00000000      -0.11273075       0.06752593       0.00000000
H       -1.30147133      -1.46563348       0.88526484       0.03006350       0.03421338      -0.03013298
H       -1.30147133      -1.46563348      -0.88526484       0.03006350       0.03421338       0.03013299
12
Lattice="20.0 0.0 0.0 0.0 20.0 0.0 0.0 0.0 20.0" Properties=species:S:1:pos:R:3:REF_forces:R:3 REF_energy=-8332.365149119983 pbc="F F F"
C        0.00514033       0.03269369       0.00000000       0.20246363      -0.09155807      -0.00000000
O        1.29798047      -0.12682319      -0.00000000      -0.37787756       0.11443290       0.00000000
O        2.11652265       0.94194219      -0.00000000      -0.04350353      -0.03611838      -0.00000000
C       -0.70314517       1.29267851      -0.00000000       0.22010372       0.01681935       0.00000000
C       -0.13774337       2.51950841       0.00000000      -0.14419986       0.02859737      -0.00000000
C       -0.75002825      -1.26974167      -0.00000000       0.05230467       0.00624864       0.00000000
H       -1.79054668       1.22784939      -0.00000000       0.03070629      -0.05405546      -0.00000000
H        0.92454091       2.71270953      -0.00000000      -0.00365897      -0.06718240      -0.00000000
H       -0.82655794       3.36287830      -0.00000000       0.03834025       0.02877738      -0.00000000
H       -0.04619874      -2.10511715       0.00000000      -0.00425109       0.00288694      -0.00000000
H       -1.39457427      -1.35660162       0.88387851       0.01533843       0.02525316      -0.00782567
H       -1.39457427      -1.35660162      -0.88387851       0.01533843       0.02525316       0.00782567
12
Lattice="20.0 0.0 0.0 0.0 20.0 0.0 0.0 0.0 20.0" Properties=species:S:1:pos:R:3:REF_forces:R:3 REF_energy=-8331.950175357491 pbc="F F F"
C        0.04467902       0.01475282       0.07379264       0.25479652      -0.29919052      -0.21948933
O        1.33753414      -0.10056401       0.01888367      -0.25517102       0.20731291       0.05050552
O        2.18897831       1.02570565      -0.00164194      -0.37128434      -0.34004818      -0.00524830
C       -0.72240887       1.22222488       0.02188460       0.60659234       0.32941416       0.20450872
C       -0.18332105       2.46106222      -0.13919892      -0.24951710      -0.21815772      -0.17244058
C       -0.83894571      -1.26786872       0.03484980       0.63179581       0.45252408       0.28662727
H       -1.72481058       1.07329876       0.33094610      -0.33403347       0.04664161      -0.05885865
H        0.85615465       2.61330340      -0.37015364       0.06727453      -0.04304942       0.03381270
H       -0.86867859       3.28873735      -0.22614848      -0.03689472       0.11739369       0.08068556
H       -0.26924834      -2.18638566       0.07014414       0.01918896      -0.06564013       0.03485651
H       -1.51536738      -1.13133147       0.86017520      -0.10591593      -0.14130716       0.18706340
H       -1.42296374      -1.19139759      -0.83515922      -0.22683344      -0.04556999      -0.42154627
12
Lattice="20.0 0.0 0.0 0.0 20.0 0.0 0.0 0.0 20.0" Properties=species:S:1:pos:R:3:REF_forces:R:3 REF_energy=-8332.338728628902 pbc="F F F"
C        0.00475789       0.02929664       0.01913396       0.00000000       0.00000000       0.00000000
O        1.28415942      -0.12775749      -0.00095294       0.00000000       0.00000000       0.00000000
O        2.12045178       0.94585548      -0.00069900       0.00000000       0.00000000       0.00000000
C       -0.68909290       1.28848097      -0.00335178       0.00000000       0.00000000       0.00000000
C       -0.14594202       2.52636302      -0.00046864       0.00000000       0.00000000       0.00000000
C       -0.74616617      -1.26962685      -0.02113840       0.00000000       0.00000000       0.00000000
H       -1.77304775       1.18608378      -0.00502812       0.00000000       0.00000000       0.00000000
H        0.92470778       2.66382022      -0.00821387       0.00000000       0.00000000       0.00000000
H       -0.80057770       3.39486388       0.01587333       0.00000000       0.00000000       0.00000000
H       -0.04813009      -2.10923245       0.04338967       0.00000000       0.00000000       0.00000000
H       -1.34050923      -1.27717259       0.90808731       0.00000000       0.00000000       0.00000000
H       -1.44455878      -1.41308160      -0.85847595       0.00000000       0.00000000       0.00000000
12
Lattice="20.0 0.0 0.0 0.0 20.0 0.0 0.0 0.0 20.0" Properties=species:S:1:pos:R:3:REF_forces:R:3 REF_energy=-8332.400630019867 pbc="F F F"
C        0.00743340       0.02817535      -0.00000003       0.18238264      -0.02882268      -0.00000005
O        1.28513279      -0.12076877       0.00000005      -0.12070655       0.02101371      -0.00000026
O        2.11641624       0.94009789       0.00000001      -0.05918665      -0.02304217       0.00000012
C       -0.68960673       1.28939518      -0.00000025      -0.03004948       0.06139871       0.00000245
C       -0.14591616       2.52717334       0.00000023      -0.03140789      -0.02687894      -0.00000318
C       -0.74210652      -1.27340673       0.00000002      -0.05610963       0.04890789       0.00000017
H       -1.77884148       1.18607266       0.00000089       0.05565648       0.00429998      -0.00000114
H        0.92825388       2.66283353      -0.00000035      -0.02665212      -0.00774642       0.00000042
H       -0.80033161       3.40506436      -0.00000134       0.03761951      -0.07222526       0.00000159
H       -0.06792989      -2.13233771       0.00000008       0.01597715       0.03283205       0.00000008
H       -1.39455230      -1.32901948       0.88088346       0.01613879      -0.00732516      -0.00661610
H       -1.39455237      -1.32901980      -0.88088334       0.01613883      -0.00732483       0.00661604
12
Lattice="20.0 0.0 0.0 0.0 20.0 0.0 0.0 0.0 20.0" Properties=species:S:1:pos:R:3:REF_forces:R:3 REF_energy=-8332.385721297494 pbc="F F F"
C        0.01610287       0.02315582       0.00000001       0.00000000       0.00000000       0.00000000
O        1.27784151      -0.12636960       0.00000002       0.00000000       0.00000000       0.00000000
O        2.12044167       0.94573530      -0.00000003       0.00000000       0.00000000       0.00000000
C       -0.69210266       1.29250372       0.00000002       0.00000000       0.00000000       0.00000000
C       -0.14452590       2.52699304       0.00000003       0.00000000       0.00000000       0.00000000
C       -0.74918727      -1.26512630       0.00000034       0.00000000       0.00000000       0.00000000
H       -1.77589217       1.18804713      -0.00000003       0.00000000       0.00000000       0.00000000
H        0.92723003       2.65749602      -0.00000024       0.00000000       0.00000000       0.00000000
H       -0.81174020       3.38608385      -0.00000003       0.00000000       0.00000000       0.00000000
H       -0.06582598      -2.11824831      -0.00000374       0.00000000       0.00000000       0.00000000
H       -1.36782243      -1.36205708       0.90090068       0.00000000       0.00000000       0.00000000
H       -1.36782053      -1.36206094      -0.90090122       0.00000000       0.00000000       0.00000000
12
Lattice="20.0 0.0 0.0 0.0 20.0 0.0 0.0 0.0 20.0" Properties=species:S:1:pos:R:3:REF_forces:R:3 REF_energy=-8332.051546632438 pbc="F F F"
C        0.00483307       0.02907374       0.00000000       0.20361231      -0.01551389      -0.00000000
O        1.28412041      -0.12777498       0.00000000      -0.09998044       0.13948731       0.00000000
O        2.12051841       0.94585611      -0.00000000      -0.13613265      -0.11598446       0.00000000
C       -0.69493477       1.28730309      -0.00000000       0.91291503       0.25327376      -0.00000000
C       -0.14665933       2.53383503       0.00000000       0.20797250      -1.29723460       0.00000000
C       -0.74635291      -1.26952848       0.00000000       0.02035262      -0.00596946      -0.00000000
H       -1.70906425       1.19187865       0.00000000      -0.83240952      -0.07639273      -0.00000000
H        0.88199902       2.65868905       0.00000000       0.51673018       0.05396169      -0.00000000
H       -0.74524796       3.32148395       0.00000000      -0.78955102       1.02906873      -0.00000000
H       -0.04708656      -2.11030382      -0.00000000      -0.01272633       0.01930691      -0.00000000
H       -1.39183167      -1.34485917       0.88223801       0.00495839       0.00811882       0.00400750
H       -1.39183167      -1.34485917      -0.88223801       0.00495839       0.00811882      -0.00400750
12
Lattice="20.0 0.0 0.0 0.0 20.0 0.0 0.0 0.0 20.0" Properties=species:S:1:pos:R:3:REF_forces:R:3 REF_energy=-8332.335092633492 pbc="F F F"
C        0.00475118       0.02928893       0.00064894       0.00000000       0.00000000       0.00000000
O        1.28414823      -0.12777198       0.00007166       0.00000000       0.00000000       0.00000000
O        2.12046074       0.94586692      -0.00019963       0.00000000       0.00000000       0.00000000
C       -0.68910129       1.28848376      -0.00821874       0.00000000       0.00000000       0.00000000
C       -0.14593511       2.52636193       0.02574413       0.00000000       0.00000000       0.00000000
C       -0.74615021      -1.26962659      -0.00030635       0.00000000       0.00000000       0.00000000
H       -1.77306061       1.18612491       0.00095327       0.00000000       0.00000000       0.00000000
H        0.92470914       2.66386295      -0.10820637       0.00000000       0.00000000       0.00000000
H       -0.80060387       3.39483944      -0.10533344       0.00000000       0.00000000       0.00000000
H       -0.04815408      -2.10926413       0.00071924       0.00000000       0.00000000       0.00000000
H       -1.39165203      -1.34338829       0.88376435       0.00000000       0.00000000       0.00000000
H       -1.39341143      -1.34677682      -0.88278759       0.00000000       0.00000000       0.00000000
12
Lattice="20.0 0.0 0.0 0.0 20.0 0.0 0.0 0.0 20.0" Properties=species:S:1:pos:R:3:REF_forces:R:3 REF_energy=-8332.361943511147 pbc="F F F"
C       -0.00204188       0.02314303       0.00000000       0.39768818       0.12857626      -0.00000000
O        1.28788565      -0.12668238      -0.00000000      -0.23548384       0.09554705      -0.00000000
O        2.12047247       0.94527356      -0.00000000      -0.12554974      -0.09636482       0.00000000
C       -0.69097902       1.29419113      -0.00000000       0.05693863      -0.07233971      -0.00000000
C       -0.14096167       2.53216766       0.00000000      -0.16044298      -0.22238854       0.00000000
C       -0.74355215      -1.26695648      -0.00000000      -0.07826526      -0.07067306      -0.00000000
H       -1.77182842       1.14980676      -0.00000000       0.00570020       0.08192920      -0.00000000
H        0.93597031       2.62959272      -0.00000000      -0.01956764       0.06799747      -0.00000000
H       -0.84288466       3.36426601      -0.00000000       0.09776059       0.05197712       0.00000000
H       -0.04866551      -2.10881445      -0.00000000      -0.00046630       0.00735316      -0.00000000
H       -1.40058755      -1.34655284       0.87568402       0.03121313       0.01416321       0.00960516
H       -1.40058755      -1.34655284      -0.87568402       0.03121313       0.01416321      -0.00960516
12
Lattice="20.0 0.0 0.0 0.0 20.0 0.0 0.0 0.0 20.0" Properties=species:S:1:pos:R:3:REF_forces:R:3 REF_energy=-8332.39269174517 pbc="F F F"
C       -0.00594824       0.02613982       0.00000084       0.00000000       0.00000000       0.00000000
O        1.27497745      -0.12176603       0.00000078       0.00000000       0.00000000       0.00000000
O        2.09896081       0.96067978      -0.00000089       0.00000000       0.00000000       0.00000000
C       -0.68647332       1.29119902       0.00000012       0.00000000       0.00000000       0.00000000
C       -0.11471039       2.51838372       0.00000042       0.00000000       0.00000000       0.00000000
C       -0.73899974      -1.28401738      -0.00000088       0.00000000       0.00000000       0.00000000
H       -1.77226165       1.20945617      -0.00000106       0.00000000       0.00000000       0.00000000
H        0.95795308       2.63195107       0.00000181       0.00000000       0.00000000       0.00000000
H       -0.75170644       3.40039935      -0.00000047       0.00000000       0.00000000       0.00000000
H       -0.02391395      -2.10962390      -0.00000202       0.00000000       0.00000000       0.00000000
H       -1.38326002      -1.37275816       0.88358410       0.00000000       0.00000000       0.00000000
H       -1.38325955      -1.37275550      -0.88358647       0.00000000       0.00000000       0.00000000
12
Lattice="20.0 0.0 0.0 0.0 20.0 0.0 0.0 0.0 20.0" Properties=species:S:1:pos:R:3:REF_forces:R:3 REF_energy=-8331.885342831283 pbc="F F F"
C        0.01108026       0.03400963       0.04075076       0.60989670      -0.40626670      -0.21174618
O        1.31591105      -0.11907970       0.00801482      -0.40463871       0.29780566       0.03467355
O        2.15606614       0.98734302      -0.00068102      -0.26527688      -0.28740795      -0.00092594
C       -0.69941884       1.27415000       0.00096252      -0.40191881      -0.56043162       0.33157677
C       -0.16176177       2.47793147      -0.05780492      -0.09474974       0.66844793      -0.21770702
C       -0.79179881      -1.29073773       0.02004633      -0.06412789       0.68070283      -0.28480928
H       -1.79419826       1.04957132       0.20001060       0.31931796       0.26931270      -0.17234862
H        0.89396478       2.67828724      -0.18530103      -0.00626314      -0.10787142       0.03449868
H       -0.83982068       3.34962120      -0.13483575       0.09426565      -0.12306153       0.09146517
H       -0.08332350      -2.13796649      -0.00817790      -0.22475268       0.04302776       0.10923881
H       -1.48023869      -1.11788665       0.88138897       0.12640933      -0.34602406      -0.07470338
H       -1.46783107      -1.22915763      -0.91657538       0.31148609      -0.12860548       0.36086491
12
Lattice="20.0 0.0 0.0 0.0 20.0 0.0 0.0 0.0 20.0" Properties=species:S:1:pos:R:3:REF_forces:R:3 REF_energy=-8332.22912144983 pbc="F F F"
C       -0.00726900       0.03434084      -0.00000000       0.36689580      -0.11777983       0.00000000
O        1.27975458      -0.15908710      -0.00000000      -0.09560667       0.57690853       0.00000000
O        2.13852713       0.97166779       0.00000000      -0.34627020      -0.45154890      -0.00000000
C       -0.68489629       1.28480282       0.00000000      -0.04654611       0.13695425      -0.00000000
C       -0.14577952       2.52024155      -0.00000000      -0.02833158      -0.00633032      -0.00000000
C       -0.76416499      -1.25275578       0.00000000       0.21571917      -0.24557144      -0.00000001
H       -1.76853863       1.18444061       0.00000000       0.00101173       0.00221008       0.00000000
H        0.92309227       2.67018655       0.00000000       0.00805591      -0.01167115       0.00000000
H       -0.82027019       3.37356575      -0.00000000       0.02105745       0.01084466       0.00000000
H        0.03992121      -2.00574005      -0.00000000      -0.14466373      -0.06394362       0.00000000
H       -1.38372942      -1.41698535       0.89432093       0.02427613       0.08554473      -0.03953809
H       -1.38372942      -1.41698535      -0.89432093       0.02427613       0.08554473       0.03953809
12
Lattice="20.0 0.0 0.0 0.0 20.0 0.0 0.0 0.0 20.0" Properties=species:S:1:pos:R:3:REF_forces:R:3 REF_energy=-8332.36899003071 pbc="F F F"
C        0.01154526       0.03543499      -0.00000000       0.03099494      -0.20884783      -0.00000000
O        1.28041070      -0.12886080       0.00000000       0.03482737       0.17584317       0.00000000
O        2.12044842       0.94645961       0.00000000      -0.12528080      -0.13808904       0.00000000
C       -0.68722338       1.28277709       0.00000000      -0.04639312       0.23435665      -0.00000000
C       -0.15090925       2.52055616      -0.00000000       0.10754528       0.08738818       0.00000000
C       -0.74874768      -1.27229752       0.00000000       0.06437403       0.07821380       0.00000000
H       -1.77429196       1.22244246       0.00000000       0.01262579      -0.08117049      -0.00000000
H        0.91344754       2.69812944       0.00000000       0.02929151      -0.08539979      -0.00000000
H       -0.75832093       3.42541452       0.00000000      -0.09208858      -0.08549968      -0.00000000
H       -0.04764623      -2.10971798       0.00000000      -0.00256657       0.00901412      -0.00000000
H       -1.38447625      -1.34360995       0.89086740      -0.00614203       0.00674973      -0.02372173
H       -1.38447625      -1.34360995      -0.89086740      -0.00614203       0.00674973       0.02372173
12
Lattice="20.0 0.0 0.0 0.0 20.0 0.0 0.0 0.0 20.0" Properties=species:S:1:pos:R:3:REF_forces:R:3 REF_energy=-8332.37350060716 pbc="F F F"
C        0.00766560       0.02969135       0.00000000       0.13818280      -0.05181313      -0.00000000
O        1.28370679      -0.12740496      -0.00000000      -0.08559725       0.12487836       0.00000000
O        2.11991480       0.94541818      -0.00000000      -0.10717335      -0.10244575       0.00000000
C       -0.69040576       1.29095068      -0.00000000       0.04524563       0.01936745       0.00000000
C       -0.14455560       2.52659240       0.00000000      -0.06164028      -0.08523787       0.00000000
C       -0.75303582      -1.27926085      -0.00000000       0.16694340       0.24360481       0.00000000
H       -1.77361363       1.17803719      -0.00000000       0.00654879       0.01738561      -0.00000000
H        0.92698795       2.65829882      -0.00000000       0.00172824       0.00657712      -0.00000000
H       -0.81098150       3.38606850      -0.00000000       0.02227753       0.00903536      -0.00000000
H       -0.01248846      -2.08320836      -0.00000000      -0.08251161      -0.04154773      -0.00000000
H       -1.37498827      -1.30731704       0.90369124      -0.02167377      -0.06975150      -0.05568276
H       -1.37498827      -1.30731704      -0.90369124      -0.02167377      -0.06975150       0.05568276
12
Lattice="20.0 0.0 0.0 0.0 20.0 0.0 0.0 0.0 20.0" Properties=species:S:1:pos:R:3:REF_forces:R:3 REF_energy=-8332.364147051303 pbc="F F F"
C        0.00476320       0.02927689       0.00000000       0.21543402      -0.03760120      -0.00000000
O        1.28411309      -0.12777549       0.00000000      -0.09937367       0.13802895       0.00000000
O        2.12046701       0.94587384      -0.00000000      -0.12708035      -0.11904294       0.00000000
C       -0.68915620       1.28844636      -0.00000000       0.01840183       0.08539473      -0.00000000
C       -0.14593255       2.52638126       0.00000000      -0.02558443      -0.08219940       0.00000000
C       -0.74427782      -1.26835204      -0.00000000      -0.20338579      -0.13645510       0.00000000
H       -1.77229360       1.18623306      -0.00000000      -0.00250916      -0.00126563      -0.00000000
H        0.92471886       2.66382752       0.00000000       0.00629829      -0.00492470      -0.00000000
H       -0.80062303       3.39488715       0.00000000      -0.00026104      -0.00980893      -0.00000000
H       -0.03806886      -2.12095969      -0.00000000      -0.09498749       0.11681007      -0.00000000
H       -1.40863979      -1.34673661       0.90620185       0.15686974       0.02568244      -0.21224387
H       -1.40863979      -1.34673661      -0.90620185       0.15686975       0.02568244       0.21224388
12
Lattice="20.0 0.0 0.0 0.0 20.0 0.0 0.0 0.0 20.0" Properties=species:S:1:pos:R:3:REF_forces:R:3 REF_energy=-8332.389740916928 pbc="F F F"
C        0.00475215       0.02928936      -0.01536481       0.00000000       0.00000000       0.00000000
O        1.28414757      -0.12777101       0.00241156       0.00000000       0.00000000       0.00000000
O        2.12046000       0.94586757      -0.01495477       0.00000000       0.00000000       0.00000000
C       -0.68909991       1.28848303      -0.05195113       0.00000000       0.00000000       0.00000000
C       -0.14593671       2.52636070       0.04581179       0.00000000       0.00000000       0.00000000
C       -0.74614905      -1.26962674       0.02571163       0.00000000       0.00000000       0.00000000
H       -1.77305776       1.18612227      -0.13897466       0.00000000       0.00000000       0.00000000
H        0.92470666       2.66386150       0.14522850       0.00000000       0.00000000       0.00000000
H       -0.80060519       3.39483754       0.03147205       0.00000000       0.00000000       0.00000000
H       -0.04815526      -2.10926526       0.08079390       0.00000000       0.00000000       0.00000000
H       -1.41159497      -1.30278365       0.89849524       0.00000000       0.00000000       0.00000000
H       -1.37346673      -1.38738036      -0.86805494       0.00000000       0.00000000       0.00000000
12
Lattice="20.0 0.0 0.0 0.0 20.0 0.0 0.0 0.0 20.0" Properties=species:S:1:pos:R:3:REF_forces:R:3 REF_energy=-8332.331081648219 pbc="F F F"
C        0.00489348       0.03086792       0.00709759       0.31168715      -0.12691519      -0.03973433
O        1.28987554      -0.12660538       0.00128937      -0.17393944       0.17391874       0.00445465
O        2.12653175       0.95295582      -0.00010630      -0.15351627      -0.15120966      -0.00072335
C       -0.68875192       1.28781313      -0.00049471      -0.26930445      -0.10288221       0.05911627
C       -0.14760665       2.51590294      -0.00913286      -0.17017946       0.22255804      -0.03793878
C       -0.75329758      -1.27399429       0.00476364      -0.06087779       0.06828652      -0.21888639
H       -1.79698179       1.15555012       0.03720234       0.24678033       0.07345784      -0.03024791
H        0.91625139       2.66796833      -0.03095644       0.05477273      -0.01692273       0.00343842
H       -0.81636611       3.39950897      -0.02445142       0.11289354      -0.15891284       0.01804153
H       -0.04295885      -2.12063102      -0.00413701      -0.11961802       0.08905214       0.02373469
H       -1.40996451      -1.29902741       0.88558254       0.03206472      -0.06377411      -0.02369175
H       -1.42019379      -1.32315043      -0.90863322       0.18936402      -0.00551005       0.24207436
12
Lattice="20.0 0.0 0.0 0.0 20.0 0.0 0.0 0.0 20.0" Properties=species:S:1:pos:R:3:REF_forces:R:3 REF_energy=-8332.365559306081 pbc="F F F"
C        0.00475169       0.02928901      -0.00147816       0.21495597      -0.04245756       0.04304136
O        1.28414818      -0.12777159       0.00001134      -0.10386968       0.13749521      -0.00117649
O        2.12046044       0.94586659      -0.00000536      -0.12613132      -0.11785687       0.00017170
C       -0.68910120       1.28848411       0.00032739       0.01191398       0.08214701      -0.00907571
C       -0.14593546       2.52636191       0.00003504      -0.02536836      -0.08024808      -0.00097091
C       -0.74614992      -1.26962700      -0.00478170      -0.00055361      -0.00200987       0.13503327
H       -1.77306019       1.18612461      -0.00049485       0.00516612      -0.00006656       0.00132375
H        0.92470893       2.66386108       0.00001589       0.00640293      -0.00525815      -0.00007278
H       -0.80060280       3.39484027      -0.00070837      -0.00046269      -0.00935937       0.00166016
H       -0.04815587      -2.10926621       0.06258936      -0.00529510       0.01517594      -0.14732258
H       -1.37784752      -1.38412652       0.88766531      -0.02216244       0.10417397      -0.02083049
H       -1.40721628      -1.30603626      -0.87888611       0.04614509      -0.08113533      -0.00136892
12
Lattice="20.0 0.0 0.0 0.0 20.0 0.0 0.0 0.0 20.0" Properties=species:S:1:pos:R:3:REF_forces:R:3 REF_energy=-8332.364417491885 pbc="F F F"
C        0.00475169       0.02928901       0.02751954       0.21745957      -0.03833127      -0.18407876
O        1.28414818      -0.12777159      -0.01182059      -0.10746718       0.13681368       0.10666650
O        2.12046044       0.94586659       0.00479541      -0.12570577      -0.11705189      -0.04091894
C       -0.68910120       1.28848411      -0.02698484      -0.00153790       0.07523373       0.17415398
C       -0.14593546       2.52636191       0.00222497      -0.02853226      -0.05989290      -0.01391400
C       -0.74614992      -1.26962700       0.00470047      -0.01176648       0.00371794      -0.02733803
H       -1.77306019       1.18612461       0.03074988       0.01735799       0.00166543      -0.01751032
H        0.92470893       2.66386108      -0.04981700      -0.00527214      -0.00422588       0.02694117
H       -0.80060280       3.39484027       0.08298712       0.01612612      -0.02965660      -0.04654836
H       -0.04815587      -2.10926621      -0.01644904      -0.00197538       0.00990455       0.00867615
H       -1.41132147      -1.37869284       0.87084665       0.02553348       0.02884652      -0.00612086
H       -1.37374233      -1.31146995      -0.89570476       0.00588340      -0.00688543       0.01972698
12
Lattice="20.0 0.0 0.0 0.0 20.0 0.0 0.0 0.0 20.0" Properties=species:S:1:pos:R:3:REF_forces:R:3 REF_energy=-8332.380744428865 pbc="F F F"
C        0.01744222       0.02243159       0.00000000      -0.15140153       0.14123355      -0.00000000
O        1.27709740      -0.12620414      -0.00000000       0.17385215       0.07587162       0.00000000
O        2.12043946       0.94571979      -0.00000000      -0.12286087      -0.11144763       0.00000000
C       -0.69245707       1.29297828      -0.00000000       0.10224332      -0.03739088       0.00000000
C       -0.14435919       2.52706816       0.00000000      -0.06964204      -0.09583702       0.00000000
C       -0.74954554      -1.26459483      -0.00000000       0.08112797      -0.12993548       0.00000000
H       -1.77622661       1.18827328      -0.00000000       0.01149977      -0.00518064      -0.00000000
H        0.92752853       2.65674177      -0.00000000      -0.00006464       0.01081802      -0.00000000
H       -0.81305799       3.38504828      -0.00000000       0.02853156       0.01223295      -0.00000000
H       -0.06791227      -2.11930883      -0.00000000       0.04338638       0.03185376      -0.00000000
H       -1.36490546      -1.36406359       0.90298059      -0.04770937       0.05370850      -0.05409831
H       -1.36490546      -1.36406359      -0.90298059      -0.04770936       0.05370850       0.05409831
12
Lattice="20.0 0.0 0.0 0.0 20.0 0.0 0.0 0.0 20.0" Properties=species:S:1:pos:R:3:REF_forces:R:3 REF_energy=-8332.327850454132 pbc="F F F"
C        0.00475159       0.02929046       0.05086515       0.00000000       0.00000000       0.00000000
O        1.28414862      -0.12777186       0.10248258       0.00000000       0.00000000       0.00000000
O        2.12046520       0.94586295      -0.08478397       0.00000000       0.00000000       0.00000000
C       -0.68910438       1.28848436      -0.01122001       0.00000000       0.00000000       0.00000000
C       -0.14593783       2.52636307       0.00758076       0.00000000       0.00000000       0.00000000
C       -0.74615045      -1.26962525      -0.04725643       0.00000000       0.00000000       0.00000000
H       -1.77306372       1.18612327      -0.05359261       0.00000000       0.00000000       0.00000000
H        0.92470798       2.66386061       0.03234300       0.00000000       0.00000000       0.00000000
H       -0.80060417       3.39484319       0.00292893       0.00000000       0.00000000       0.00000000
H       -0.04815693      -2.10926526      -0.15751986       0.00000000       0.00000000       0.00000000
H       -1.38673867      -1.45190192       0.83091343       0.00000000       0.00000000       0.00000000
H       -1.39832702      -1.23825565      -0.93563866       0.00000000       0.00000000       0.00000000
12
Lattice="20.0 0.0 0.0 0.0 20.0 0.0 0.0 0.0 20.0" Properties=species:S:1:pos:R:3:REF_forces:R:3 REF_energy=-8332.344680091022 pbc="F F F"
C        0.00481343       0.03300157      -0.00000025       0.00000000       0.00000000       0.00000000
O        1.28588511      -0.12803128       0.00000002       0.00000000       0.00000000       0.00000000
O        2.11963661       0.94546289      -0.00000015       0.00000000       0.00000000       0.00000000
C       -0.67747458       1.29559550       0.00000023       0.00000000       0.00000000       0.00000000
C       -0.15648515       2.51928307       0.00000024       0.00000000       0.00000000       0.00000000
C       -0.74594632      -1.27181220       0.00000026       0.00000000       0.00000000       0.00000000
H       -1.76732817       1.26998099       0.00000042       0.00000000       0.00000000       0.00000000
H        0.92159693       2.59573284      -0.00000105       0.00000000       0.00000000       0.00000000
H       -0.82727864       3.37301493      -0.00000017       0.00000000       0.00000000       0.00000000
H       -0.04890947      -2.11231425      -0.00000190       0.00000000       0.00000000       0.00000000
H       -1.39537251      -1.34453863       0.88131436       0.00000000       0.00000000       0.00000000
H       -1.39537067      -1.34453737      -0.88131536       0.00000000       0.00000000       0.00000000
12
Lattice="20.0 0.0 0.0 0.0 20.0 0.0 0.0 0.0 20.0" Properties=species:S:1:pos:R:3:REF_forces:R:3 REF_energy=-8332.400937294515 pbc="F F F"
C        0.00743771       0.02815427      -0.00000003       0.18190371      -0.02612950      -0.00000005
O        1.28513431      -0.12076956       0.00000005      -0.12107589       0.02113902      -0.00000026
O        2.11640850       0.94010246       0.00000001      -0.05780942      -0.02374920       0.00000012
C       -0.69006983       1.28932838      -0.00000025       0.02800132       0.07001435       0.00000241
C       -0.14677700       2.52781497       0.00000023       0.08395212      -0.10911877      -0.00000310
C       -0.74212240      -1.27339959       0.00000002      -0.05412992       0.04794153       0.00000017
H       -1.77362877       1.18656655       0.00000089       0.00070478      -0.00099754      -0.00000110
H        0.93278728       2.66359963      -0.00000035      -0.08055030      -0.01660029       0.00000045
H       -0.79425466       3.39710668      -0.00000134      -0.02769094       0.01404841       0.00000147
H       -0.06784988      -2.13241648       0.00000008       0.01511867       0.03366791       0.00000008
H       -1.39449729      -1.32900318       0.88080314       0.01555869      -0.00746041      -0.00577979
H       -1.39449736      -1.32900350      -0.88080301       0.01555873      -0.00746007       0.00577973
12
Lattice="20.0 0.0 0.0 0.0 20.0 0.0 0.0 0.0 20.0" Properties=species:S:1:pos:R:3:REF_forces:R:3 REF_energy=-8332.369898524626 pbc="F F F"
C        0.00479741       0.03205684      -0.00000000       0.21466305      -0.10451012      -0.00000000
O        1.28544261      -0.12796540       0.00000000      -0.14306627       0.14282846       0.00000000
O        2.11984651       0.94556583       0.00000000      -0.10757396      -0.10904730       0.00000000
C       -0.68043485       1.29378460       0.00000000      -0.20188269      -0.05054516      -0.00000000
C       -0.15379860       2.52108583      -0.00000000       0.16555396       0.05403622       0.00000000
C       -0.74599835      -1.27125627       0.00000000      -0.00860583       0.04328590       0.00000000
H       -1.76878731       1.24862489       0.00000000       0.00537632      -0.12047549      -0.00000000
H        0.92238981       2.61308034       0.00000000       0.00718407       0.09091579      -0.00000000
H       -0.82048716       3.37857180       0.00000000       0.03701090       0.02175402      -0.00000000
H       -0.04871677      -2.11153783      -0.00000000      -0.00038523       0.01230574      -0.00000000
H       -1.39464819      -1.34467521       0.88181478       0.01633283       0.00969094      -0.00411708
H       -1.39464819      -1.34467521      -0.88181478       0.01633283       0.00969094       0.00411708
12
Lattice="20.0 0.0 0.0 0.0 20.0 0.0 0.0 0.0 20.0" Properties=species:S:1:pos:R:3:REF_forces:R:3 REF_energy=-8332.391758812077 pbc="F F F"
C        0.00473956       0.02932110       0.00000001       0.00000000       0.00000000       0.00000000
O        1.28415230      -0.12777109       0.00000000       0.00000000       0.00000000       0.00000000
O        2.12045181       0.94586815       0.00000001       0.00000000       0.00000000       0.00000000
C       -0.68823152       1.28866017      -0.00000002       0.00000000       0.00000000       0.00000000
C       -0.14582754       2.52524793      -0.00000001       0.00000000       0.00000000       0.00000000
C       -0.74611973      -1.26964161      -0.00000002       0.00000000       0.00000000       0.00000000
H       -1.78260084       1.18526682      -0.00000004       0.00000000       0.00000000       0.00000000
H        0.93107538       2.66463201       0.00000004       0.00000000       0.00000000       0.00000000
H       -0.80885442       3.40577530      -0.00000000       0.00000000       0.00000000       0.00000000
H       -0.04831452      -2.10911244       0.00000001       0.00000000       0.00000000       0.00000000
H       -1.39263639      -1.34511449       0.88343050       0.00000000       0.00000000       0.00000000
H       -1.39263619      -1.34511457      -0.88343018       0.00000000       0.00000000       0.00000000
12
Lattice="20.0 0.0 0.0 0.0 20.0 0.0 0.0 0.0 20.0" Properties=species:S:1:pos:R:3:REF_forces:R:3 REF_energy=-8332.371197256562 pbc="F F F"
C        0.00475216       0.02928884       0.02461423       0.00000000       0.00000000       0.00000000
O        1.28414916      -0.12777261      -0.01057266       0.00000000       0.00000000       0.00000000
O        2.12045999       0.94586691       0.00428914       0.00000000       0.00000000       0.00000000
C       -0.68910221       1.28848488      -0.02413597       0.00000000       0.00000000       0.00000000
C       -0.14593545       2.52636230       0.00199007       0.00000000       0.00000000       0.00000000
C       -0.74615008      -1.26962712       0.00420421       0.00000000       0.00000000       0.00000000
H       -1.77306101       1.18612506       0.02750357       0.00000000       0.00000000       0.00000000
H        0.92470926       2.66385957      -0.04455770       0.00000000       0.00000000       0.00000000
H       -0.80060114       3.39484195       0.07422593       0.00000000       0.00000000       0.00000000
H       -0.04815664      -2.10926696      -0.01471246       0.00000000       0.00000000       0.00000000
H       -1.40933802      -1.37514389       0.87215888       0.00000000       0.00000000       0.00000000
H       -1.37572621      -1.31501793      -0.89439266       0.00000000       0.00000000       0.00000000
12
Lattice="20.0 0.0 0.0 0.0 20.0 0.0 0.0 0.0 20.0" Properties=species:S:1:pos:R:3:REF_forces:R:3 REF_energy=-8332.359724342854 pbc="F F F"
C       -0.00708975       0.03374174       0.00000014       0.00000000       0.00000000       0.00000000
O        1.28943138      -0.12907481      -0.00000002       0.00000000       0.00000000       0.00000000
O        2.12069095       0.94606914       0.00000002       0.00000000       0.00000000       0.00000000
C       -0.68678307       1.28507382      -0.00000005       0.00000000       0.00000000       0.00000000
C       -0.14632828       2.52753653      -0.00000003       0.00000000       0.00000000       0.00000000
C       -0.74682935      -1.26871356       0.00000013       0.00000000       0.00000000       0.00000000
H       -1.77082866       1.18352659       0.00000003       0.00000000       0.00000000       0.00000000
H        0.92490373       2.66145460       0.00000023       0.00000000       0.00000000       0.00000000
H       -0.79948675       3.39699762       0.00000009       0.00000000       0.00000000       0.00000000
H       -0.07025608      -2.12675410      -0.00000246       0.00000000       0.00000000       0.00000000
H       -1.36388266      -1.34482856       0.90392306       0.00000000       0.00000000       0.00000000
H       -1.36388161      -1.34483251      -0.90392340       0.00000000       0.00000000       0.00000000
12
Lattice="20.0 0.0 0.0 0.0 20.0 0.0 0.0 0.0 20.0" Properties=species:S:1:pos:R:3:REF_forces:R:3 REF_energy=-8332.063426586143 pbc="F F F"
C        0.00471716       0.02932539      -0.00000000       0.21162579      -0.05559837       0.00000000
O        1.28425343      -0.12775987      -0.00000000      -0.11790214       0.13550003       0.00000000
O        2.12044075       0.94584483       0.00000000      -0.12387300      -0.11518699       0.00000000
C       -0.68893623       1.28859736       0.00000000      -0.00824749       0.07055588      -0.00000000
C       -0.14594421       2.52630388      -0.00000000      -0.02423920      -0.07434814       0.00000000
C       -0.75176620      -1.27345187       0.00000000       0.89068632       0.52689310      -0.00000000
H       -1.77535997       1.18579926       0.00000000       0.02820186       0.00316218       0.00000000
H        0.92467911       2.66396176      -0.00000000       0.00665214      -0.00609276      -0.00000000
H       -0.80054210       3.39469962      -0.00000000      -0.00103600      -0.00808149      -0.00000000
H       -0.07841689      -2.07418577       0.00000000       0.32903183      -0.37360138       0.00000000
H       -1.34420823      -1.34011574       0.81449729      -0.59515962      -0.05147664       0.85611437
H       -1.34420823      -1.34011574      -0.81449729      -0.59515962      -0.05147665      -0.85611436
12
Lattice="20.0 0.0 0.0 0.0 20.0 0.0 0.0 0.0 20.0" Properties=species:S:1:pos:R:3:REF_forces:R:3 REF_energy=-8331.756719139861 pbc="F F F"
C        0.00484672       0.02918462      -0.00000000       0.20051510      -0.03254644      -0.00000000
O        1.28422813      -0.12773230       0.00000000      -0.11607863       0.13200803       0.00000000
O        2.12041190       0.94584364      -0.00000000      -0.11828463      -0.11444729       0.00000000
C       -0.69533575       1.28804911      -0.00000000       1.01102486       0.15415816      -0.00000000
C       -0.14496106       2.52332722       0.00000000      -0.12244753       0.25111591       0.00000000
C       -0.73662005      -1.27731182      -0.00000000      -1.60699966       1.52077044       0.00000000
H       -1.69884336       1.19287773       0.00000000      -0.98775302      -0.09045858      -0.00000000
H        0.93947382       2.66539148      -0.00000000      -0.14122021      -0.02169696      -0.00000000
H       -0.82704235       3.42958226      -0.00000000       0.24195102      -0.32830288      -0.00000000
H       -0.12852853      -2.01251942      -0.00000000       1.27595706      -1.53785712      -0.00000000
H       -1.40987200      -1.34801443       0.90976019       0.18215802       0.03373241      -0.25891891
H       -1.40987200      -1.34801443      -0.90976019       0.18215802       0.03373241       0.25891891
12
Lattice="20.0 0.0 0.0 0.0 20.0 0.0 0.0 0.0 20.0" Properties=species:S:1:pos:R:3:REF_forces:R:3 REF_energy=-8332.365256241717 pbc="F F F"
C        0.00475169       0.02928901       0.00001126       0.21491353      -0.04210694      -0.00168768
O        1.28414818      -0.12777159       0.00000885      -0.10406676       0.13751614      -0.00116419
O        2.12046044       0.94586659       0.00000411      -0.12622198      -0.11803010      -0.00062288
C       -0.68910120       1.28848411      -0.00000723       0.01175427       0.08168855       0.00059822
C       -0.14593546       2.52636191      -0.00000199      -0.02526332      -0.08020551       0.00023174
C       -0.74614992      -1.26962700       0.00374595       0.02921969       0.01093771      -0.45503587
H       -1.77306019       1.18612461       0.00004510       0.00519994      -0.00014025      -0.00045839
H        0.92470893       2.66386108       0.00001705       0.00639286      -0.00523277      -0.00017195
H       -0.80060280       3.39484027      -0.00000559      -0.00045647      -0.00937106       0.00006560
H       -0.04815587      -2.10926621       0.00072791      -0.00175322       0.00831721      -0.00707288
H       -1.37523657      -1.34329610       0.86044936      -0.18035246      -0.01009074       0.24714029
H       -1.40982723      -1.34686668      -0.90610205       0.17129453       0.02701101       0.21815506
12
Lattice="20.0 0.0 0.0 0.0 20.0 0.0 0.0 0.0 20.0" Properties=species:S:1:pos:R:3:REF_forces:R:3 REF_energy=-8332.056733783624 pbc="F F F"
C        0.00482296       0.02921072      -0.00000000       0.20436997      -0.03352474       0.00000000
O        1.28420814      -0.12774212       0.00000000      -0.11320906       0.13320414      -0.00000000
O        2.12042404       0.94584937      -0.00000000      -0.12008612      -0.11525868      -0.00000000
C       -0.69377711       1.28815786      -0.00000000       0.71609411       0.13156688       0.00000000
C       -0.14520466       2.52408589       0.00000000      -0.10281906       0.17691115      -0.00000000
C       -0.73900251      -1.27539062      -0.00000000      -1.11410177       1.01880210      -0.00000000
H       -1.71739757       1.19118945       0.00000000      -0.69512075      -0.06371101       0.00000000
H        0.93578259       2.66500888      -0.00000000      -0.10541167      -0.01760072       0.00000000
H       -0.82043246       3.42089676      -0.00000000       0.18755000      -0.25654666       0.00000000
H       -0.10843537      -2.03670611      -0.00000000       0.85931430      -1.03212505       0.00000000
H       -1.40553698      -1.34728117       0.90313907       0.14216618       0.02924783      -0.20075259
H       -1.40553698      -1.34728117      -0.90313907       0.14216618       0.02924783       0.20075259
12
Lattice="20.0 0.0 0.0 0.0 20.0 0.0 0.0 0.0 20.0" Properties=species:S:1:pos:R:3:REF_forces:R:3 REF_energy=-8332.362492296987 pbc="F F F"
C        0.00525827       0.03059826      -0.00000000       0.20817579      -0.04276896       0.00000000
O        1.28861187      -0.10413661       0.00000000      -0.12225781       0.06270507      -0.00000000
O        2.15002022       0.96425151      -0.00000000      -0.19455782      -0.15790333      -0.00000000
C       -0.71885677       1.26594738      -0.00000000       0.07908321       0.13339394       0.00000000
C       -0.13473485       2.48152346      -0.00000000      -0.04724359       0.01924354      -0.00000000
C       -0.76819132      -1.25376327       0.00000000       0.03981867      -0.03494184      -0.00000000
H       -1.80235818       1.16419452       0.00000000       0.01032323       0.00376678       0.00000000
H        0.94499661       2.55250782      -0.00000000      -0.01165144       0.01359705       0.00000000
H       -0.74417500       3.38331010       0.00000000      -0.00208833      -0.01871513       0.00000000
H       -0.10406152      -2.12110764       0.00000000       0.00243408       0.01650672       0.00000000
H       -1.41945194      -1.30112987       0.88231969       0.01972910       0.00210869      -0.00864715
H       -1.41945194      -1.30112987      -0.88231969       0.01972910       0.00210869       0.00864715
12
Lattice="20.0 0.0 0.0 0.0 20.0 0.0 0.0 0.0 20.0" Properties=species:S:1:pos:R:3:REF_forces:R:3 REF_energy=-8332.391468264163 pbc="F F F"
C        0.00478001       0.02931382       0.00000000       0.00000000       0.00000000       0.00000000
O        1.28413385      -0.12777208       0.00000000       0.00000000       0.00000000       0.00000000
O        2.12046204       0.94586788       0.00000000       0.00000000       0.00000000       0.00000000
C       -0.68805657       1.28855239      -0.00000001       0.00000000       0.00000000       0.00000000
C       -0.14610652       2.52692537      -0.00000000       0.00000000       0.00000000       0.00000000
C       -0.74544587      -1.27017423       0.00000004       0.00000000       0.00000000       0.00000000
H       -1.78554643       1.18504367       0.00000000       0.00000000       0.00000000       0.00000000
H        0.92197884       2.66356556       0.00000000       0.00000000       0.00000000       0.00000000
H       -0.79578722       3.38850615       0.00000001       0.00000000       0.00000000       0.00000000
H       -0.05391494      -2.10236537      -0.00000000       0.00000000       0.00000000       0.00000000
H       -1.39391931      -1.34533409       0.88538114       0.00000000       0.00000000       0.00000000
H       -1.39391967      -1.34533413      -0.88538161       0.00000000       0.00000000       0.00000000
12
Lattice="20.0 0.0 0.0 0.0 20.0 0.0 0.0 0.0 20.0" Properties=species:S:1:pos:R:3:REF_forces:R:3 REF_energy=-8332.236890713477 pbc="F F F"
C       -0.01163548       0.00632252      -0.00000000       0.32546089       0.10402770       0.00000000
O        1.28042900      -0.10022869      -0.00000000      -0.09625086      -0.06357235      -0.00000000
O        2.16443738       0.96290010      -0.00000000      -0.39021233      -0.20677131      -0.00000000
C       -0.67108486       1.29913057      -0.00000000      -0.08626652       0.03692437      -0.00000000
C       -0.14393952       2.55158395      -0.00000000      -0.02821799      -0.19517949      -0.00000000
C       -0.79007257      -1.33522411       0.00000000       0.18445303       0.28904838      -0.00000000
H       -1.75830906       1.22531166       0.00000000       0.00221093      -0.01784626       0.00000000
H        0.92024443       2.74363546      -0.00000000      -0.00453460      -0.04078034       0.00000000
H       -0.83472773       3.39383521       0.00000000       0.01996772      -0.01466473       0.00000000
H       -0.09671886      -2.17966623      -0.00000000       0.01814284       0.03648198       0.00000000
H       -1.43573578      -1.40867202       0.88392979       0.02815381       0.03596747      -0.00601024
H       -1.43573578      -1.40867202      -0.88392979       0.02815381       0.03596747       0.00601024
12
Lattice="20.0 0.0 0.0 0.0 20.0 0.0 0.0 0.0 20.0" Properties=species:S:1:pos:R:3:REF_forces:R:3 REF_energy=-8332.103895283553 pbc="F F F"
C        0.00475169       0.02928901      -0.00443448       0.21129420      -0.04836563       0.12835201
O        1.28414818      -0.12777159       0.00003401      -0.10057006       0.13732857      -0.00328347
O        2.12046044       0.94586659      -0.00001608      -0.12631712      -0.11749779       0.00055457
C       -0.68910120       1.28848411       0.00098217       0.01272451       0.08582706      -0.02744628
C       -0.14593546       2.52636191       0.00010513      -0.02609251      -0.08071663      -0.00292919
C       -0.74614992      -1.26962700      -0.01434511       0.03082227      -0.06522355       0.40519655
H       -1.77306019       1.18612461      -0.00148455       0.00506430       0.00046649       0.00402806
H        0.92470893       2.66386108       0.00004768       0.00642457      -0.00531512      -0.00022295
H       -0.80060280       3.39484027      -0.00212510      -0.00048083      -0.00930675       0.00502131
H       -0.04815587      -2.10926621       0.18776807      -0.03136436       0.06443161      -0.44651496
H       -1.34847877      -1.46221679       0.89644450      -0.09438484       0.29599767      -0.06371092
H       -1.43658503      -1.22794599      -0.87010692       0.11339291      -0.25747125       0.00081273
12
Lattice="20.0 0.0 0.0 0.0 20.0 0.0 0.0 0.0 20.0" Properties=species:S:1:pos:R:3:REF_forces:R:3 REF_energy=-8332.299276957872 pbc="F F F"
C        0.00483401       0.03423909      -0.00000033       0.00000000       0.00000000       0.00000000
O        1.28646409      -0.12811784       0.00000003       0.00000000       0.00000000       0.00000000
O        2.11936200       0.94532832      -0.00000020       0.00000000       0.00000000       0.00000000
C       -0.67359903       1.29796596       0.00000030       0.00000000       0.00000000       0.00000000
C       -0.16000171       2.51692345       0.00000032       0.00000000       0.00000000       0.00000000
C       -0.74587846      -1.27254061       0.00000035       0.00000000       0.00000000       0.00000000
H       -1.76541750       1.29793312       0.00000056       0.00000000       0.00000000       0.00000000
H        0.92055960       2.57302343      -0.00000140       0.00000000       0.00000000       0.00000000
H       -0.83617058       3.36573982      -0.00000023       0.00000000       0.00000000       0.00000000
H       -0.04916067      -2.11333026      -0.00000253       0.00000000       0.00000000       0.00000000
H       -1.39631938      -1.34435771       0.88066058       0.00000000       0.00000000       0.00000000
H       -1.39631692      -1.34435603      -0.88066191       0.00000000       0.00000000       0.00000000
12
Lattice="20.0 0.0 0.0 0.0 20.0 0.0 0.0 0.0 20.0" Properties=species:S:1:pos:R:3:REF_forces:R:3 REF_energy=-8332.365256125098 pbc="F F F"
C        0.00475169       0.02928901      -0.00001126       0.21491351      -0.04210679       0.00168768
O        1.28414818      -0.12777159      -0.00000885      -0.10406699       0.13751616       0.00116419
O        2.12046044       0.94586659      -0.00000411      -0.12622196      -0.11803008       0.00062288
C       -0.68910120       1.28848411       0.00000723       0.01175450       0.08168850      -0.00059822
C       -0.14593546       2.52636191       0.00000199      -0.02526341      -0.08020561      -0.00023174
C       -0.74614992      -1.26962700      -0.00374595       0.02921967       0.01093770       0.45503586
H       -1.77306019       1.18612461      -0.00004510       0.00520006      -0.00014025       0.00045839
H        0.92470893       2.66386108      -0.00001705       0.00639283      -0.00523281       0.00017195
H       -0.80060280       3.39484027       0.00000559      -0.00045646      -0.00937108      -0.00006560
H       -0.04815587      -2.10926621      -0.00072791      -0.00175330       0.00831727       0.00707289
H       -1.40982723      -1.34686668       0.90610205       0.17129459       0.02701099      -0.21815514
H       -1.37523657      -1.34329610      -0.86044936      -0.18035240      -0.01009076      -0.24714020
12
Lattice="20.0 0.0 0.0 0.0 20.0 0.0 0.0 0.0 20.0" Properties=species:S:1:pos:R:3:REF_forces:R:3 REF_energy=-8331.766871266136 pbc="F F F"
C        0.00471239       0.02917631      -0.00000000       0.22144565      -0.02480030       0.00000000
O        1.28422855      -0.12778358       0.00000000      -0.12093145       0.14026082       0.00000000
O        2.12019062       0.94598627      -0.00000000      -0.07397979      -0.13691184      -0.00000000
C       -0.68973371       1.28895881       0.00000000       0.10566128       0.02485935      -0.00000000
C       -0.16397791       2.52825412      -0.00000000       1.77799031      -0.65625592       0.00000000
C       -0.74616660      -1.26963150       0.00000000      -0.00279661       0.00695448      -0.00000000
H       -1.76316043       1.18757825       0.00000000      -0.11219131      -0.01764830       0.00000000
H        1.09726189       2.68961168       0.00000000      -1.18714163      -0.19646338       0.00000000
H       -0.75697610       3.33916171       0.00000000      -0.62917683       0.83043504       0.00000000
H       -0.04814910      -2.10929803      -0.00000000      -0.00153375       0.00858383       0.00000000
H       -1.39246888      -1.34508725       0.88320905       0.01170907       0.01060368      -0.00611488
H       -1.39246888      -1.34508725      -0.88320905       0.01170907       0.01060368       0.00611488
12
Lattice="20.0 0.0 0.0 0.0 20.0 0.0 0.0 0.0 20.0" Properties=species:S:1:pos:R:3:REF_forces:R:3 REF_energy=-8331.886589171889 pbc="F F F"
C        0.06222417       0.00031099       0.08267908      -0.04431528      -0.13169974      -0.15754281
O        1.34311462      -0.09100595       0.02404333      -0.08700828       0.09921728       0.04694195
O        2.19855471       1.03765571      -0.00215951      -0.39622902      -0.32950643      -0.00934146
C       -0.71894113       1.20230300       0.03523864      -0.05410614       0.58009786       0.31330392
C       -0.19343854       2.45280135      -0.17695402      -0.56753622      -0.10640798      -0.10634706
C       -0.84652861      -1.24515531       0.04809888       0.18119429      -0.15070733      -0.23590215
H       -1.80162041       1.10164111       0.37178288       0.39692385       0.01552593      -0.23431218
H        0.84300922       2.56840970      -0.43546821       0.08482067       0.02277026       0.02190566
H       -0.91330121       3.32187344      -0.24526921       0.27987484      -0.25957723       0.07851474
H       -0.34111958      -2.24199305       0.11862314      -0.02617286       0.26866541      -0.06675541
H       -1.54489059      -1.19400859       0.88851651      -0.01169114       0.03469253      -0.00291762
H       -1.46708094      -1.19378585      -0.91508748       0.24528414      -0.04313685       0.35279012
12
Lattice="20.0 0.0 0.0 0.0 20.0 0.0 0.0 0.0 20.0" Properties=species:S:1:pos:R:3:REF_forces:R:3 REF_energy=-8332.102791971663 pbc="F F F"
C        0.00488886       0.03759250      -0.00000000       0.21784306      -0.22801770       0.00000000
O        1.28803149      -0.12835303       0.00000000      -0.22032785       0.14887751      -0.00000000
O        2.11861865       0.94496433       0.00000000      -0.07234606      -0.08878456      -0.00000000
C       -0.66310215       1.30438558       0.00000000      -0.72880549      -0.38773642       0.00000000
C       -0.16952487       2.51053367      -0.00000000       0.62371830       0.40893575      -0.00000000
C       -0.74569522      -1.27451480       0.00000000      -0.01575917       0.11361774       0.00000000
H       -1.76024156       1.37362546       0.00000000       0.04442926      -0.37701989       0.00000000
H        0.91775159       2.51151884       0.00000000      -0.00991539       0.29028300       0.00000000
H       -0.86025588       3.34603486       0.00000000       0.11134582       0.08329271       0.00000000
H       -0.04983856      -2.11608107      -0.00000000       0.00173582       0.02058325      -0.00000000
H       -1.39888077      -1.34386284       0.87889291       0.02466842       0.00825068       0.00128495
H       -1.39888077      -1.34386284      -0.87889291       0.02466841       0.00825068      -0.00128495
12
Lattice="20.0 0.0 0.0 0.0 20.0 0.0 0.0 0.0 20.0" Properties=species:S:1:pos:R:3:REF_forces:R:3 REF_energy=-8332.398557791797 pbc="F F F"
C        0.01042728       0.02622242       0.00000000       0.00000000       0.00000000       0.00000000
O        1.28099484      -0.12707059       0.00000001       0.00000000       0.00000000       0.00000000
O        2.12045106       0.94580095      -0.00000002       0.00000000       0.00000000       0.00000000
C       -0.69060193       1.29049392       0.00000001       0.00000000       0.00000000       0.00000000
C       -0.14523068       2.52667747       0.00000001       0.00000000       0.00000000       0.00000000
C       -0.74766859      -1.26737665       0.00000017       0.00000000       0.00000000       0.00000000
H       -1.77447618       1.18708587      -0.00000002       0.00000000       0.00000000       0.00000000
H        0.92596948       2.66067855      -0.00000012       0.00000000       0.00000000       0.00000000
H       -0.80617150       3.39046206      -0.00000001       0.00000000       0.00000000       0.00000000
H       -0.05699092      -2.11375726      -0.00000187       0.00000000       0.00000000       0.00000000
H       -1.38017717      -1.35356923       0.89208819       0.00000000       0.00000000       0.00000000
H       -1.38017621      -1.35357117      -0.89208847       0.00000000       0.00000000       0.00000000
12
Lattice="20.0 0.0 0.0 0.0 20.0 0.0 0.0 0.0 20.0" Properties=species:S:1:pos:R:3:REF_forces:R:3 REF_energy=-8332.385379959665 pbc="F F F"
C       -0.00116903       0.03151538       0.00000007       0.00000000       0.00000000       0.00000000
O        1.28678978      -0.12842320      -0.00000001       0.00000000       0.00000000       0.00000000
O        2.12057569       0.94596786       0.00000001       0.00000000       0.00000000       0.00000000
C       -0.68794214       1.28677896      -0.00000002       0.00000000       0.00000000       0.00000000
C       -0.14613187       2.52694922      -0.00000001       0.00000000       0.00000000       0.00000000
C       -0.74648963      -1.26917028       0.00000007       0.00000000       0.00000000       0.00000000
H       -1.77194442       1.18482560       0.00000002       0.00000000       0.00000000       0.00000000
H        0.92480633       2.66265784       0.00000012       0.00000000       0.00000000       0.00000000
H       -0.80004477       3.39591895       0.00000004       0.00000000       0.00000000       0.00000000
H       -0.05920598      -2.11801016      -0.00000123       0.00000000       0.00000000       0.00000000
H       -1.37820728      -1.34495497       0.89359939       0.00000000       0.00000000       0.00000000
H       -1.37820675      -1.34495695      -0.89359955       0.00000000       0.00000000       0.00000000
12
Lattice="20.0 0.0 0.0 0.0 20.0 0.0 0.0 0.0 20.0" Properties=species:S:1:pos:R:3:REF_forces:R:3 REF_energy=-8332.364417978899 pbc="F F F"
C        0.00475169       0.02928901      -0.02751954       0.21745936      -0.03833143       0.18407869
O        1.28414818      -0.12777159       0.01182059      -0.10746671       0.13681366      -0.10666649
O        2.12046044       0.94586659      -0.00479541      -0.12570580      -0.11705192       0.04091894
C       -0.68910120       1.28848411       0.02698484      -0.00153801       0.07523351      -0.17415390
C       -0.14593546       2.52636191      -0.00222497      -0.02853220      -0.05989267       0.01391399
C       -0.74614992      -1.26962700      -0.00470047      -0.01176639       0.00371827       0.02733803
H       -1.77306019       1.18612461      -0.03074988       0.01735774       0.00166544       0.01751031
H        0.92470893       2.66386108       0.04981700      -0.00527188      -0.00422579      -0.02694116
H       -0.80060280       3.39484027      -0.08298712       0.01612600      -0.02965640       0.04654834
H       -0.04815587      -2.10926621       0.01644904      -0.00197513       0.00990423      -0.00867615
H       -1.37374233      -1.31146995       0.89570476       0.00588320      -0.00688546      -0.01972670
H       -1.41132147      -1.37869284      -0.87084665       0.02553326       0.02884646       0.00612058
12
Lattice="20.0 0.0 0.0 0.0 20.0 0.0 0.0 0.0 20.0" Properties=species:S:1:pos:R:3:REF_forces:R:3 REF_energy=-8331.815016874032 pbc="F F F"
C        0.00272538       0.02405202       0.00000000       0.17699704      -0.11800680       0.00000000
O        1.26629341      -0.22231150      -0.00000000      -0.13798564       0.46099039       0.00000000
O        2.00222134       0.87232690       0.00000000       0.38137018       0.13586117      -0.00000000
C       -0.57007895       1.37863102       0.00000000      -0.20383985       0.04814139      -0.00000000
C       -0.19073791       2.70571571       0.00000000       0.10882591      -0.32745194       0.00000000
C       -0.65798430      -1.33308193      -0.00000000      -0.18679101      -0.02312123      -0.00000000
H       -1.65586825       1.27384499      -0.00000000      -0.02039299      -0.02041171       0.00000000
H        0.84355820       3.10927414       0.00000000      -0.22852273      -0.18277186       0.00000000
H       -1.02631397       3.44096093      -0.00000000       0.20198856      -0.14333431       0.00000000
H        0.17546672      -2.06190048      -0.00000000      -0.15739633       0.06456716       0.00000000
H       -1.28485172      -1.52088748       0.88709979       0.03338287       0.05256029      -0.04185518
H       -1.28485172      -1.52088748      -0.88709979       0.03338287       0.05256029       0.04185518
12
Lattice="20.0 0.0 0.0 0.0 20.0 0.0 0.0 0.0 20.0" Properties=species:S:1:pos:R:3:REF_forces:R:3 REF_energy=-8331.859439725064 pbc="F F F"
C        0.00563546       0.03414095       0.02329902       0.50596060      -0.30773433      -0.13407872
O        1.30285838      -0.12379548       0.00427432      -0.31743482       0.25229234       0.01810372
O        2.14044268       0.96919273      -0.00035443      -0.21186845      -0.22369275      -0.00146488
C       -0.68908856       1.28546140      -0.00135721      -0.72183610      -0.51190684       0.22693739
C       -0.15204137       2.49305349      -0.03035963      -0.36171487       0.79567015      -0.13363026
C       -0.76999452      -1.28376657       0.01491129      -0.13134132       0.28024602      -0.49028442
H       -1.84053818       1.08888167       0.12119453       0.61194629       0.23540351      -0.13023875
H        0.89905938       2.67681831      -0.10219644       0.11772875      -0.04808291       0.00978275
H       -0.84725004       3.40310374      -0.07986646       0.28462843      -0.38411091       0.06758913
H       -0.03688355      -2.14282856      -0.01242802      -0.32492076       0.21660853       0.07781921
H       -1.44891409      -1.19665501       0.88972058       0.10071938      -0.23163718      -0.08958260
H       -1.47558471      -1.27364946      -0.95601279       0.44714698      -0.07271641       0.57819583
12
Lattice="20.0 0.0 0.0 0.0 20.0 0.0 0.0 0.0 20.0" Properties=species:S:1:pos:R:3:REF_forces:R:3 REF_energy=-8331.904026305509 pbc="F F F"
C        0.00698508       0.03417431       0.02787344       0.53526469      -0.33458534      -0.15468415
O        1.30627652      -0.12260072       0.00523455      -0.34216961       0.26504259       0.02245808
O        2.14451785       0.97392669      -0.00043930      -0.22579827      -0.24110130      -0.00138949
C       -0.69196667       1.28263288      -0.00086598      -0.62680729      -0.52959113       0.25737763
C       -0.15476546       2.48916698      -0.03740583      -0.27186406       0.75848271      -0.15675211
C       -0.77569493      -1.28585451       0.01602315      -0.11524309       0.39843905      -0.42747527
H       -1.82608557       1.07817653       0.14240600       0.52289007       0.24505142      -0.14397123
H        0.89881559       2.67766235      -0.12385075       0.07283034      -0.06640179       0.01589974
H       -0.84389565       3.38728303      -0.09443901       0.22747898      -0.30600073       0.07499606
H       -0.04960200      -2.14037967      -0.01162158      -0.29332752       0.16384130       0.08686702
H       -1.45759474      -1.17525774       0.88795193       0.10987926      -0.26297233      -0.08794176
H       -1.47210201      -1.26135086      -0.94357123       0.40580370      -0.08997822       0.51390972
12
Lattice="20.0 0.0 0.0 0.0 20.0 0.0 0.0 0.0 20.0" Properties=species:S:1:pos:R:3:REF_forces:R:3 REF_energy=-8332.247867923601 pbc="F F F"
C        0.00476741       0.02933409       0.00000000       0.21297833      -0.04853030      -0.00000000
O        1.28411603      -0.12776679      -0.00000000      -0.09798197       0.13757486       0.00000000
O        2.12056837       0.94581871       0.00000000      -0.14548889      -0.11031368       0.00000000
C       -0.68884820       1.28829423      -0.00000000      -0.01849154       0.11127964      -0.00000000
C       -0.13871848       2.52560503       0.00000000      -1.21336360      -0.03054320       0.00000000
C       -0.74614324      -1.26962520      -0.00000000      -0.00604401       0.00665288       0.00000000
H       -1.77702010       1.18554315      -0.00000000       0.04992911       0.00669507      -0.00000000
H        0.85568774       2.65356084      -0.00000000       1.00875575       0.14151144      -0.00000000
H       -0.81805347       3.41711169      -0.00000000       0.18710577      -0.24322127      -0.00000000
H       -0.04815858      -2.10925348       0.00000000      -0.00150203       0.00799086      -0.00000000
H       -1.39255711      -1.34507905       0.88330237       0.01256929       0.01035342      -0.00713229
H       -1.39255711      -1.34507905      -0.88330237       0.01256929       0.01035342       0.00713229
12
Lattice="20.0 0.0 0.0 0.0 20.0 0.0 0.0 0.0 20.0" Properties=species:S:1:pos:R:3:REF_forces:R:3 REF_energy=-8332.11066033173 pbc="F F F"
C        0.01462450       0.04156672      -0.00000000      -0.10033463      -0.50354171       0.00000000
O        1.27995889      -0.12841855      -0.00000000       0.10392912       0.16717282      -0.00000000
O        2.12008678       0.94518572       0.00000000      -0.11096030      -0.08393841      -0.00000000
C       -0.69959822       1.24229876       0.00000000       0.19598073       1.47653350       0.00000000
C       -0.13331292       2.56220833      -0.00000000      -0.34495741      -1.06618494      -0.00000000
C       -0.74800034      -1.27134594       0.00000000       0.05793477       0.06350914      -0.00000000
H       -1.79609846       1.25071730      -0.00000000       0.10317876      -0.18599559       0.00000000
H        0.95459127       2.62127204      -0.00000000      -0.08555509       0.11164213       0.00000000
H       -0.84795844       3.39027432       0.00000000       0.13863507      -0.00180973       0.00000000
H       -0.04249543      -2.10483863       0.00000000      -0.01739014      -0.00491271       0.00000000
H       -1.39935566      -1.34678559       0.87905767       0.03044694       0.01402683       0.00626537
H       -1.39935566      -1.34678559      -0.87905767       0.03044694       0.01402683      -0.00626537
12
Lattice="20.0 0.0 0.0 0.0 20.0 0.0 0.0 0.0 20.0" Properties=species:S:1:pos:R:3:REF_forces:R:3 REF_energy=-8332.33937909644 pbc="F F F"
C        0.00473626       0.02930529       0.00000000       0.00000000       0.00000000       0.00000000
O        1.28419526      -0.12776631      -0.00000000       0.00000000       0.00000000       0.00000000
O        2.12045162       0.94585684      -0.00000003       0.00000000       0.00000000       0.00000000
C       -0.68902733       1.28853476       0.00000004       0.00000000       0.00000000       0.00000000
C       -0.14593938       2.52633592       0.00000001       0.00000000       0.00000000       0.00000000
C       -0.74866158      -1.27133753      -0.00000001       0.00000000       0.00000000       0.00000000
H       -1.77408997       1.18597890       0.00000016       0.00000000       0.00000000       0.00000000
H        0.92469579       2.66390620      -0.00000007       0.00000000       0.00000000       0.00000000
H       -0.80057585       3.39477763       0.00000001       0.00000000       0.00000000       0.00000000
H       -0.06168899      -2.09357774       0.00000003       0.00000000       0.00000000       0.00000000
H       -1.37092091      -1.34286079       0.85251715       0.00000000       0.00000000       0.00000000
H       -1.37092084      -1.34286059      -0.85251718       0.00000000       0.00000000       0.00000000
12
Lattice="20.0 0.0 0.0 0.0 20.0 0.0 0.0 0.0 20.0" Properties=species:S:1:pos:R:3:REF_forces:R:3 REF_energy=-8332.29389251497 pbc="F F F"
C        0.00405718       0.02319940      -0.00000115       0.00000000       0.00000000       0.00000000
O        1.25940483      -0.12946656      -0.00000009       0.00000000       0.00000000       0.00000000
O        2.12750373       0.95288571      -0.00000006       0.00000000       0.00000000       0.00000000
C       -0.66397799       1.28098090      -0.00000030       0.00000000       0.00000000       0.00000000
C       -0.16059068       2.53862155       0.00000039       0.00000000       0.00000000       0.00000000
C       -0.73921235      -1.26942255       0.00000162       0.00000000       0.00000000       0.00000000
H       -1.74177858       1.11148527       0.00000768       0.00000000       0.00000000       0.00000000
H        0.92500896       2.57647414       0.00000087       0.00000000       0.00000000       0.00000000
H       -0.75417112       3.45201675      -0.00000338       0.00000000       0.00000000       0.00000000
H       -0.05165751      -2.11668905      -0.00000494       0.00000000       0.00000000       0.00000000
H       -1.38888343      -1.32448132       0.88219450       0.00000000       0.00000000       0.00000000
H       -1.38887490      -1.32446855      -0.88219905       0.00000000       0.00000000       0.00000000
12
Lattice="20.0 0.0 0.0 0.0 20.0 0.0 0.0 0.0 20.0" Properties=species:S:1:pos:R:3:REF_forces:R:3 REF_energy=-8332.392313496333 pbc="F F F"
C        0.00742430       0.02819942      -0.00000003       0.18349541      -0.03176366      -0.00000006
O        1.28513589      -0.12076839       0.00000005      -0.12123268       0.02090368      -0.00000026
O        2.11640976       0.94009906       0.00000001      -0.05811018      -0.02318222       0.00000012
C       -0.68895452       1.28952722      -0.00000025      -0.10882448       0.04426755       0.00000249
C       -0.14583523       2.52633782       0.00000023      -0.03796298       0.07319790      -0.00000330
C       -0.74208383      -1.27341775       0.00000002      -0.05895425       0.05038773       0.00000018
H       -1.78599644       1.18542934       0.00000089       0.12766660       0.01082492      -0.00000120
H        0.93302900       2.66341178      -0.00000035      -0.07563238      -0.01361887       0.00000044
H       -0.80652047       3.41326585      -0.00000134       0.09805082      -0.15331497       0.00000170
H       -0.06804944      -2.13222171       0.00000008       0.01723495       0.03157325       0.00000007
H       -1.39463059      -1.32904433       0.88099948       0.01696385      -0.00708294      -0.00782776
H       -1.39463066      -1.32904465      -0.88099936       0.01696390      -0.00708260       0.00782771
12
Lattice="20.0 0.0 0.0 0.0 20.0 0.0 0.0 0.0 20.0" Properties=species:S:1:pos:R:3:REF_forces:R:3 REF_energy=-8332.382244146605 pbc="F F F"
C        0.00738990       0.02811591      -0.00000003       0.18656544      -0.02013502      -0.00000007
O        1.28515578      -0.12076816       0.00000005      -0.12450904       0.02071223      -0.00000026
O        2.11641779       0.94009485       0.00000001      -0.05919676      -0.02252469       0.00000012
C       -0.69186937       1.28918769      -0.00000025       0.27097038       0.08911468       0.00000221
C       -0.14567079       2.52674445       0.00000023      -0.06060638       0.02181765      -0.00000327
C       -0.74335418      -1.27244135       0.00000002       0.09453808      -0.06922573       0.00000018
H       -1.75222407       1.18839286       0.00000089      -0.24043304      -0.02150629      -0.00000089
H        0.92984730       2.66296509      -0.00000035      -0.04246945      -0.00906915       0.00000042
H       -0.80463167       3.41067965      -0.00000134       0.07936400      -0.12710740       0.00000168
H       -0.05776786      -2.14449629       0.00000008      -0.08331010       0.15648036       0.00000007
H       -1.39207116      -1.32856056       0.87712015      -0.01062694      -0.01181353       0.03361151
H       -1.39207124      -1.32856088      -0.87712003      -0.01062689      -0.01181321      -0.03361157
12
Lattice="20.0 0.0 0.0 0.0 20.0 0.0 0.0 0.0 20.0" Properties=species:S:1:pos:R:3:REF_forces:R:3 REF_energy=-8332.318594345268 pbc="F F F"
C       -0.01227508       0.03848880      -0.00000001       0.00000000       0.00000000       0.00000000
O        1.29360818      -0.12987457      -0.00000003       0.00000000       0.00000000       0.00000000
O        2.12048860       0.94606351       0.00000005       0.00000000       0.00000000       0.00000000
C       -0.68459901       1.28245470      -0.00000003       0.00000000       0.00000000       0.00000000
C       -0.14804980       2.52541523      -0.00000004       0.00000000       0.00000000       0.00000000
C       -0.74159389      -1.27637804      -0.00000052       0.00000000       0.00000000       0.00000000
H       -1.76881223       1.18324082       0.00000005       0.00000000       0.00000000       0.00000000
H        0.92092726       2.67340867       0.00000036       0.00000000       0.00000000       0.00000000
H       -0.78389670       3.40797489       0.00000004       0.00000000       0.00000000       0.00000000
H       -0.02165071      -2.09579307       0.00000561       0.00000000       0.00000000       0.00000000
H       -1.42959610      -1.31961786       0.85683826       0.00000000       0.00000000       0.00000000
H       -1.42959896      -1.31961206      -0.85683744       0.00000000       0.00000000       0.00000000
12
Lattice="20.0 0.0 0.0 0.0 20.0 0.0 0.0 0.0 20.0" Properties=species:S:1:pos:R:3:REF_forces:R:3 REF_energy=-8332.392032644253 pbc="F F F"
C        0.00743947       0.02815931      -0.00000632       0.18146583      -0.02696839       0.00140864
O        1.28513072      -0.12076902      -0.00000490      -0.12029204       0.02109798       0.00065681
O        2.11642056       0.94009711      -0.00000229      -0.05994514      -0.02298401       0.00033165
C       -0.69004154       1.28930715       0.00000379       0.02432645       0.07299454      -0.00043157
C       -0.14597012       2.52773035       0.00000134      -0.02555138      -0.09655537      -0.00011310
C       -0.74212165      -1.27339939      -0.00209403      -0.04344548       0.04886124       0.25167976
H       -1.77407150       1.18650155      -0.00002432       0.00578913      -0.00023071       0.00022784
H        0.92507047       2.66244803      -0.00000988       0.00674132      -0.00377674       0.00013701
H       -0.79620570       3.39959670       0.00000179      -0.00489718      -0.01525286      -0.00001081
H       -0.06785019      -2.13241505      -0.00040683       0.01505788       0.03372163       0.00347277
H       -1.40416849      -1.33000093       0.89356643       0.10859234       0.00015999      -0.12796031
H       -1.38483180      -1.32800523      -0.86804568      -0.08800497      -0.01596787      -0.12956916
12
Lattice="20.0 0.0 0.0 0.0 20.0 0.0 0.0 0.0 20.0" Properties=species:S:1:pos:R:3:REF_forces:R:3 REF_energy=-8332.142672280419 pbc="F F F"
C        0.04282327       0.00871673       0.00000000      -1.00877780       0.46995951       0.00000000
O        1.26299585      -0.12306924      -0.00000000       0.86861829      -0.05683740      -0.00000000
O        2.12039751       0.94542618      -0.00000000      -0.11031244      -0.09540175      -0.00000000
C       -0.69916879       1.30196661      -0.00000000       0.26476535      -0.23990549      -0.00000000
C       -0.14120666       2.52848067       0.00000000      -0.15998058      -0.11904427      -0.00000000
C       -0.75633679      -1.25453048      -0.00000000       0.21400371      -0.40022149      -0.00000000
H       -1.78255946       1.19257063      -0.00000000       0.02282829      -0.01477238       0.00000000
H        0.93316774       2.64250313      -0.00000000      -0.01351736       0.04207583       0.00000000
H       -0.83796838       3.36546432      -0.00000000       0.08899903       0.05239537       0.00000000
H       -0.10742507      -2.13939408      -0.00000000       0.13391438       0.08018244       0.00000000
H       -1.30965257      -1.40202800       0.94239035      -0.15067364       0.14093207      -0.16338868
H       -1.30965257      -1.40202800      -0.94239035      -0.15067364       0.14093207       0.16338869
12
Lattice="20.0 0.0 0.0 0.0 20.0 0.0 0.0 0.0 20.0" Properties=species:S:1:pos:R:3:REF_forces:R:3 REF_energy=-8332.362152638832 pbc="F F F"
C        0.00475955       0.02931155       0.00000000       0.21421652      -0.04515356       0.00000000
O        1.28413210      -0.12776919      -0.00000000      -0.10111152       0.13745325       0.00000000
O        2.12051441       0.94584265       0.00000000      -0.13597184      -0.11396766      -0.00000000
C       -0.68897470       1.28838917      -0.00000000      -0.00398463       0.09591975       0.00000000
C       -0.14232697       2.52598347       0.00000000      -0.56842770      -0.04146897      -0.00000000
C       -0.74614658      -1.26962610      -0.00000000      -0.00559994       0.00668882       0.00000000
H       -1.77504014       1.18583388      -0.00000000       0.02770540       0.00328200       0.00000000
H        0.89019833       2.65871096      -0.00000000       0.45337338       0.06098662       0.00000000
H       -0.80932814       3.40597598      -0.00000000       0.09711464      -0.13227235       0.00000000
H       -0.04815722      -2.10925985       0.00000000      -0.00150398       0.00807318      -0.00000000
H       -1.39254450      -1.34508022       0.88328904       0.01243962       0.01038085      -0.00698749
H       -1.39254450      -1.34508022      -0.88328904       0.01243962       0.01038085       0.00698749
12
Lattice="20.0 0.0 0.0 0.0 20.0 0.0 0.0 0.0 20.0" Properties=species:S:1:pos:R:3:REF_forces:R:3 REF_energy=-8332.123003817454 pbc="F F F"
C        0.00538423       0.03271945       0.01647662       0.42537073      -0.23125754      -0.09332003
O        1.29737380      -0.12496080       0.00302174      -0.25788549       0.21911954       0.01186858
O        2.13459119       0.96236044      -0.00025077      -0.18754108      -0.19363880      -0.00129276
C       -0.68911558       1.28635421      -0.00097029      -0.52815689      -0.33170885       0.15063252
C       -0.15027260       2.50281927      -0.02146491      -0.28196213       0.54548569      -0.09141722
C       -0.76302219      -1.27963758       0.01050089      -0.10154731       0.19060654      -0.38633032
H       -1.82047592       1.11732723       0.08581558       0.45808002       0.16417493      -0.08284383
H        0.90662053       2.67302562      -0.07225415       0.09087552      -0.03524208       0.00721348
H       -0.83346641       3.40051596      -0.05650996       0.21013079      -0.28632692       0.04512793
H       -0.04026562      -2.13294034      -0.00879516      -0.23679778       0.15959554       0.05476696
H       -1.43247984      -1.24011830       0.88794059       0.06739652      -0.15869792      -0.05610225
H       -1.45095921      -1.29446717      -0.93430139       0.34179515      -0.04140091       0.44097993
12
Lattice="20.0 0.0 0.0 0.0 20.0 0.0 0.0 0.0 20.0" Properties=species:S:1:pos:R:3:REF_forces:R:3 REF_energy=-8332.390493942588 pbc="F F F"
C        0.00169136       0.01958902       0.00000006       0.00000000       0.00000000       0.00000000
O        1.28612787      -0.12575088       0.00000002       0.00000000       0.00000000       0.00000000
O        2.12060986       0.94522408       0.00000003       0.00000000       0.00000000       0.00000000
C       -0.68958533       1.28727880      -0.00000006       0.00000000       0.00000000       0.00000000
C       -0.14697940       2.52844139      -0.00000005       0.00000000       0.00000000       0.00000000
C       -0.74586884      -1.26602677      -0.00000008       0.00000000       0.00000000       0.00000000
H       -1.77538116       1.20068823      -0.00000044       0.00000000       0.00000000       0.00000000
H        0.92390203       2.66478916       0.00000020       0.00000000       0.00000000       0.00000000
H       -0.79284133       3.40389145       0.00000021       0.00000000       0.00000000       0.00000000
H       -0.04046170      -2.09942765       0.00000050       0.00000000       0.00000000       0.00000000
H       -1.38992949      -1.34207466       0.88478558       0.00000000       0.00000000       0.00000000
H       -1.38992998      -1.34207536      -0.88478529       0.00000000       0.00000000       0.00000000
12
Lattice="20.0 0.0 0.0 0.0 20.0 0.0 0.0 0.0 20.0" Properties=species:S:1:pos:R:3:REF_forces:R:3 REF_energy=-8332.366909308645 pbc="F F F"
C        0.00474018       0.02930114      -0.00000000       0.21483715      -0.04610250      -0.00000000
O        1.28418326      -0.12776768      -0.00000000      -0.10897067       0.13694096       0.00000000
O        2.12045388       0.94585933       0.00000000      -0.12525593      -0.11688748      -0.00000000
C       -0.68904621       1.28852186       0.00000000       0.00516644       0.07796649       0.00000000
C       -0.14593838       2.52634257      -0.00000000      -0.02495029      -0.07820982      -0.00000000
C       -0.74802201      -1.27090196       0.00000000       0.23765838       0.16403507       0.00000000
H       -1.77382678       1.18601616       0.00000000       0.01285680       0.00098611      -0.00000000
H        0.92469899       2.66389464      -0.00000000       0.00649282      -0.00555449      -0.00000000
H       -0.80058257       3.39479339      -0.00000000      -0.00065620      -0.00893078      -0.00000000
H       -0.05824288      -2.09757273       0.00000000       0.09994488      -0.10937612      -0.00000000
H       -1.37642401      -1.34342617       0.86034957      -0.15824281      -0.00729541       0.23546524
H       -1.37642401      -1.34342617      -0.86034957      -0.15824281      -0.00729541      -0.23546524
12
Lattice="20.0 0.0 0.0 0.0 20.0 0.0 0.0 0.0 20.0" Properties=species:S:1:pos:R:3:REF_forces:R:3 REF_energy=-8332.338803785395 pbc="F F F"
C        0.00475169       0.02928902      -0.00001511       0.00000000       0.00000000       0.00000000
O        1.28414817      -0.12777159      -0.00001188       0.00000000       0.00000000       0.00000000
O        2.12046044       0.94586659      -0.00000551       0.00000000       0.00000000       0.00000000
C       -0.68910114       1.28848410       0.00000970       0.00000000       0.00000000       0.00000000
C       -0.14593546       2.52636202       0.00000267       0.00000000       0.00000000       0.00000000
C       -0.74614990      -1.26962701      -0.00502571       0.00000000       0.00000000       0.00000000
H       -1.77306098       1.18612454      -0.00006050       0.00000000       0.00000000       0.00000000
H        0.92470823       2.66386099      -0.00002287       0.00000000       0.00000000       0.00000000
H       -0.80060200       3.39483923       0.00000750       0.00000000       0.00000000       0.00000000
H       -0.04815594      -2.10926613      -0.00097659       0.00000000       0.00000000       0.00000000
H       -1.41573605      -1.34747662       0.91390051       0.00000000       0.00000000       0.00000000
H       -1.36932782      -1.34268618      -0.85265100       0.00000000       0.00000000       0.00000000
12
Lattice="20.0 0.0 0.0 0.0 20.0 0.0 0.0 0.0 20.0" Properties=species:S:1:pos:R:3:REF_forces:R:3 REF_energy=-8332.376618965694 pbc="F F F"
C       -0.00273168       0.03063935      -0.00000000       0.28704469      -0.06608055       0.00000000
O        1.27033192      -0.11141877       0.00000000       0.05563153      -0.05015868       0.00000000
O        2.12135867       0.93884548      -0.00000000      -0.13753841      -0.03775864      -0.00000000
C       -0.67106020       1.27497370      -0.00000000      -0.15271518       0.21430942      -0.00000000
C       -0.14167313       2.51394598       0.00000000      -0.05298663       0.03627517       0.00000000
C       -0.74310169      -1.25982734      -0.00000000      -0.03280556      -0.08006380      -0.00000000
H       -1.75554474       1.18543743      -0.00000000      -0.00647749      -0.00076780      -0.00000000
H        0.91992579       2.71439216      -0.00000000      -0.00658436      -0.04256153       0.00000000
H       -0.84415560       3.34638442       0.00000000       0.04050357       0.01548678       0.00000000
H       -0.03488854      -2.09073167       0.00000000      -0.01135792      -0.00427986       0.00000000
H       -1.38769365      -1.34106332       0.88390131       0.00934208       0.00758666      -0.00755719
H       -1.38769365      -1.34106332      -0.88390131       0.00934208       0.00758666       0.00755719
12
Lattice="20.0 0.0 0.0 0.0 20.0 0.0 0.0 0.0 20.0" Properties=species:S:1:pos:R:3:REF_forces:R:3 REF_energy=-8332.309342010583 pbc="F F F"
C        0.00996345       0.03000928      -0.00000005       0.00000000       0.00000000       0.00000000
O        1.28335890      -0.12711594       0.00000007       0.00000000       0.00000000       0.00000000
O        2.11948443       0.94506451       0.00000002       0.00000000       0.00000000       0.00000000
C       -0.69143419       1.29289661      -0.00000002       0.00000000       0.00000000       0.00000000
C       -0.14346733       2.52677422      -0.00000002       0.00000000       0.00000000       0.00000000
C       -0.75846769      -1.28686070       0.00000016       0.00000000       0.00000000       0.00000000
H       -1.77404986       1.17165842      -0.00000071       0.00000000       0.00000000       0.00000000
H        0.92878622       2.65390706      -0.00000011       0.00000000       0.00000000       0.00000000
H       -0.81917136       3.37914710       0.00000012       0.00000000       0.00000000       0.00000000
H        0.01564783      -2.06265303      -0.00000137       0.00000000       0.00000000       0.00000000
H       -1.36114977      -1.27752496       0.91979583       0.00000000       0.00000000       0.00000000
H       -1.36114895      -1.27752732      -0.91979598       0.00000000       0.00000000       0.00000000
12
Lattice="20.0 0.0 0.0 0.0 20.0 0.0 0.0 0.0 20.0" Properties=species:S:1:pos:R:3:REF_forces:R:3 REF_energy=-8332.382200486947 pbc="F F F"
C        0.00743947       0.02815931       0.00000879       0.18131753      -0.02706690      -0.00196818
O        1.28513072      -0.12076902       0.00000697      -0.12022906       0.02109808      -0.00092090
O        2.11642056       0.94009711       0.00000323      -0.05997995      -0.02302296      -0.00046406
C       -0.69004154       1.28930715      -0.00000591       0.02431023       0.07299689       0.00060993
C       -0.14597012       2.52773035      -0.00000133      -0.02554708      -0.09655989       0.00015081
C       -0.74212165      -1.27339939       0.00293169      -0.03308000       0.04976399      -0.35294597
H       -1.77407150       1.18650155       0.00003618       0.00579571      -0.00023370      -0.00032159
H        0.92507047       2.66244803       0.00001299       0.00673896      -0.00377120      -0.00019061
H       -0.79620570       3.39959670      -0.00000571      -0.00489579      -0.01525416       0.00001862
H       -0.06785019      -2.13241505       0.00056976       0.01497861       0.03377088      -0.00485779
H       -1.38096437      -1.32760571       0.86294168      -0.13264382      -0.01961292       0.18771400
H       -1.40803591      -1.33040045      -0.89867043       0.14305088       0.00300068       0.17339165
12
Lattice="20.0 0.0 0.0 0.0 20.0 0.0 0.0 0.0 20.0" Properties=species:S:1:pos:R:3:REF_forces:R:3 REF_energy=-8332.347670026978 pbc="F F F"
C       -0.00344190       0.01780577      -0.00000000       0.26401313       0.02468965       0.00000000
O        1.28228859      -0.11400014      -0.00000000      -0.09635257       0.03821052      -0.00000000
O        2.14244891       0.95438334      -0.00000000      -0.26569530      -0.16728326      -0.00000000
C       -0.68009303       1.29380734      -0.00000000      -0.03525916       0.05758051       0.00000000
C       -0.14493749       2.53897293      -0.00000000      -0.02827002      -0.14096123       0.00000000
C       -0.76811124      -1.30242555       0.00000000       0.09786345       0.16042538       0.00000000
H       -1.76568462       1.20571814       0.00000000       0.00286121      -0.00883942      -0.00000000
H        0.92247668       2.70374827      -0.00000000       0.00415489      -0.02267709      -0.00000000
H       -0.81766526       3.39433774       0.00000000       0.00819286      -0.01053728      -0.00000000
H       -0.07243736      -2.14446622      -0.00000000       0.00867678       0.02250860       0.00000000
H       -1.41413384      -1.37687670       0.88360275       0.02046972       0.02334218      -0.00647267
H       -1.41413384      -1.37687670      -0.88360275       0.02046972       0.02334218       0.00647267
12
Lattice="20.0 0.0 0.0 0.0 20.0 0.0 0.0 0.0 20.0" Properties=species:S:1:pos:R:3:REF_forces:R:3 REF_energy=-8332.267557709607 pbc="F F F"
C        0.00475169       0.02928901       0.00295632       0.21356271      -0.04459282      -0.08587267
O        1.28414818      -0.12777159      -0.00002267      -0.10264525       0.13742064       0.00227413
O        2.12046044       0.94586659       0.00001072      -0.12620668      -0.11771754      -0.00034984
C       -0.68910120       1.28848411      -0.00065478       0.01222415       0.08353859       0.01820678
C       -0.14593546       2.52636191      -0.00007008      -0.02564018      -0.08042254       0.00194645
C       -0.74614992      -1.26962700       0.00956341       0.01224966      -0.02716468      -0.27010979
H       -1.77306019       1.18612461       0.00098970       0.00512992       0.00012951      -0.00266247
H        0.92470893       2.66386108      -0.00003178       0.00641145      -0.00527943       0.00015084
H       -0.80060280       3.39484027       0.00141673      -0.00046992      -0.00933845      -0.00333312
H       -0.04815587      -2.10926621      -0.12517871      -0.01598675       0.03490290       0.29620195
H       -1.42190065      -1.26699113       0.87449652       0.07977673      -0.17049671       0.00346176
H       -1.36316315      -1.42317166      -0.89205490      -0.05768675       0.19972170       0.04001377
12
Lattice="20.0 0.0 0.0 0.0 20.0 0.0 0.0 0.0 20.0" Properties=species:S:1:pos:R:3:REF_forces:R:3 REF_energy=-8332.373601370658 pbc="F F F"
C        0.00474141       0.02929986       0.00000000       0.00000000       0.00000000       0.00000000
O        1.28417957      -0.12776807      -0.00000000       0.00000000       0.00000000       0.00000000
O        2.12045456       0.94586009      -0.00000002       0.00000000       0.00000000       0.00000000
C       -0.68905195       1.28851788       0.00000002       0.00000000       0.00000000       0.00000000
C       -0.14593807       2.52634458       0.00000000       0.00000000       0.00000000       0.00000000
C       -0.74782436      -1.27076736      -0.00000001       0.00000000       0.00000000       0.00000000
H       -1.77374671       1.18602747       0.00000011       0.00000000       0.00000000       0.00000000
H        0.92470017       2.66389116      -0.00000005       0.00000000       0.00000000       0.00000000
H       -0.80058484       3.39479851       0.00000001       0.00000000       0.00000000       0.00000000
H       -0.05717795      -2.09880723       0.00000002       0.00000000       0.00000000       0.00000000
H       -1.37812457      -1.34360099       0.86277000       0.00000000       0.00000000       0.00000000
H       -1.37812453      -1.34360086      -0.86277002       0.00000000       0.00000000       0.00000000
12
Lattice="20.0 0.0 0.0 0.0 20.0 0.0 0.0 0.0 20.0" Properties=species:S:1:pos:R:3:REF_forces:R:3 REF_energy=-8332.073771938429 pbc="F F F"
C        0.00475169       0.02928901      -0.00134999       0.22294312      -0.03698566       0.01304563
O        1.28414818      -0.12777159       0.00427348      -0.09703796       0.12539427      -0.06761170
O        2.12046044       0.94586659      -0.00158494      -0.12857205      -0.11120368       0.02616609
C       -0.68910120       1.28848411      -0.03333535      -0.34451050      -0.00587500       0.51582631
C       -0.14593546       2.52636191       0.00429534       0.05876204       0.01053127      -0.05199311
C       -0.74614992      -1.26962700      -0.00407125      -0.00469471       0.00483094       0.05306510
H       -1.77306019       1.18612461       0.31069028       0.31410712       0.03667710      -0.42556922
H        0.92470893       2.66386108       0.15911145      -0.07546309      -0.00887340      -0.17813639
H       -0.80060280       3.39484027      -0.11645159       0.03084716      -0.04535799       0.13196053
H       -0.04815587      -2.10926621       0.00708030      -0.00110500       0.00833143      -0.00777219
H       -1.38407453      -1.33503728       0.88704963       0.00357695       0.00002817      -0.01278947
H       -1.40098927      -1.35512551      -0.87950179       0.02132312       0.02268517       0.00401359
12
Lattice="20.0 0.0 0.0 0.0 20.0 0.0 0.0 0.0 20.0" Properties=species:S:1:pos:R:3:REF_forces:R:3 REF_energy=-8332.364649843079 pbc="F F F"
C        0.00214581       0.02892888       0.00000003       0.00000000       0.00000000       0.00000000
O        1.28454281      -0.12809941      -0.00000004       0.00000000       0.00000000       0.00000000
O        2.12094845       0.94626762      -0.00000001       0.00000000       0.00000000       0.00000000
C       -0.68793471       1.28627786       0.00000001       0.00000000       0.00000000       0.00000000
C       -0.14716953       2.52615576       0.00000001       0.00000000       0.00000000       0.00000000
C       -0.73999103      -1.26101015      -0.00000008       0.00000000       0.00000000       0.00000000
H       -1.77256536       1.19335770       0.00000035       0.00000000       0.00000000       0.00000000
H        0.92267028       2.66883809       0.00000006       0.00000000       0.00000000       0.00000000
H       -0.79131852       3.40268685      -0.00000006       0.00000000       0.00000000       0.00000000
H       -0.08005772      -2.13257280       0.00000068       0.00000000       0.00000000       0.00000000
H       -1.40822296      -1.37885961       0.86501565       0.00000000       0.00000000       0.00000000
H       -1.40822337      -1.37885843      -0.86501558       0.00000000       0.00000000       0.00000000
12
Lattice="20.0 0.0 0.0 0.0 20.0 0.0 0.0 0.0 20.0" Properties=species:S:1:pos:R:3:REF_forces:R:3 REF_energy=-8332.39159523727 pbc="F F F"
C        0.00475169       0.02928901       0.00000504       0.00000000       0.00000000       0.00000000
O        1.28414818      -0.12777159       0.00000396       0.00000000       0.00000000       0.00000000
O        2.12046044       0.94586659       0.00000184       0.00000000       0.00000000       0.00000000
C       -0.68910122       1.28848412      -0.00000323       0.00000000       0.00000000       0.00000000
C       -0.14593546       2.52636188      -0.00000089       0.00000000       0.00000000       0.00000000
C       -0.74614992      -1.26962700       0.00167524       0.00000000       0.00000000       0.00000000
H       -1.77305993       1.18612463       0.00002017       0.00000000       0.00000000       0.00000000
H        0.92470916       2.66386112       0.00000762       0.00000000       0.00000000       0.00000000
H       -0.80060306       3.39484061      -0.00000250       0.00000000       0.00000000       0.00000000
H       -0.04815585      -2.10926624       0.00032553       0.00000000       0.00000000       0.00000000
H       -1.38479718      -1.34428298       0.87306744       0.00000000       0.00000000       0.00000000
H       -1.40026659      -1.34587980      -0.89348394       0.00000000       0.00000000       0.00000000
12
Lattice="20.0 0.0 0.0 0.0 20.0 0.0 0.0 0.0 20.0" Properties=species:S:1:pos:R:3:REF_forces:R:3 REF_energy=-8332.376713210218 pbc="F F F"
C        0.00741822       0.02818265      -0.00000003       0.18428558      -0.02919088      -0.00000004
O        1.28511284      -0.12077781       0.00000005      -0.11789165       0.02228277      -0.00000026
O        2.11643142       0.94010224       0.00000001      -0.06174694      -0.02385274       0.00000012
C       -0.68864746       1.28940442      -0.00000025      -0.14138649       0.06250932       0.00000255
C       -0.14618800       2.52840893       0.00000023       0.00346286      -0.18430689      -0.00000297
C       -0.74425260      -1.27168101       0.00000002       0.19616745      -0.15263751       0.00000017
H       -1.79066689       1.18499150       0.00000089       0.17116552       0.01472978      -0.00000124
H        0.92176894       2.66210582      -0.00000035       0.04142489      -0.00027362       0.00000041
H       -0.79029364       3.39182816      -0.00000134      -0.06864634       0.06894373       0.00000138
H       -0.04987831      -2.15404829       0.00000008      -0.15370493       0.24471720       0.00000007
H       -1.39062274      -1.32834707       0.87488401      -0.02670673      -0.01393357       0.05823914
H       -1.39062281      -1.32834739      -0.87488388      -0.02670670      -0.01393326      -0.05823919
12
Lattice="20.0 0.0 0.0 0.0 20.0 0.0 0.0 0.0 20.0" Properties=species:S:1:pos:R:3:REF_forces:R:3 REF_energy=-8331.933711074147 pbc="F F F"
C        0.00655094       0.03398332       0.02563364       0.51646395      -0.31688388      -0.14322758
O        1.30455039      -0.12310850       0.00478595      -0.32744572       0.25705723       0.02029483
O        2.14255024       0.97163616      -0.00040072      -0.21859767      -0.23218272      -0.00140968
C       -0.69114826       1.28359533      -0.00097271      -0.62745212      -0.50075823       0.23808181
C       -0.15375575       2.49160214      -0.03415376      -0.28607614       0.73533055      -0.14419901
C       -0.77310674      -1.28472553       0.01508216      -0.11536817       0.35325026      -0.43152008
H       -1.82738258       1.08501621       0.13161010       0.52703098       0.23265993      -0.13347235
H        0.90000156       2.67695715      -0.11353968       0.08161689      -0.05948941       0.01361131
H       -0.84290220       3.39137232      -0.08711487       0.23343629      -0.31473282       0.06984163
H       -0.04638770      -2.13967399      -0.01141029      -0.29057632       0.17094099       0.08131231
H       -1.45295290      -1.18718722       0.88830968       0.10265663      -0.24403495      -0.08383076
H       -1.46966037      -1.26761186      -0.94405162       0.40326252      -0.08082552       0.51369149
12
Lattice="20.0 0.0 0.0 0.0 20.0 0.0 0.0 0.0 20.0" Properties=species:S:1:pos:R:3:REF_forces:R:3 REF_energy=-8332.398162887404 pbc="F F F"
C        0.00475169       0.02928901       0.00000000       0.21543004      -0.04177009       0.00000000
O        1.28414818      -0.12777159       0.00000000      -0.10426884       0.13752164       0.00000000
O        2.12046044       0.94586659       0.00000000      -0.12610960      -0.11790375       0.00000000
C       -0.68910120       1.28848411       0.00000000       0.01180537       0.08167920      -0.00000000
C       -0.14593546       2.52636191       0.00000000      -0.02527661      -0.08019007       0.00000000
C       -0.74614992      -1.26962700       0.00000000      -0.00514633       0.00673129      -0.00000000
H       -1.77306019       1.18612461       0.00000000       0.00517760      -0.00013077      -0.00000000
H        0.92470893       2.66386108       0.00000000       0.00640062      -0.00525113       0.00000000
H       -0.80060280       3.39484027       0.00000000      -0.00046083      -0.00936618       0.00000000
H       -0.04815587      -2.10926621       0.00000000      -0.00150635       0.00815434       0.00000000
H       -1.39253190      -1.34508139       0.88327571       0.01231089       0.01040916      -0.00684131
H       -1.39253190      -1.34508139      -0.88327571       0.01231089       0.01040916       0.00684131
12
Lattice="20.0 0.0 0.0 0.0 20.0 0.0 0.0 0.0 20.0" Properties=species:S:1:pos:R:3:REF_forces:R:3 REF_energy=-8332.391444431169 pbc="F F F"
C        0.00475193       0.02928893       0.01230712       0.00000000       0.00000000       0.00000000
O        1.28414867      -0.12777210      -0.00528633       0.00000000       0.00000000       0.00000000
O        2.12046022       0.94586675       0.00214457       0.00000000       0.00000000       0.00000000
C       -0.68910171       1.28848450      -0.01206799       0.00000000       0.00000000       0.00000000
C       -0.14593546       2.52636211       0.00099503       0.00000000       0.00000000       0.00000000
C       -0.74615000      -1.26962706       0.00210211       0.00000000       0.00000000       0.00000000
H       -1.77306060       1.18612483       0.01375179       0.00000000       0.00000000       0.00000000
H        0.92470909       2.66386033      -0.02227885       0.00000000       0.00000000       0.00000000
H       -0.80060197       3.39484111       0.03711297       0.00000000       0.00000000       0.00000000
H       -0.04815625      -2.10926659      -0.00735623       0.00000000       0.00000000       0.00000000
H       -1.40093496      -1.36011264       0.87771729       0.00000000       0.00000000       0.00000000
H       -1.38412905      -1.33004966      -0.88883419       0.00000000       0.00000000       0.00000000
12
Lattice="20.0 0.0 0.0 0.0 20.0 0.0 0.0 0.0 20.0" Properties=species:S:1:pos:R:3:REF_forces:R:3 REF_energy=-8332.37135328087 pbc="F F F"
C       -0.01664817       0.02299063       0.00000168       0.00000000       0.00000000       0.00000000
O        1.26580672      -0.11576047       0.00000155       0.00000000       0.00000000       0.00000000
O        2.07746117       0.97549298      -0.00000178       0.00000000       0.00000000       0.00000000
C       -0.68384545       1.29391394       0.00000023       0.00000000       0.00000000       0.00000000
C       -0.08348531       2.51040553       0.00000083       0.00000000       0.00000000       0.00000000
C       -0.73184956      -1.29840776      -0.00000175       0.00000000       0.00000000       0.00000000
H       -1.77146310       1.23278773      -0.00000212       0.00000000       0.00000000       0.00000000
H        0.99119724       2.60004105       0.00000362       0.00000000       0.00000000       0.00000000
H       -0.70281009       3.40595843      -0.00000094       0.00000000       0.00000000       0.00000000
H        0.00032796      -2.10998159      -0.00000404       0.00000000       0.00000000       0.00000000
H       -1.37398815      -1.40043494       0.88389248       0.00000000       0.00000000       0.00000000
H       -1.37398720      -1.40042960      -0.88389723       0.00000000       0.00000000       0.00000000
12
Lattice="20.0 0.0 0.0 0.0 20.0 0.0 0.0 0.0 20.0" Properties=species:S:1:pos:R:3:REF_forces:R:3 REF_energy=-8331.818578328794 pbc="F F F"
C       -0.04601042       0.05671872      -0.00000000       1.39245172      -0.92552503       0.00000000
O        1.31235128      -0.13404139       0.00000000      -0.86297249       0.34853664       0.00000000
O        2.12054436       0.94645379       0.00000000      -0.12088169      -0.13472990      -0.00000000
C       -0.67567776       1.27050745       0.00000000      -0.41637359       0.70732134       0.00000000
C       -0.15224052       2.52353691      -0.00000000       0.14644278       0.01064447      -0.00000000
C       -0.73256742      -1.28975569       0.00000000      -0.47598750       0.56839013       0.00000000
H       -1.76039449       1.17752991       0.00000000      -0.02505196       0.02162256       0.00000000
H        0.91343050       2.69233835       0.00000000       0.03123763      -0.07368665       0.00000000
H       -0.75078201       3.43400820       0.00000000      -0.10887520      -0.10672064       0.00000000
H        0.03086973      -2.06909572       0.00000000      -0.17571550      -0.07762665      -0.00000000
H       -1.50303768      -1.26915258       0.80445619       0.30773564      -0.16910697       0.14550388
H       -1.50303768      -1.26915258      -0.80445619       0.30773564      -0.16910697      -0.14550389
12
Lattice="20.0 0.0 0.0 0.0 20.0 0.0 0.0 0.0 20.0" Properties=species:S:1:pos:R:3:REF_forces:R:3 REF_energy=-8332.315917822387 pbc="F F F"
C        0.00475163       0.02928938       0.07311138       0.00000000       0.00000000       0.00000000
O        1.28414758      -0.12777229      -0.04263039       0.00000000       0.00000000       0.00000000
O        2.12046033       0.94586463       0.00496733       0.00000000       0.00000000       0.00000000
C       -0.68910049       1.28848606       0.01566266       0.00000000       0.00000000       0.00000000
C       -0.14593763       2.52636419      -0.00953552       0.00000000       0.00000000       0.00000000
C       -0.74614781      -1.26962824      -0.00492529       0.00000000       0.00000000       0.00000000
H       -1.77305901       1.18612611      -0.14095704       0.00000000       0.00000000       0.00000000
H        0.92470600       2.66386665       0.18548070       0.00000000       0.00000000       0.00000000
H       -0.80060697       3.39484050      -0.23194421       0.00000000       0.00000000       0.00000000
H       -0.04815102      -2.10926485      -0.03143820       0.00000000       0.00000000       0.00000000
H       -1.42574268      -1.39587881       0.84884494       0.00000000       0.00000000       0.00000000
H       -1.35931579      -1.29429030      -0.91770648       0.00000000       0.00000000       0.00000000
12
Lattice="20.0 0.0 0.0 0.0 20.0 0.0 0.0 0.0 20.0" Properties=species:S:1:pos:R:3:REF_forces:R:3 REF_energy=-8331.793990741171 pbc="F F F"
C        0.10702741       0.04129340       0.16003879       0.03369367      -0.60855862       0.10803673
O        1.37494836      -0.08964346       0.10111134      -0.09490994       0.21454747      -0.08710778
O        2.14303258       1.06477221      -0.01543066      -0.14028467      -0.22544101       0.01970353
C       -0.64831125       1.22833498       0.18529059      -0.50215721       0.65083431      -0.17082509
C       -0.32592484       2.32198609      -0.57070261      -0.49968005       0.11869630       0.28382755
C       -0.79307104      -1.20961309       0.16008475       0.30581577       0.03682064      -0.12924340
H       -1.70036689       1.11250159       0.66927825       0.54075445       0.11816964      -0.29231592
H        0.64586864       2.42946389      -1.04095083      -0.02805495      -0.03065245       0.01255992
H       -1.12342969       3.13446007      -0.70307864       0.38764664      -0.31573317       0.05394835
H       -0.23772759      -2.15634397       0.34927924      -0.09328615       0.17274413      -0.10479506
H       -1.50689853      -1.05056021       0.96361313      -0.08374550      -0.06494516       0.03794830
H       -1.36227991      -1.22016031      -0.81688521       0.17497584      -0.06652985       0.26815363
12
Lattice="20.0 0.0 0.0 0.0 20.0 0.0 0.0 0.0 20.0" Properties=species:S:1:pos:R:3:REF_forces:R:3 REF_energy=-8332.35181692056 pbc="F F F"
C       -0.00848762       0.03426707       0.00000000       0.59209471      -0.19452166      -0.00000000
O        1.29005513      -0.12922855      -0.00000000      -0.31879580       0.19629833       0.00000000
O        2.12071815       0.94609303       0.00000000      -0.13719178      -0.12796824       0.00000000
C       -0.68650954       1.28467176      -0.00000000      -0.06861474       0.20199524      -0.00000000
C       -0.14637461       2.52767489       0.00000000      -0.01111128      -0.12064864       0.00000000
C       -0.74690956      -1.26860578       0.00000000       0.01404131      -0.02586960       0.00000000
H       -1.77056500       1.18321817      -0.00000000      -0.00073997       0.00708379      -0.00000000
H        0.92492645       2.66117121      -0.00000000       0.00599458       0.00132177      -0.00000000
H       -0.79935473       3.39725200      -0.00000000      -0.00375473      -0.01491283      -0.00000000
H       -0.07286417      -2.12881785      -0.00000000       0.05775232       0.05734090      -0.00000000
H       -1.36050039      -1.34480039       0.90636044      -0.06475309       0.00984934      -0.06464414
H       -1.36050039      -1.34480039      -0.90636044      -0.06475309       0.00984934       0.06464414
12
Lattice="20.0 0.0 0.0 0.0 20.0 0.0 0.0 0.0 20.0" Properties=species:S:1:pos:R:3:REF_forces:R:3 REF_energy=-8331.848026641132 pbc="F F F"
C        0.00475169       0.02928901       0.05704651       0.23787226      -0.02578008      -0.79493260
O        1.28414818      -0.12777159      -0.00284113      -0.09656889       0.13775075       0.06711660
O        2.12046044       0.94586659      -0.00208400      -0.11918416      -0.11225073       0.04037480
C       -0.68910120       1.28848411      -0.00999305       0.00856339       0.09309272       0.14113388
C       -0.14593546       2.52636191      -0.00139727      -0.02987390      -0.07626424       0.01991690
C       -0.74614992      -1.26962700      -0.06302254      -0.12921709      -0.11517808       0.87036879
H       -1.77306019       1.18612461      -0.01499126       0.00506041      -0.00016604       0.01729172
H        0.92470893       2.66386108      -0.02448903       0.00445809      -0.00530201       0.02922499
H       -0.80060280       3.39484027       0.04732548       0.00414375      -0.01582864      -0.05762819
H       -0.04815587      -2.10926621       0.12936306      -0.08134224       0.09683254      -0.16853545
H       -1.23742394      -1.14248013       0.95723197      -0.12262288      -0.26357074      -0.28167997
H       -1.54763986      -1.54768266      -0.80931945       0.31892000       0.28710488       0.11731402
12
Lattice="20.0 0.0 0.0 0.0 20.0 0.0 0.0 0.0 20.0" Properties=species:S:1:pos:R:3:REF_forces:R:3 REF_energy=-8332.398162887406 pbc="F F F"
C        0.00475169       0.02928901       0.00000000       0.21543009      -0.04177010       0.00000000
O        1.28414818      -0.12777159       0.00000000      -0.10426889       0.13752164       0.00000000
O        2.12046044       0.94586659       0.00000000      -0.12610961      -0.11790375       0.00000000
C       -0.68910120       1.28848411       0.00000000       0.01180539       0.08167919      -0.00000000
C       -0.14593546       2.52636191       0.00000000      -0.02527662      -0.08019008       0.00000000
C       -0.74614992      -1.26962700       0.00000000      -0.00514635       0.00673127      -0.00000000
H       -1.77306019       1.18612461       0.00000000       0.00517760      -0.00013077      -0.00000000
H        0.92470893       2.66386108       0.00000000       0.00640063      -0.00525113       0.00000000
H       -0.80060280       3.39484027       0.00000000      -0.00046084      -0.00936617       0.00000000
H       -0.04815587      -2.10926621       0.00000000      -0.00150636       0.00815436       0.00000000
H       -1.39253190      -1.34508139       0.88327571       0.01231089       0.01040916      -0.00684131
H       -1.39253190      -1.34508139      -0.88327571       0.01231089       0.01040916       0.00684132
12
Lattice="20.0 0.0 0.0 0.0 20.0 0.0 0.0 0.0 20.0" Properties=species:S:1:pos:R:3:REF_forces:R:3 REF_energy=-8331.88869471913 pbc="F F F"
C        0.01807794       0.03128260       0.05239138       0.60601634      -0.42074149      -0.24523559
O        1.32408574      -0.11462711       0.01098550      -0.41809020       0.30284411       0.04370324
O        2.16700025       1.00000512      -0.00094074      -0.30047968      -0.31956884      -0.00058969
C       -0.70968987       1.26108995       0.00512201       0.19500558      -0.33834438       0.29301428
C       -0.16935151       2.47168636      -0.07999195       0.13752642       0.23357541      -0.23420459
C       -0.80848414      -1.29093646       0.02222431       0.16688947       0.89283317       0.09431924
H       -1.73715139       1.04269642       0.24447190      -0.18643660       0.19264224      -0.10843422
H        0.88813853       2.67026712      -0.24480785      -0.06444862      -0.12899624       0.05294386
H       -0.82852063       3.30307979      -0.16849494      -0.16096048       0.22049683       0.07854224
H       -0.13622315      -2.13289747       0.00456515      -0.06031574      -0.15803415       0.11312243
H       -1.49354288      -1.08935284       0.86893261       0.08306665      -0.35945535       0.00831994
H       -1.43922308      -1.20809618      -0.86099324       0.00224530      -0.11696684      -0.09583924
12
Lattice="20.0 0.0 0.0 0.0 20.0 0.0 0.0 0.0 20.0" Properties=species:S:1:pos:R:3:REF_forces:R:3 REF_energy=-8332.253641914376 pbc="F F F"
C        0.00475169       0.02928901      -0.00096741       0.20761529      -0.04459260       0.01375582
O        1.28414818      -0.12777159      -0.00010682      -0.09466973       0.14526849       0.00018903
O        2.12046044       0.94586659       0.00029759      -0.13048068      -0.12703539      -0.00433360
C       -0.68910120       1.28848411       0.01225176       0.00828680       0.06937536      -0.15813646
C       -0.14593546       2.52636191      -0.03837708       0.05893019       0.07465204       0.54143012
C       -0.74614992      -1.26962700       0.00045670      -0.00509772       0.00590539      -0.00561029
H       -1.77306019       1.18612461      -0.00142092       0.00385030      -0.00343459       0.00331296
H        0.92470893       2.66386108       0.16130460      -0.12803011      -0.03550696      -0.19910017
H       -0.80060280       3.39484027       0.15702174       0.05686594      -0.11306711      -0.19356727
H       -0.04815587      -2.10926621      -0.00107223      -0.00170143       0.00793377       0.00097048
H       -1.39384332      -1.34760710       0.88254766       0.01377523       0.01306445      -0.00618307
H       -1.39122048      -1.34255568      -0.88400376       0.01113520       0.00769667       0.00765179
12
Lattice="20.0 0.0 0.0 0.0 20.0 0.0 0.0 0.0 20.0" Properties=species:S:1:pos:R:3:REF_forces:R:3 REF_energy=-8332.36222127674 pbc="F F F"
C       -0.00209134       0.00759932      -0.00000000       0.36757459       0.41817533      -0.00000000
O        1.28857505      -0.12325292       0.00000000      -0.22630434       0.00862782       0.00000000
O        2.12079440       0.94442977      -0.00000000      -0.13383657      -0.07769661       0.00000000
C       -0.69018356       1.28578898      -0.00000000       0.02774615       0.13484214      -0.00000000
C       -0.14826997       2.53101153       0.00000000       0.02101671      -0.16901353       0.00000000
C       -0.74552125      -1.26157666      -0.00000000      -0.02920533      -0.17684478      -0.00000000
H       -1.77824997       1.21869219      -0.00000000       0.01745958      -0.05510880      -0.00000000
H        0.92290461       2.66593493      -0.00000000       0.00930090      -0.00893584       0.00000000
H       -0.78324847       3.41507857      -0.00000000      -0.02875294      -0.04428720       0.00000000
H       -0.03095161      -2.08726708       0.00000000      -0.03167280      -0.02873418       0.00000000
H       -1.38671374      -1.33835916       0.88665109       0.00352249      -0.00045027      -0.01303094
H       -1.38671374      -1.33835916      -0.88665109       0.00352249      -0.00045027       0.01303094
12
Lattice="20.0 0.0 0.0 0.0 20.0 0.0 0.0 0.0 20.0" Properties=species:S:1:pos:R:3:REF_forces:R:3 REF_energy=-8332.292021511254 pbc="F F F"
C        0.00475996       0.02929919       0.02551195       0.00000000       0.00000000       0.00000000
O        1.28416317      -0.12775280      -0.00127059       0.00000000       0.00000000       0.00000000
O        2.12044889       0.94585177      -0.00093199       0.00000000       0.00000000       0.00000000
C       -0.68909013       1.28847992      -0.00446904       0.00000000       0.00000000       0.00000000
C       -0.14594421       2.52636339      -0.00062486       0.00000000       0.00000000       0.00000000
C       -0.74617158      -1.26962680      -0.02818453       0.00000000       0.00000000       0.00000000
H       -1.77304360       1.18607016      -0.00670416       0.00000000       0.00000000       0.00000000
H        0.92470740       2.66380659      -0.01095183       0.00000000       0.00000000       0.00000000
H       -0.80056933       3.39487175       0.02116444       0.00000000       0.00000000       0.00000000
H       -0.04812149      -2.10922120       0.05785290       0.00000000       0.00000000       0.00000000
H       -1.32316834      -1.25453632       0.91635784       0.00000000       0.00000000       0.00000000
H       -1.46190108      -1.43574834      -0.85020936       0.00000000       0.00000000       0.00000000
12
Lattice="20.0 0.0 0.0 0.0 20.0 0.0 0.0 0.0 20.0" Properties=species:S:1:pos:R:3:REF_forces:R:3 REF_energy=-8332.352750928098 pbc="F F F"
C        0.00736191       0.02809139      -0.00000003       0.18921836      -0.01645404      -0.00000007
O        1.28516993      -0.12076767       0.00000005      -0.12685924       0.02053916      -0.00000026
O        2.11641622       0.94009357       0.00000001      -0.05884053      -0.02226651       0.00000012
C       -0.69290195       1.28912020      -0.00000025       0.42621107       0.09992719       0.00000207
C       -0.14550170       2.52618749       0.00000023      -0.07795841       0.08429179      -0.00000336
C       -0.74405047      -1.27190014       0.00000002       0.17508343      -0.12978551       0.00000018
H       -1.73988199       1.18946131       0.00000089      -0.39514763      -0.03501030      -0.00000074
H        0.93254584       2.66325719      -0.00000035      -0.06972677      -0.01203647       0.00000042
H       -0.80939168       3.41694065      -0.00000134       0.12377518      -0.18612982       0.00000176
H       -0.05207213      -2.15132124       0.00000008      -0.13480336       0.22050241       0.00000007
H       -1.39069900      -1.32831066       0.87503787      -0.02573864      -0.01435426       0.05639876
H       -1.39069908      -1.32831098      -0.87503775      -0.02573860      -0.01435395      -0.05639881
12
Lattice="20.0 0.0 0.0 0.0 20.0 0.0 0.0 0.0 20.0" Properties=species:S:1:pos:R:3:REF_forces:R:3 REF_energy=-8331.809276362384 pbc="F F F"
C       -0.01928969       0.03939266      -0.00000000       0.51818002      -0.21167335       0.00000000
O        1.27536098      -0.19040261      -0.00000000      -0.15046706       0.92363099       0.00000000
O        2.15659382       0.99746900       0.00000000      -0.47274868      -0.66775855      -0.00000000
C       -0.68069138       1.28112153       0.00000000      -0.11295295       0.20690032      -0.00000000
C       -0.14562358       2.51412120      -0.00000000      -0.03338716       0.07169960      -0.00000000
C       -0.78218007      -1.23588456       0.00000000       0.43996557      -0.56691432      -0.00000000
H       -1.76401708       1.18275662       0.00000000      -0.00277176       0.00587134      -0.00000000
H        0.92147561       2.67651202       0.00000000       0.00842522      -0.01722451       0.00000000
H       -0.83993759       3.35229123      -0.00000000       0.04593985       0.02818392       0.00000000
H        0.12799829      -1.90221389      -0.00000000      -0.38656730      -0.11554117       0.00000000
H       -1.37492695      -1.48888932       0.90536615       0.07292313       0.17142909      -0.11238679
H       -1.37492695      -1.48888932      -0.90536615       0.07292313       0.17142909       0.11238679
12
Lattice="20.0 0.0 0.0 0.0 20.0 0.0 0.0 0.0 20.0" Properties=species:S:1:pos:R:3:REF_forces:R:3 REF_energy=-8332.095607609586 pbc="F F F"
C        0.00475169       0.02928901      -0.00003378       0.21074851      -0.04483197       0.00467232
O        1.28414818      -0.12777159      -0.00002656      -0.10245846       0.13746348       0.00350706
O        2.12046044       0.94586659      -0.00001233      -0.12711845      -0.11903668       0.00188711
C       -0.68910120       1.28848411       0.00002168       0.01134505       0.08175712      -0.00177603
C       -0.14593546       2.52636191       0.00000597      -0.02515945      -0.08032930      -0.00068360
C       -0.74614992      -1.26962700      -0.01123784       0.31019515       0.04536933       1.42495717
H       -1.77306019       1.18612461      -0.00013529       0.00537996      -0.00021637       0.00136571
H        0.92470893       2.66386108      -0.00005114       0.00633528      -0.00508515       0.00050852
H       -0.80060280       3.39484027       0.00001676      -0.00042232      -0.00940837      -0.00019417
H       -0.04815587      -2.10926621      -0.00218372      -0.00376590       0.00965011       0.02082475
H       -1.44441788      -1.35043727       0.95175474       0.40881605       0.05103212      -0.53867841
H       -1.34064592      -1.33972551      -0.81479668      -0.69325583      -0.06606302      -0.91630751
12
Lattice="20.0 0.0 0.0 0.0 20.0 0.0 0.0 0.0 20.0" Properties=species:S:1:pos:R:3:REF_forces:R:3 REF_energy=-8332.387666068918 pbc="F F F"
C        0.00742353       0.02817682      -0.00000003       0.18362444      -0.02856385      -0.00000005
O        1.28511731      -0.12077561       0.00000005      -0.11851301       0.02197958      -0.00000026
O        2.11642871       0.94010096       0.00000001      -0.06128016      -0.02362241       0.00000012
C       -0.68899598       1.28938010      -0.00000025      -0.10160946       0.06496288       0.00000252
C       -0.14613353       2.52823928       0.00000023      -0.00408402      -0.16185913      -0.00000300
C       -0.74371986      -1.27211061       0.00000002       0.13597166      -0.10622159       0.00000018
H       -1.78651804       1.18536901       0.00000089       0.13144828       0.01114260      -0.00000121
H        0.92259433       2.66219138      -0.00000035       0.03269760      -0.00115233       0.00000041
H       -0.79177165       3.39377029      -0.00000134      -0.05234251       0.04741617       0.00000142
H       -0.05437128      -2.14863998       0.00000008      -0.11422969       0.19551443       0.00000007
H       -1.39159208      -1.32851103       0.87636453      -0.01596881      -0.01225880       0.04193504
H       -1.39159216      -1.32851135      -0.87636441      -0.01596877      -0.01225848      -0.04193510
12
Lattice="20.0 0.0 0.0 0.0 20.0 0.0 0.0 0.0 20.0" Properties=species:S:1:pos:R:3:REF_forces:R:3 REF_energy=-8332.393095502148 pbc="F F F"
C        0.00743507       0.02814671      -0.00000003       0.18232959      -0.02502031      -0.00000004
O        1.28513970      -0.12077036       0.00000005      -0.12215788       0.02121647      -0.00000027
O        2.11639040       0.94011049       0.00000001      -0.05465557      -0.02495545       0.00000013
C       -0.69011226       1.28936022      -0.00000025       0.03358906       0.06564332       0.00000240
C       -0.14798733       2.52794190       0.00000023       0.24111344      -0.13037626      -0.00000308
C       -0.74212352      -1.27339989       0.00000002      -0.05400274       0.04797151       0.00000017
H       -1.77296467       1.18666407       0.00000089      -0.00694022      -0.00215422      -0.00000110
H        0.94436248       2.66532704      -0.00000035      -0.20368408      -0.03479486       0.00000051
H       -0.79132809       3.39337165      -0.00000134      -0.06266544       0.05926616       0.00000140
H       -0.06784943      -2.13241861       0.00000008       0.01508685       0.03366396       0.00000008
H       -1.39449306      -1.32900357       0.88079866       0.01551401      -0.00742207      -0.00573674
H       -1.39449313      -1.32900389      -0.88079854       0.01551405      -0.00742173       0.00573668
12
Lattice="20.0 0.0 0.0 0.0 20.0 0.0 0.0 0.0 20.0" Properties=species:S:1:pos:R:3:REF_forces:R:3 REF_energy=-8332.28305387593 pbc="F F F"
C        0.00480020       0.02916066      -0.00000003       0.00000000       0.00000000       0.00000000
O        1.28413167      -0.12777358      -0.00000000       0.00000000       0.00000000       0.00000000
O        2.12049498       0.94586032      -0.00000005       0.00000000       0.00000000       0.00000000
C       -0.69257993       1.28777986       0.00000007       0.00000000       0.00000000       0.00000000
C       -0.14636716       2.53081786       0.00000004       0.00000000       0.00000000       0.00000000
C       -0.74627068      -1.26956854       0.00000009       0.00000000       0.00000000       0.00000000
H       -1.73489760       1.18955576       0.00000016       0.00000000       0.00000000       0.00000000
H        0.89924312       2.66077739      -0.00000017       0.00000000       0.00000000       0.00000000
H       -0.76759630       3.35110012       0.00000001       0.00000000       0.00000000       0.00000000
H       -0.04752126      -2.10988129      -0.00000005       0.00000000       0.00000000       0.00000000
H       -1.39211392      -1.34494899       0.88265655       0.00000000       0.00000000       0.00000000
H       -1.39211473      -1.34494868      -0.88265781       0.00000000       0.00000000       0.00000000
12
Lattice="20.0 0.0 0.0 0.0 20.0 0.0 0.0 0.0 20.0" Properties=species:S:1:pos:R:3:REF_forces:R:3 REF_energy=-8332.400305895628 pbc="F F F"
C        0.00744123       0.02816435      -0.00000003       0.18133879      -0.02760117      -0.00000006
O        1.28512712      -0.12076849       0.00000005      -0.11964448       0.02106370      -0.00000026
O        2.11643263       0.94009175       0.00000001      -0.06202107      -0.02212742       0.00000012
C       -0.69001326       1.28928592      -0.00000025       0.02073713       0.07602106       0.00000242
C       -0.14516324       2.52764573       0.00000023      -0.13908473      -0.08527217      -0.00000310
C       -0.74212091      -1.27339919       0.00000002      -0.05429761       0.04790267       0.00000017
H       -1.77451423       1.18643654       0.00000089       0.01084431       0.00054134      -0.00000110
H        0.91735367       2.66129643      -0.00000035       0.09842249       0.00962244       0.00000037
H       -0.79815675       3.40208672      -0.00000134       0.01748426      -0.04389270       0.00000156
H       -0.06785049      -2.13241363       0.00000008       0.01516184       0.03367379       0.00000008
H       -1.39450292      -1.32900266       0.88080910       0.01561878      -0.00751028      -0.00583725
H       -1.39450300      -1.32900298      -0.88080897       0.01561882      -0.00750995       0.00583719
12
Lattice="20.0 0.0 0.0 0.0 20.0 0.0 0.0 0.0 20.0" Properties=species:S:1:pos:R:3:REF_forces:R:3 REF_energy=-8331.925914860722 pbc="F F F"
C        0.01640733       0.03089837       0.00000000      -0.07556579      -0.03839476       0.00000000
O        1.28238264      -0.12630508      -0.00000000      -0.01815601       0.08767443       0.00000000
O        2.11827786       0.94407296      -0.00000000      -0.04858229      -0.05376323      -0.00000000
C       -0.69431944       1.29835038      -0.00000000       0.13721291      -0.16057192      -0.00000000
C       -0.14041602       2.52728388       0.00000000      -0.17414309      -0.09352649      -0.00000000
C       -0.77369352      -1.30816238      -0.00000000       0.60230332       0.79439874      -0.00000000
H       -1.77527396       1.15377495      -0.00000000       0.01478887       0.07023710       0.00000000
H        0.93382502       2.64161203      -0.00000000      -0.01181087       0.04079873       0.00000000
H       -0.84211762       3.35975318      -0.00000000       0.09405954       0.05928364       0.00000000
H        0.09451376      -2.00503482      -0.00000000      -0.38013451      -0.12209664       0.00000000
H       -1.32235739      -1.19402400       0.96493784      -0.06938942      -0.29237065      -0.26896018
H       -1.32235739      -1.19402400      -0.96493784      -0.06938942      -0.29237065       0.26896018
12
Lattice="20.0 0.0 0.0 0.0 20.0 0.0 0.0 0.0 20.0" Properties=species:S:1:pos:R:3:REF_forces:R:3 REF_energy=-8332.395090529504 pbc="F F F"
C        0.00605463       0.02946908      -0.00000001       0.00000000       0.00000000       0.00000000
O        1.28395086      -0.12760767       0.00000002       0.00000000       0.00000000       0.00000000
O        2.12021644       0.94566607       0.00000000       0.00000000       0.00000000       0.00000000
C       -0.68968445       1.28958724      -0.00000001       0.00000000       0.00000000       0.00000000
C       -0.14531843       2.52646499      -0.00000000       0.00000000       0.00000000       0.00000000
C       -0.74922936      -1.27393542       0.00000004       0.00000000       0.00000000       0.00000000
H       -1.77330761       1.18250806      -0.00000018       0.00000000       0.00000000       0.00000000
H        0.92572825       2.66137258      -0.00000003       0.00000000       0.00000000       0.00000000
H       -0.80524494       3.39091697       0.00000003       0.00000000       0.00000000       0.00000000
H       -0.03220494      -2.09761292      -0.00000034       0.00000000       0.00000000       0.00000000
H       -1.38468637      -1.32819228       0.89240574       0.00000000       0.00000000       0.00000000
H       -1.38468616      -1.32819287      -0.89240578       0.00000000       0.00000000       0.00000000
12
Lattice="20.0 0.0 0.0 0.0 20.0 0.0 0.0 0.0 20.0" Properties=species:S:1:pos:R:3:REF_forces:R:3 REF_energy=-8332.085120460399 pbc="F F F"
C        0.00323195       0.02536127       0.00000000       0.19624414      -0.08471225       0.00000000
O        1.27075710      -0.19867652      -0.00000000      -0.11526525       0.37439890      -0.00000000
O        2.03178111       0.89071182       0.00000000       0.21816791       0.05747525      -0.00000000
C       -0.59983451       1.35609429       0.00000000      -0.15240490       0.03406077       0.00000000
C       -0.17953730       2.66087726       0.00000000       0.07386837      -0.29410606       0.00000000
C       -0.68002570      -1.31721820      -0.00000000      -0.14262263       0.01260495      -0.00000000
H       -1.68516623       1.25191489      -0.00000000      -0.01342528      -0.01484413       0.00000000
H        0.86384589       2.99792088       0.00000000      -0.13083487      -0.11280935       0.00000000
H       -0.96988617       3.42943076      -0.00000000       0.12029025      -0.09326204       0.00000000
H        0.11956107      -2.07374191      -0.00000000      -0.09556049       0.04203822       0.00000000
H       -1.31177177      -1.47693596       0.88614377       0.02117044       0.03926129      -0.02709168
H       -1.31177177      -1.47693596      -0.88614377       0.02117044       0.03926129       0.02709168
12
Lattice="20.0 0.0 0.0 0.0 20.0 0.0 0.0 0.0 20.0" Properties=species:S:1:pos:R:3:REF_forces:R:3 REF_energy=-8332.36758344993 pbc="F F F"
C        0.00475162       0.02928998       0.03391010       0.00000000       0.00000000       0.00000000
O        1.28414847      -0.12777177       0.06832172       0.00000000       0.00000000       0.00000000
O        2.12046361       0.94586416      -0.05652264       0.00000000       0.00000000       0.00000000
C       -0.68910332       1.28848428      -0.00748001       0.00000000       0.00000000       0.00000000
C       -0.14593704       2.52636268       0.00505384       0.00000000       0.00000000       0.00000000
C       -0.74615027      -1.26962583      -0.03150428       0.00000000       0.00000000       0.00000000
H       -1.77306254       1.18612371      -0.03572840       0.00000000       0.00000000       0.00000000
H        0.92470829       2.66386077       0.02156200       0.00000000       0.00000000       0.00000000
H       -0.80060371       3.39484222       0.00195262       0.00000000       0.00000000       0.00000000
H       -0.04815658      -2.10926557      -0.10501324       0.00000000       0.00000000       0.00000000
H       -1.38866974      -1.41629508       0.84836752       0.00000000       0.00000000       0.00000000
H       -1.39639531      -1.27386423      -0.91818435       0.00000000       0.00000000       0.00000000
12
Lattice="20.0 0.0 0.0 0.0 20.0 0.0 0.0 0.0 20.0" Properties=species:S:1:pos:R:3:REF_forces:R:3 REF_energy=-8331.875115995019 pbc="F F F"
C        0.01020558       0.03420612       0.03868083       0.60236804      -0.39850340      -0.20376864
O        1.31439982      -0.11972789       0.00753949      -0.39748793       0.29423211       0.03280115
O        2.15417742       0.98515219      -0.00063948      -0.25904725      -0.28062326      -0.00102569
C       -0.69790443       1.27589694       0.00050208      -0.46647842      -0.57342170       0.32562296
C       -0.16051130       2.47940934      -0.05428849      -0.13244110       0.71117050      -0.20999675
C       -0.78905207      -1.29019645       0.01954970      -0.08120542       0.63460529      -0.32353035
H       -1.80204840       1.05278937       0.19133598       0.37511644       0.27190418      -0.17285510
H        0.89465782       2.67869855      -0.17514375       0.00782687      -0.10163016       0.03102378
H       -0.84146335       3.35714237      -0.12856240       0.12762871      -0.16840457       0.09076306
H       -0.07609006      -2.13894473      -0.00936285      -0.24537996       0.07150565       0.10684648
H       -1.47713049      -1.12557834       0.88299773       0.12748724      -0.33646804      -0.08190833
H       -1.47065645      -1.23379837      -0.92370739       0.34119051      -0.12482173       0.40609578
12
Lattice="20.0 0.0 0.0 0.0 20.0 0.0 0.0 0.0 20.0" Properties=species:S:1:pos:R:3:REF_forces:R:3 REF_energy=-8331.838687636473 pbc="F F F"
C        0.00449837       0.02906719      -0.00000000       0.23800212      -0.01241399       0.00000000
O        1.28427626      -0.12776715       0.00000000      -0.12433416       0.13776540      -0.00000000
O        2.12044624       0.94585504      -0.00000000      -0.12298274      -0.11611789      -0.00000000
C       -0.69844325       1.28787353      -0.00000000       1.71586332       0.20990720      -0.00000000
C       -0.14440561       2.52132297      -0.00000000      -0.15306168       0.42781112      -0.00000000
C       -0.75244940      -1.26473045      -0.00000000       0.68665026      -0.45495090      -0.00000001
H       -1.66139770       1.19579116       0.00000000      -1.68904927      -0.15029910       0.00000000
H        0.94912335       2.66650380      -0.00000000      -0.23175729      -0.03339457       0.00000000
H       -0.84366801       3.45148536       0.00000000       0.36311935      -0.48915837       0.00000000
H        0.00337504      -2.17101355      -0.00000000      -0.42505814       0.51378881       0.00000000
H       -1.38011755      -1.34282048       0.86443670      -0.12816661      -0.01663042       0.20738279
H       -1.38011755      -1.34282048      -0.86443670      -0.12816661      -0.01663042      -0.20738278
12
Lattice="20.0 0.0 0.0 0.0 20.0 0.0 0.0 0.0 20.0" Properties=species:S:1:pos:R:3:REF_forces:R:3 REF_energy=-8332.39986967379 pbc="F F F"
C        0.00841597       0.03442445      -0.00000008       0.00000000       0.00000000       0.00000000
O        1.28497987      -0.13393049      -0.00000001       0.00000000       0.00000000       0.00000000
O        2.11062689       0.94205785      -0.00000009       0.00000000       0.00000000       0.00000000
C       -0.69312995       1.28610349       0.00000033       0.00000000       0.00000000       0.00000000
C       -0.14638179       2.52072235      -0.00000003       0.00000000       0.00000000       0.00000000
C       -0.73632840      -1.25495920      -0.00000003       0.00000000       0.00000000       0.00000000
H       -1.77635902       1.17736209      -0.00000013       0.00000000       0.00000000       0.00000000
H        0.92570738       2.64602295      -0.00000015       0.00000000       0.00000000       0.00000000
H       -0.79297217       3.39506550      -0.00000050       0.00000000       0.00000000       0.00000000
H       -0.03729663      -2.09352443       0.00000008       0.00000000       0.00000000       0.00000000
H       -1.38287122      -1.33086209       0.88312943       0.00000000       0.00000000       0.00000000
H       -1.38287111      -1.33086233      -0.88312956       0.00000000       0.00000000       0.00000000
12
Lattice="20.0 0.0 0.0 0.0 20.0 0.0 0.0 0.0 20.0" Properties=species:S:1:pos:R:3:REF_forces:R:3 REF_energy=-8332.359510440898 pbc="F F F"
C        0.02177846       0.02008922       0.00000001       0.00000000       0.00000000       0.00000000
O        1.27468818      -0.12566861       0.00000003       0.00000000       0.00000000       0.00000000
O        2.12043228       0.94566966      -0.00000005       0.00000000       0.00000000       0.00000000
C       -0.69360339       1.29451353       0.00000003       0.00000000       0.00000000       0.00000000
C       -0.14382112       2.52730860       0.00000004       0.00000000       0.00000000       0.00000000
C       -0.75070594      -1.26287596       0.00000052       0.00000000       0.00000000       0.00000000
H       -1.77730815       1.18900840      -0.00000005       0.00000000       0.00000000       0.00000000
H        0.92849059       2.65431350      -0.00000036       0.00000000       0.00000000       0.00000000
H       -0.81730890       3.38170565      -0.00000004       0.00000000       0.00000000       0.00000000
H       -0.07466103      -2.12273936      -0.00000561       0.00000000       0.00000000       0.00000000
H       -1.35546770      -1.37054492       0.90971316       0.00000000       0.00000000       0.00000000
H       -1.35546484      -1.37055072      -0.90971398       0.00000000       0.00000000       0.00000000
12
Lattice="20.0 0.0 0.0 0.0 20.0 0.0 0.0 0.0 20.0" Properties=species:S:1:pos:R:3:REF_forces:R:3 REF_energy=-8331.8746619552 pbc="F F F"
C        0.00475169       0.02928901       0.00591263       0.20822967      -0.05406838      -0.17029681
O        1.28414818      -0.12777159      -0.00004534      -0.09758482       0.13722815       0.00415045
O        2.12046044       0.94586659       0.00002144      -0.12645881      -0.11718732      -0.00079698
C       -0.68910120       1.28848411      -0.00130956       0.01338981       0.08899119       0.03684058
C       -0.14593546       2.52636191      -0.00014017      -0.02672405      -0.08113214       0.00392133
C       -0.74614992      -1.26962700       0.01912682       0.05185623      -0.11051105      -0.53894595
H       -1.77306019       1.18612461       0.00197941       0.00496053       0.00095837      -0.00543188
H        0.92470893       2.66386108      -0.00006357       0.00644318      -0.00536739       0.00029004
H       -0.80060280       3.39484027       0.00283347      -0.00049786      -0.00926498      -0.00673387
H       -0.04815587      -2.10926621      -0.25035743      -0.04792382       0.10013212       0.59729829
H       -1.45126941      -1.18890086       0.86571733       0.14705433      -0.34171714      -0.01168809
H       -1.33379439      -1.50126192      -0.90083409      -0.13225011       0.39192462       0.09129452
12
Lattice="20.0 0.0 0.0 0.0 20.0 0.0 0.0 0.0 20.0" Properties=species:S:1:pos:R:3:REF_forces:R:3 REF_energy=-8332.391584618057 pbc="F F F"
C        0.00474962       0.02928647      -0.00637799       0.00000000       0.00000000       0.00000000
O        1.28414443      -0.12777628       0.00031765       0.00000000       0.00000000       0.00000000
O        2.12046333       0.94587029       0.00023300       0.00000000       0.00000000       0.00000000
C       -0.68910397       1.28848516       0.00111726       0.00000000       0.00000000       0.00000000
C       -0.14593327       2.52636155       0.00015621       0.00000000       0.00000000       0.00000000
C       -0.74614450      -1.26962705       0.00704613       0.00000000       0.00000000       0.00000000
H       -1.77306434       1.18613822       0.00167604       0.00000000       0.00000000       0.00000000
H        0.92470931       2.66387471       0.00273796       0.00000000       0.00000000       0.00000000
H       -0.80061116       3.39483240      -0.00529111       0.00000000       0.00000000       0.00000000
H       -0.04816446      -2.10927746      -0.01446322       0.00000000       0.00000000       0.00000000
H       -1.40987279      -1.36771766       0.87500518       0.00000000       0.00000000       0.00000000
H       -1.37518961      -1.32241465      -0.89154230       0.00000000       0.00000000       0.00000000
12
Lattice="20.0 0.0 0.0 0.0 20.0 0.0 0.0 0.0 20.0" Properties=species:S:1:pos:R:3:REF_forces:R:3 REF_energy=-8331.911447405311 pbc="F F F"
C        0.01540866       0.03249138       0.04866819       0.61726227      -0.42162838      -0.23689363
O        1.32153512      -0.11622057       0.00997139      -0.41931864       0.30429366       0.04115297
O        2.16343862       0.99588339      -0.00085215      -0.28910129      -0.31050666      -0.00061942
C       -0.70616348       1.26589325       0.00347343      -0.03776621      -0.43684165       0.32062934
C       -0.16685888       2.47335593      -0.07238437       0.06583013       0.40277986      -0.23451117
C       -0.80292689      -1.29150378       0.02157561       0.06172649       0.84000797      -0.05971442
H       -1.75681505       1.04278307       0.23097121       0.00950342       0.22913557      -0.14179435
H        0.89057435       2.67406955      -0.22530193      -0.05216779      -0.12575085       0.04776390
H       -0.83189905       3.31796907      -0.15800859      -0.07155590       0.10056229       0.08553524
H       -0.11720496      -2.13390081      -0.00077533      -0.11850272      -0.09022299       0.11374253
H       -1.49003670      -1.09543774       0.87341753       0.10449039      -0.36369565      -0.02611025
H       -1.45024582      -1.21383019      -0.88086506       0.12942231      -0.12804041       0.09059174
12
Lattice="20.0 0.0 0.0 0.0 20.0 0.0 0.0 0.0 20.0" Properties=species:S:1:pos:R:3:REF_forces:R:3 REF_energy=-8332.393793772402 pbc="F F F"
C        0.00477227       0.03052653      -0.00000008       0.00000000       0.00000000       0.00000000
O        1.28472716      -0.12785815       0.00000001       0.00000000       0.00000000       0.00000000
O        2.12018583       0.94573202      -0.00000005       0.00000000       0.00000000       0.00000000
C       -0.68522566       1.29085457       0.00000008       0.00000000       0.00000000       0.00000000
C       -0.14945202       2.52400230       0.00000008       0.00000000       0.00000000       0.00000000
C       -0.74608205      -1.27035540       0.00000009       0.00000000       0.00000000       0.00000000
H       -1.77114952       1.21407674       0.00000014       0.00000000       0.00000000       0.00000000
H        0.92367159       2.64115167      -0.00000035       0.00000000       0.00000000       0.00000000
H       -0.80949474       3.38756516      -0.00000006       0.00000000       0.00000000       0.00000000
H       -0.04840707      -2.11028222      -0.00000063       0.00000000       0.00000000       0.00000000
H       -1.39347877      -1.34490047       0.88262193       0.00000000       0.00000000       0.00000000
H       -1.39347816      -1.34490005      -0.88262226       0.00000000       0.00000000       0.00000000
12
Lattice="20.0 0.0 0.0 0.0 20.0 0.0 0.0 0.0 20.0" Properties=species:S:1:pos:R:3:REF_forces:R:3 REF_energy=-8332.080669192801 pbc="F F F"
C        0.00520598       0.03290758       0.01669639       0.43207857      -0.23755164      -0.09569490
O        1.29759469      -0.12498563       0.00304483      -0.26214015       0.22162315       0.01202977
O        2.13475692       0.96255853      -0.00025167      -0.18869768      -0.19496357      -0.00132568
C       -0.68861661       1.28667025      -0.00108944      -0.57681934      -0.35394098       0.15618077
C       -0.15005310       2.50205943      -0.02159181      -0.31218425       0.58955275      -0.09361330
C       -0.76307666      -1.27984902       0.01098329      -0.11055493       0.18138767      -0.41683864
H       -1.82602300       1.11510207       0.08727002       0.50028289       0.17306654      -0.08702634
H        0.90545605       2.67337541      -0.07298455       0.10354796      -0.03389942       0.00678619
H       -0.83615554       3.40371016      -0.05741087       0.23253089      -0.31624999       0.04692243
H       -0.03763674      -2.13488318      -0.00940232      -0.25575167       0.17792868       0.05638055
H       -1.43331585      -1.23753428       0.88839949       0.07014376      -0.16378342      -0.06054359
H       -1.45527079      -1.29362940      -0.93976409       0.36728928      -0.04249766       0.47601930
12
Lattice="20.0 0.0 0.0 0.0 20.0 0.0 0.0 0.0 20.0" Properties=species:S:1:pos:R:3:REF_forces:R:3 REF_energy=-8332.296243866509 pbc="F F F"
C        0.03013274       0.01557416       0.00000000      -0.55775967       0.31160241       0.00000000
O        1.27004662      -0.12463669      -0.00000000       0.49618230       0.01098160      -0.00000000
O        2.12041849       0.94557298      -0.00000000      -0.11756622      -0.10398463      -0.00000000
C       -0.69581293       1.29747244      -0.00000000       0.18650658      -0.14417297       0.00000000
C       -0.14278293       2.52777441       0.00000000      -0.11454676      -0.10876299      -0.00000000
C       -0.75294116      -1.25956265      -0.00000000       0.15388051      -0.26546423       0.00000000
H       -1.77939304       1.19042196      -0.00000000       0.01737584      -0.01006431       0.00000000
H        0.93034814       2.64962245      -0.00000000      -0.00668366       0.02657035       0.00000000
H       -0.82551319       3.37525630      -0.00000000       0.05834438       0.03280183       0.00000000
H       -0.08766867      -2.12935146      -0.00000000       0.08859177       0.05595339       0.00000000
H       -1.33727901      -1.38304580       0.92268547      -0.10195323       0.09716783      -0.10629624
H       -1.33727901      -1.38304580      -0.92268547      -0.10195323       0.09716783       0.10629623
12
Lattice="20.0 0.0 0.0 0.0 20.0 0.0 0.0 0.0 20.0" Properties=species:S:1:pos:R:3:REF_forces:R:3 REF_energy=-8332.378562563581 pbc="F F F"
C        0.00743244       0.02813915      -0.00000003       0.18275833      -0.02390569      -0.00000003
O        1.28514509      -0.12077117       0.00000005      -0.12324401       0.02131696      -0.00000027
O        2.11637230       0.94011852       0.00000001      -0.05146008      -0.02617618       0.00000013
C       -0.69015469       1.28939207      -0.00000025       0.03930425       0.06138444       0.00000240
C       -0.14919765       2.52806884       0.00000023       0.39031035      -0.15449930      -0.00000305
C       -0.74212464      -1.27340020       0.00000002      -0.05387477       0.04800317       0.00000017
H       -1.77230058       1.18676158       0.00000089      -0.01462068      -0.00331321      -0.00000109
H        0.95593769       2.66705444      -0.00000035      -0.31799057      -0.05183762       0.00000056
H       -0.78840152       3.38963662      -0.00000134      -0.09860698       0.10604875       0.00000132
H       -0.06784898      -2.13242074       0.00000008       0.01505592       0.03365982       0.00000008
H       -1.39448883      -1.32900397       0.88079419       0.01546930      -0.00738320      -0.00569327
H       -1.39448891      -1.32900429      -0.88079407       0.01546934      -0.00738287       0.00569321
12
Lattice="20.0 0.0 0.0 0.0 20.0 0.0 0.0 0.0 20.0" Properties=species:S:1:pos:R:3:REF_forces:R:3 REF_energy=-8331.838865570315 pbc="F F F"
C        0.06428590      -0.00163930       0.08365817      -0.07906815      -0.10470290      -0.14920587
O        1.34380270      -0.08979166       0.02471985      -0.06673865       0.08439166       0.04615437
O        2.19957116       1.03900473      -0.00223353      -0.39839445      -0.32757743      -0.00966342
C       -0.71841410       1.20017671       0.03718430      -0.10341721       0.60932213       0.31365714
C       -0.19514714       2.45172309      -0.18182038      -0.56948497      -0.10811643      -0.09718573
C       -0.84720207      -1.24228825       0.04965152       0.12796808      -0.22058772      -0.25766234
H       -1.80903200       1.10552363       0.37487098       0.45106189       0.00568804      -0.24396190
H        0.84226516       2.56287814      -0.44346769       0.07305465       0.02860477       0.02367827
H       -0.91670794       3.32431228      -0.24684091       0.29830013      -0.28317453       0.07475383
H       -0.35041515      -2.24715290       0.12432543      -0.02126868       0.29656048      -0.07880700
H       -1.54926479      -1.20212313       0.89282139       0.00931993       0.05777627      -0.03522299
H       -1.47136960      -1.19471387      -0.92354400       0.27959707      -0.03809066       0.41380133
12
Lattice="20.0 0.0 0.0 0.0 20.0 0.0 0.0 0.0 20.0" Properties=species:S:1:pos:R:3:REF_forces:R:3 REF_energy=-8332.38255675889 pbc="F F F"
C        0.00742088       0.02817973      -0.00000003       0.18395562      -0.02887371      -0.00000005
O        1.28511507      -0.12077671       0.00000005      -0.11820265       0.02213061      -0.00000026
O        2.11643006       0.94010160       0.00000001      -0.06151298      -0.02373735       0.00000012
C       -0.68882172       1.28939226      -0.00000025      -0.12163269       0.06372254       0.00000253
C       -0.14616076       2.52832411       0.00000023      -0.00033552      -0.17303996      -0.00000298
C       -0.74398623      -1.27189581       0.00000002       0.16625911      -0.12972656       0.00000018
H       -1.78859247       1.18518026       0.00000089       0.15143885       0.01294852      -0.00000122
H        0.92218164       2.66214860      -0.00000035       0.03705657      -0.00071311       0.00000041
H       -0.79103265       3.39279923      -0.00000134      -0.06046340       0.05813944       0.00000140
H       -0.05212480      -2.15134414       0.00000008      -0.13418458       0.22039801       0.00000006
H       -1.39110741      -1.32842905       0.87562427      -0.02132384      -0.01309091       0.05006239
H       -1.39110749      -1.32842937      -0.87562415      -0.02132381      -0.01309059      -0.05006245
12
Lattice="20.0 0.0 0.0 0.0 20.0 0.0 0.0 0.0 20.0" Properties=species:S:1:pos:R:3:REF_forces:R:3 REF_energy=-8332.33500225794 pbc="F F F"
C        0.00478807       0.02919275      -0.00000002       0.00000000       0.00000000       0.00000000
O        1.28413580      -0.12777308      -0.00000000       0.00000000       0.00000000       0.00000000
O        2.12048634       0.94586189      -0.00000004       0.00000000       0.00000000       0.00000000
C       -0.69171025       1.28795593       0.00000006       0.00000000       0.00000000       0.00000000
C       -0.14625923       2.52970387       0.00000003       0.00000000       0.00000000       0.00000000
C       -0.74624049      -1.26958316       0.00000007       0.00000000       0.00000000       0.00000000
H       -1.74443825       1.18869797       0.00000012       0.00000000       0.00000000       0.00000000
H        0.90560957       2.66154831      -0.00000013       0.00000000       0.00000000       0.00000000
H       -0.77584793       3.36203516       0.00000001       0.00000000       0.00000000       0.00000000
H       -0.04767992      -2.10972752      -0.00000004       0.00000000       0.00000000       0.00000000
H       -1.39221842      -1.34498209       0.88281134       0.00000000       0.00000000       0.00000000
H       -1.39221902      -1.34498186      -0.88281229       0.00000000       0.00000000       0.00000000
12
Lattice="20.0 0.0 0.0 0.0 20.0 0.0 0.0 0.0 20.0" Properties=species:S:1:pos:R:3:REF_forces:R:3 REF_energy=-8332.399880962734 pbc="F F F"
C        0.00744204       0.02815660      -0.00000003       0.18144861      -0.02584944      -0.00000005
O        1.28512287      -0.12076990       0.00000005      -0.11932050       0.02117266      -0.00000026
O        2.11642203       0.94009873       0.00000001      -0.06013147      -0.02319315       0.00000012
C       -0.69005384       1.28929871      -0.00000025       0.02582638       0.07385514       0.00000242
C       -0.14596947       2.52773468       0.00000023      -0.02562231      -0.09699104      -0.00000310
C       -0.74170304      -1.27311430       0.00000002      -0.10268542       0.01579824       0.00000017
H       -1.77390009       1.18652580       0.00000089       0.00407333      -0.00048596      -0.00000110
H        0.92507270       2.66244053      -0.00000035       0.00672213      -0.00370915       0.00000041
H       -0.79621023       3.39960719      -0.00000134      -0.00484677      -0.01534447       0.00000151
H       -0.06559466      -2.13502979       0.00000008      -0.00588991       0.05925893       0.00000008
H       -1.39810194      -1.32937304       0.88593256       0.05015855      -0.00468188      -0.05450848
H       -1.39810201      -1.32937336      -0.88593243       0.05015860      -0.00468153       0.05450842
12
Lattice="20.0 0.0 0.0 0.0 20.0 0.0 0.0 0.0 20.0" Properties=species:S:1:pos:R:3:REF_forces:R:3 REF_energy=-8332.363732261703 pbc="F F F"
C        0.00477882       0.02921725       0.00000000       0.21182202      -0.03298421      -0.00000000
O        1.28413892      -0.12777272       0.00000000      -0.10279238       0.13799632       0.00000000
O        2.12047977       0.94586310      -0.00000000      -0.12950800      -0.11724283       0.00000000
C       -0.69104572       1.28809044      -0.00000000       0.27530016       0.13539703      -0.00000000
C       -0.14617675       2.52885295       0.00000000       0.01794775      -0.42357030       0.00000000
C       -0.74621758      -1.26959416       0.00000000       0.00337756       0.00248160       0.00000000
H       -1.75172821       1.18804262       0.00000000      -0.23751194      -0.02213263      -0.00000000
H        0.91047229       2.66213707       0.00000000       0.16316632       0.01369463      -0.00000000
H       -0.78215119       3.37038816       0.00000000      -0.21569434       0.27565649      -0.00000000
H       -0.04779943      -2.10961208      -0.00000000      -0.00527149       0.01187524      -0.00000000
H       -1.39229849      -1.34500732       0.88292981       0.00986118       0.00962752      -0.00322284
H       -1.39229849      -1.34500732      -0.88292981       0.00986118       0.00962752       0.00322284
12
Lattice="20.0 0.0 0.0 0.0 20.0 0.0 0.0 0.0 20.0" Properties=species:S:1:pos:R:3:REF_forces:R:3 REF_energy=-8332.24718135401 pbc="F F F"
C       -0.00107613       0.02848434      -0.00000000       0.37983652       0.00224572      -0.00000000
O        1.28503095      -0.12850484       0.00000000      -0.13631531       0.16270952       0.00000000
O        2.12155173       0.94676340       0.00000000      -0.16229143      -0.14730992       0.00000000
C       -0.68649209       1.28355098       0.00000000      -0.05870021       0.21045914       0.00000000
C       -0.14869518       2.52590093      -0.00000000       0.04550530      -0.06653158       0.00000000
C       -0.73237811      -1.25035931       0.00000000      -0.39993060      -0.56806235       0.00000000
H       -1.77195330       1.20229944       0.00000000       0.00438742      -0.03504177      -0.00000000
H        0.92015088       2.67498561       0.00000000       0.01610542      -0.02979763      -0.00000000
H       -0.77984538       3.41238381       0.00000000      -0.04429129      -0.04867239      -0.00000000
H       -0.11949069      -2.16138191       0.00000000       0.13969801       0.14945506      -0.00000000
H       -1.42761916      -1.42061009       0.84244464       0.10798750       0.18534748       0.06145887
H       -1.42761916      -1.42061009      -0.84244464       0.10798750       0.18534748      -0.06145887
12
Lattice="20.0 0.0 0.0 0.0 20.0 0.0 0.0 0.0 20.0" Properties=species:S:1:pos:R:3:REF_forces:R:3 REF_energy=-8332.385817942877 pbc="F F F"
C        0.00744719       0.02815117      -0.00000003       0.18102248      -0.02383735      -0.00000005
O        1.28510718      -0.12077164       0.00000005      -0.11721377       0.02131312      -0.00000026
O        2.11642497       0.94010197       0.00000001      -0.06059504      -0.02371176       0.00000012
C       -0.69007843       1.28928183      -0.00000025       0.02878459       0.07558143       0.00000241
C       -0.14596816       2.52774333       0.00000023      -0.02575276      -0.09787690      -0.00000310
C       -0.74086581      -1.27254413       0.00000002      -0.19323313      -0.04662102       0.00000018
H       -1.77355726       1.18657430       0.00000089       0.00065452      -0.00100518      -0.00000110
H        0.92507714       2.66242552      -0.00000035       0.00667765      -0.00355896       0.00000041
H       -0.79621927       3.39962815      -0.00000134      -0.00474261      -0.01553126       0.00000151
H       -0.06108362      -2.14025928       0.00000008      -0.04681968       0.10907845       0.00000006
H       -1.40530561      -1.33011327       0.89618544       0.11555383       0.00071653      -0.14666169
H       -1.40530568      -1.33011359      -0.89618532       0.11555389       0.00071690       0.14666163
12
Lattice="20.0 0.0 0.0 0.0 20.0 0.0 0.0 0.0 20.0" Properties=species:S:1:pos:R:3:REF_forces:R:3 REF_energy=-8332.367585371881 pbc="F F F"
C        0.00475176       0.02928805      -0.03391010       0.00000000       0.00000000       0.00000000
O        1.28414788      -0.12777140      -0.06832172       0.00000000       0.00000000       0.00000000
O        2.12045727       0.94586901       0.05652264       0.00000000       0.00000000       0.00000000
C       -0.68909908       1.28848395       0.00748001       0.00000000       0.00000000       0.00000000
C       -0.14593388       2.52636114      -0.00505384       0.00000000       0.00000000       0.00000000
C       -0.74614956      -1.26962817       0.03150428       0.00000000       0.00000000       0.00000000
H       -1.77305784       1.18612550       0.03572840       0.00000000       0.00000000       0.00000000
H        0.92470956       2.66386140      -0.02156200       0.00000000       0.00000000       0.00000000
H       -0.80060188       3.39483832      -0.00195262       0.00000000       0.00000000       0.00000000
H       -0.04815516      -2.10926685       0.10501324       0.00000000       0.00000000       0.00000000
H       -1.39639406      -1.27386771       0.91818390       0.00000000       0.00000000       0.00000000
H       -1.38866849      -1.41629855      -0.84836707       0.00000000       0.00000000       0.00000000
12
Lattice="20.0 0.0 0.0 0.0 20.0 0.0 0.0 0.0 20.0" Properties=species:S:1:pos:R:3:REF_forces:R:3 REF_energy=-8332.343656871764 pbc="F F F"
C        0.00033577       0.02379876      -0.00000021       0.00000000       0.00000000       0.00000000
O        1.28602204      -0.12748231       0.00000004       0.00000000       0.00000000       0.00000000
O        2.12062750       0.94617104      -0.00000015       0.00000000       0.00000000       0.00000000
C       -0.68440665       1.30913847       0.00000025       0.00000000       0.00000000       0.00000000
C       -0.15158049       2.51033083       0.00000016       0.00000000       0.00000000       0.00000000
C       -0.74532232      -1.26885831      -0.00000002       0.00000000       0.00000000       0.00000000
H       -1.76275719       1.15723733      -0.00000002       0.00000000       0.00000000       0.00000000
H        0.91134523       2.68290777      -0.00000070       0.00000000       0.00000000       0.00000000
H       -0.77942426       3.39688263       0.00000000       0.00000000       0.00000000       0.00000000
H       -0.05068759      -2.11124677       0.00000052       0.00000000       0.00000000       0.00000000
H       -1.38947974      -1.34431961       0.88516245       0.00000000       0.00000000       0.00000000
H       -1.38947949      -1.34431742      -0.88516267       0.00000000       0.00000000       0.00000000
12
Lattice="20.0 0.0 0.0 0.0 20.0 0.0 0.0 0.0 20.0" Properties=species:S:1:pos:R:3:REF_forces:R:3 REF_energy=-8332.39579996199 pbc="F F F"
C        0.00741115       0.02813451      -0.00000003       0.18448409      -0.02298542      -0.00000006
O        1.28514504      -0.12076853       0.00000005      -0.12272933       0.02086474      -0.00000026
O        2.11641898       0.94009582       0.00000001      -0.05949137      -0.02270926       0.00000012
C       -0.69108601       1.28923889      -0.00000025       0.16105825       0.08175404       0.00000230
C       -0.14579908       2.52716698       0.00000023      -0.04628783      -0.02766344      -0.00000320
C       -0.74282596      -1.27285194       0.00000002       0.03178892      -0.02062239       0.00000018
H       -1.76158726       1.18758230       0.00000089      -0.13076270      -0.01199440      -0.00000098
H        0.92780009       2.66274350      -0.00000035      -0.02152962      -0.00680957       0.00000041
H       -0.80102054       3.40592982      -0.00000134       0.04415861      -0.08035384       0.00000161
H       -0.06208886      -2.13931862       0.00000008      -0.04229378       0.10537780       0.00000007
H       -1.39311214      -1.32875014       0.87869985       0.00069105      -0.00993217       0.01657507
H       -1.39311221      -1.32875046      -0.87869973       0.00069110      -0.00993184      -0.01657512
12
Lattice="20.0 0.0 0.0 0.0 20.0 0.0 0.0 0.0 20.0" Properties=species:S:1:pos:R:3:REF_forces:R:3 REF_energy=-8331.825879398586 pbc="F F F"
C        0.10345238       0.03987754       0.15739528       0.13726594      -0.62287440       0.09655984
O        1.37745131      -0.08810500       0.09912151      -0.17296255       0.20976249      -0.08040704
O        2.14690574       1.06589987      -0.01503267      -0.15611075      -0.22960338       0.01875299
C       -0.64993969       1.22512372       0.18528909      -0.42820559       0.65502073      -0.22852701
C       -0.32328709       2.32259681      -0.56364311      -0.54978384       0.11834588       0.34850519
C       -0.80106929      -1.21267449       0.15723756       0.50668441       0.14770583      -0.08716210
H       -1.69335513       1.09919524       0.64686119       0.44824008       0.13018080      -0.23467593
H        0.64517139       2.43470133      -1.02094353       0.04590464      -0.02435982      -0.02600245
H       -1.11135474       3.14314217      -0.67757908       0.36564894      -0.31211773       0.03268313
H       -0.23987859      -2.14767101       0.33212343      -0.08333696       0.09782053      -0.06509955
H       -1.50626943      -1.03029043       0.94337253      -0.17242867      -0.08463818       0.16867310
H       -1.35438316      -1.20774089      -0.79612997       0.05927994      -0.08483665       0.05650606
12
Lattice="20.0 0.0 0.0 0.0 20.0 0.0 0.0 0.0 20.0" Properties=species:S:1:pos:R:3:REF_forces:R:3 REF_energy=-8332.370613856538 pbc="F F F"
C        0.00482098       0.03026288       0.00432210       0.27499991      -0.09409834      -0.02401303
O        1.28764038      -0.12706665       0.00078375      -0.14726870       0.15984907       0.00258196
O        2.12415546       0.95018179      -0.00006452      -0.14293156      -0.13829823      -0.00046799
C       -0.68884148       1.28810532      -0.00030977      -0.16758891      -0.03097636       0.03443064
C       -0.14692628       2.51995165      -0.00554804      -0.11925858       0.10945825      -0.02275004
C       -0.75048642      -1.27229145       0.00293497      -0.04226421       0.04080050      -0.14357844
H       -1.78809686       1.16739257       0.02267452       0.16040670       0.04480185      -0.01696336
H        0.91946906       2.66638008      -0.01883181       0.03757380      -0.01224100       0.00225106
H       -0.81041779       3.39798210      -0.01490067       0.07246091      -0.10563629       0.01057309
H       -0.04475814      -2.11634237      -0.00256106      -0.07607625       0.05987854       0.01438295
H       -1.40316970      -1.31693345       0.88470959       0.02345149      -0.03500863      -0.01598563
H       -1.40971796      -1.33172050      -0.89917945       0.12688738       0.00235722       0.15931948
12
Lattice="20.0 0.0 0.0 0.0 20.0 0.0 0.0 0.0 20.0" Properties=species:S:1:pos:R:3:REF_forces:R:3 REF_energy=-8332.390760959104 pbc="F F F"
C        0.00475171       0.02928889      -0.02437046       0.00000000       0.00000000       0.00000000
O        1.28414838      -0.12777135       0.01421013       0.00000000       0.00000000       0.00000000
O        2.12046048       0.94586724      -0.00165578       0.00000000       0.00000000       0.00000000
C       -0.68910144       1.28848346      -0.00522089       0.00000000       0.00000000       0.00000000
C       -0.14593474       2.52636116       0.00317851       0.00000000       0.00000000       0.00000000
C       -0.74615062      -1.26962659       0.00164176       0.00000000       0.00000000       0.00000000
H       -1.77306058       1.18612411       0.04698568       0.00000000       0.00000000       0.00000000
H        0.92470990       2.66385923      -0.06182690       0.00000000       0.00000000       0.00000000
H       -0.80060141       3.39484019       0.07731474       0.00000000       0.00000000       0.00000000
H       -0.04815748      -2.10926666       0.01047940       0.00000000       0.00000000       0.00000000
H       -1.38146164      -1.32814892       0.89475263       0.00000000       0.00000000       0.00000000
H       -1.40360394      -1.36201176      -0.87179878       0.00000000       0.00000000       0.00000000
12
Lattice="20.0 0.0 0.0 0.0 20.0 0.0 0.0 0.0 20.0" Properties=species:S:1:pos:R:3:REF_forces:R:3 REF_energy=-8332.36880615183 pbc="F F F"
C       -0.00132414       0.02379150      -0.00000001       0.00000000       0.00000000       0.00000000
O        1.28749069      -0.12679737       0.00000001       0.00000000       0.00000000       0.00000000
O        2.12047124       0.94533620       0.00000002       0.00000000       0.00000000       0.00000000
C       -0.69078072       1.29358895      -0.00000002       0.00000000       0.00000000       0.00000000
C       -0.14148684       2.53155473      -0.00000003       0.00000000       0.00000000       0.00000000
C       -0.74382651      -1.26723793      -0.00000013       0.00000000       0.00000000       0.00000000
H       -1.77195837       1.15364187      -0.00000027       0.00000000       0.00000000       0.00000000
H        0.93478148       2.63320946       0.00000019       0.00000000       0.00000000       0.00000000
H       -0.83842150       3.36749331       0.00000007       0.00000000       0.00000000       0.00000000
H       -0.04861378      -2.10886343       0.00000140       0.00000000       0.00000000       0.00000000
H       -1.39973511      -1.34639968       0.87648664       0.00000000       0.00000000       0.00000000
H       -1.39973579      -1.34639869      -0.87648640       0.00000000       0.00000000       0.00000000
12
Lattice="20.0 0.0 0.0 0.0 20.0 0.0 0.0 0.0 20.0" Properties=species:S:1:pos:R:3:REF_forces:R:3 REF_energy=-8332.267378560646 pbc="F F F"
C        0.00397441       0.02247966      -0.00000000       0.19429308       0.04905163      -0.00000000
O        1.25648359      -0.12966838       0.00000000       0.48621758       0.14291231       0.00000000
O        2.12833604       0.95371537       0.00000000      -0.26694958      -0.24929754       0.00000000
C       -0.66101327       1.28009532       0.00000000      -0.44560308       0.21876151      -0.00000000
C       -0.16231965       2.54006891      -0.00000000       0.24753593      -0.27653215       0.00000000
C       -0.73839325      -1.26939766       0.00000000      -0.12685145       0.00181609       0.00000000
H       -1.73808720       1.10267505       0.00000000      -0.02615648       0.11334328      -0.00000000
H        0.92504495       2.56616420       0.00000000      -0.03103057       0.12536544      -0.00000000
H       -0.74869250       3.45876420       0.00000000      -0.04908810      -0.10599952      -0.00000000
H       -0.05207012      -2.11756433      -0.00000000       0.00328586       0.01916457      -0.00000000
H       -1.38844715      -1.32204094       0.88207011       0.00755478      -0.01944909      -0.00652339
H       -1.38844715      -1.32204094      -0.88207011       0.00755478      -0.01944909       0.00652339
12
Lattice="20.0 0.0 0.0 0.0 20.0 0.0 0.0 0.0 20.0" Properties=species:S:1:pos:R:3:REF_forces:R:3 REF_energy=-8331.883008570576 pbc="F F F"
C        0.00748467       0.03430778       0.03008968       0.55235412      -0.35069588      -0.16563900
O        1.30797130      -0.12207219       0.00568687      -0.35572866       0.27233998       0.02461055
O        2.14647489       0.97620368      -0.00047834      -0.23281096      -0.24969418      -0.00134772
C       -0.69291261       1.28154739      -0.00070812      -0.61589555      -0.55217241       0.27516267
C       -0.15582745       2.48689146      -0.04069598      -0.25240119       0.77110021      -0.16885248
C       -0.77831137      -1.28690909       0.01688223      -0.11340872       0.44482827      -0.41788448
H       -1.82356336       1.07189662       0.15289066       0.51037596       0.25527554      -0.15317401
H        0.89778474       2.67822465      -0.13415190       0.06206881      -0.07352247       0.01847084
H       -0.84435260       3.38248752      -0.10160892       0.21681134      -0.29093633       0.07958162
H       -0.05352252      -2.14071183      -0.01162728      -0.29181321       0.15279386       0.09192212
H       -1.46200903      -1.16393995       0.88738800       0.11607316      -0.28067814      -0.09047126
H       -1.47361701      -1.25531440      -0.94189262       0.40334428      -0.09858185       0.50709395
12
Lattice="20.0 0.0 0.0 0.0 20.0 0.0 0.0 0.0 20.0" Properties=species:S:1:pos:R:3:REF_forces:R:3 REF_energy=-8332.398577826767 pbc="F F F"
C        0.00743947       0.02815931       0.00000375       0.18156514      -0.02690306      -0.00084643
O        1.28513072      -0.12076902       0.00000301      -0.12033444       0.02109795      -0.00039425
O        2.11642056       0.94009711       0.00000139      -0.05992194      -0.02295802      -0.00019880
C       -0.69004154       1.28930715      -0.00000268       0.02433728       0.07299265       0.00026282
C       -0.14597012       2.52773035      -0.00000044      -0.02555398      -0.09655184       0.00006292
C       -0.74212165      -1.27339939       0.00125645      -0.05034131       0.04826001      -0.15083532
H       -1.77407150       1.18650155       0.00001601       0.00578461      -0.00022877      -0.00013848
H        0.92507047       2.66244803       0.00000536       0.00674251      -0.00378042      -0.00008162
H       -0.79620570       3.39959670      -0.00000321      -0.00489789      -0.01525226       0.00000895
H       -0.06785019      -2.13241505       0.00024423       0.01511059       0.03368908      -0.00208464
H       -1.38869908      -1.32840411       0.87314993      -0.04523059      -0.01246981       0.07374955
H       -1.40030121      -1.32960204      -0.88846218       0.07259727      -0.00280216       0.08060722
12
Lattice="20.0 0.0 0.0 0.0 20.0 0.0 0.0 0.0 20.0" Properties=species:S:1:pos:R:3:REF_forces:R:3 REF_energy=-8331.76402212056 pbc="F F F"
C        0.00470565       0.02933752      -0.00000000       0.20886841      -0.06095230      -0.00000000
O        1.28428851      -0.12775596      -0.00000000      -0.12219047       0.13460958       0.00000000
O        2.12043419       0.94583758       0.00000000      -0.12333339      -0.11448818       0.00000000
C       -0.68888123       1.28863511       0.00000000      -0.01502851       0.06686137       0.00000000
C       -0.14594712       2.52628454      -0.00000000      -0.02385202      -0.07247596       0.00000000
C       -0.75363829      -1.27472682       0.00000000       1.32134506       0.73571253       0.00000001
H       -1.77612656       1.18569081       0.00000000       0.03587571       0.00421882      -0.00000000
H        0.92466917       2.66399532      -0.00000000       0.00671916      -0.00632801      -0.00000000
H       -0.80052187       3.39465274      -0.00000000      -0.00122042      -0.00766936      -0.00000000
H       -0.08850389      -2.06249229       0.00000000       0.45790163      -0.52166486      -0.00000000
H       -1.32810034      -1.33846052       0.79157115      -0.87225941      -0.07879595       1.24978860
H       -1.32810034      -1.33846052      -0.79157115      -0.87225941      -0.07879595      -1.24978861
12
Lattice="20.0 0.0 0.0 0.0 20.0 0.0 0.0 0.0 20.0" Properties=species:S:1:pos:R:3:REF_forces:R:3 REF_energy=-8332.29223974932 pbc="F F F"
C        0.00475169       0.02928902      -0.00002014       0.00000000       0.00000000       0.00000000
O        1.28414817      -0.12777159      -0.00001584       0.00000000       0.00000000       0.00000000
O        2.12046044       0.94586659      -0.00000735       0.00000000       0.00000000       0.00000000
C       -0.68910112       1.28848409       0.00001293       0.00000000       0.00000000       0.00000000
C       -0.14593546       2.52636206       0.00000356       0.00000000       0.00000000       0.00000000
C       -0.74614990      -1.26962701      -0.00670095       0.00000000       0.00000000       0.00000000
H       -1.77306124       1.18612452      -0.00008067       0.00000000       0.00000000       0.00000000
H        0.92470800       2.66386096      -0.00003050       0.00000000       0.00000000       0.00000000
H       -0.80060174       3.39483889       0.00000999       0.00000000       0.00000000       0.00000000
H       -0.04815596      -2.10926610      -0.00130212       0.00000000       0.00000000       0.00000000
H       -1.42347077      -1.34827503       0.92410878       0.00000000       0.00000000       0.00000000
H       -1.36159313      -1.34188777      -0.84244277       0.00000000       0.00000000       0.00000000
12
Lattice="20.0 0.0 0.0 0.0 20.0 0.0 0.0 0.0 20.0" Properties=species:S:1:pos:R:3:REF_forces:R:3 REF_energy=-8331.985624281486 pbc="F F F"
C        0.04690405       0.01309676       0.07502068       0.21752757      -0.28291497      -0.21270068
O        1.33826983      -0.09940176       0.01950399      -0.23515252       0.19530585       0.05037512
O        2.19031078       1.02731360      -0.00170034      -0.37525123      -0.33927346      -0.00584797
C       -0.72219814       1.21951080       0.02336480       0.51163770       0.36085725       0.22444686
C       -0.18431035       2.46008791      -0.14379150      -0.31323643      -0.19671502      -0.16569610
C       -0.84021252      -1.26518932       0.03647265       0.58340749       0.37986137       0.19586121
H       -1.73413415       1.07647996       0.33714325      -0.22693144       0.04789041      -0.08599746
H        0.85383160       2.60780540      -0.37847485       0.07919799      -0.03338525       0.03041826
H       -0.87509700       3.29319438      -0.22918577       0.01429974       0.05746665       0.08314062
H       -0.27810646      -2.19380687       0.07619600       0.00750379      -0.02013586       0.02309270
H       -1.51822834      -1.13846838       0.86255151      -0.10528298      -0.11998082       0.17617525
H       -1.42815384      -1.19119397      -0.84422985      -0.15771360      -0.04870996      -0.31277711
12
Lattice="20.0 0.0 0.0 0.0 20.0 0.0 0.0 0.0 20.0" Properties=species:S:1:pos:R:3:REF_forces:R:3 REF_energy=-8332.342465090518 pbc="F F F"
C        0.00471979       0.02932400       0.00000001       0.00000000       0.00000000       0.00000000
O        1.28412136      -0.12778478       0.00000000       0.00000000       0.00000000       0.00000000
O        2.12047674       0.94587429       0.00000000       0.00000000       0.00000000       0.00000000
C       -0.68701105       1.28862992      -0.00000002       0.00000000       0.00000000       0.00000000
C       -0.14626215       2.52737964      -0.00000000       0.00000000       0.00000000       0.00000000
C       -0.74934684      -1.26704900       0.00000006       0.00000000       0.00000000       0.00000000
H       -1.79794182       1.18386059      -0.00000008       0.00000000       0.00000000       0.00000000
H        0.91975689       2.66334775       0.00000004       0.00000000       0.00000000       0.00000000
H       -0.79173636       3.38318963       0.00000001       0.00000000       0.00000000       0.00000000
H       -0.02119369      -2.14172132      -0.00000000       0.00000000       0.00000000       0.00000000
H       -1.38671472      -1.34409738       0.87439082       0.00000000       0.00000000       0.00000000
H       -1.38671529      -1.34409754      -0.87439152       0.00000000       0.00000000       0.00000000
12
Lattice="20.0 0.0 0.0 0.0 20.0 0.0 0.0 0.0 20.0" Properties=species:S:1:pos:R:3:REF_forces:R:3 REF_energy=-8332.256101243916 pbc="F F F"
C       -0.00893437      -0.01409037      -0.00000000       0.54354314       0.90905596       0.00000000
O        1.29300192      -0.11873426       0.00000000      -0.34737091      -0.12680591      -0.00000000
O        2.12112835       0.94299295      -0.00000000      -0.13901742      -0.03409643       0.00000000
C       -0.69126591       1.28309384      -0.00000000       0.02963530       0.19247397       0.00000000
C       -0.15060448       2.53566115       0.00000000       0.06574126      -0.25008696      -0.00000000
C       -0.74489258      -1.25352632      -0.00000000      -0.07266957      -0.39646109       0.00000000
H       -1.78343974       1.25125978      -0.00000000       0.03648416      -0.10997192      -0.00000000
H        0.92110030       2.66800878      -0.00000000       0.01252004      -0.01269821      -0.00000000
H       -0.76589414       3.43531686      -0.00000000      -0.05497366      -0.08128165       0.00000000
H       -0.01374735      -2.06526796       0.00000000      -0.06306478      -0.06647682      -0.00000000
H       -1.38089558      -1.33163692       0.89002647      -0.00546794      -0.01173270      -0.01895449
H       -1.38089558      -1.33163692      -0.89002647      -0.00546794      -0.01173270       0.01895448
12
Lattice="20.0 0.0 0.0 0.0 20.0 0.0 0.0 0.0 20.0" Properties=species:S:1:pos:R:3:REF_forces:R:3 REF_energy=-8332.38184190655 pbc="F F F"
C        0.00745806       0.02813888      -0.00000003       0.17924466      -0.02526565      -0.00000006
O        1.28514636      -0.12076134       0.00000005      -0.12247291       0.02012741      -0.00000026
O        2.11641107       0.94009262       0.00000001      -0.05836430      -0.02217427       0.00000012
C       -0.69126137       1.28922204      -0.00000025       0.18457416       0.08369305       0.00000228
C       -0.14577947       2.52713659       0.00000023      -0.04849252      -0.02408194      -0.00000321
C       -0.74025708      -1.27490297       0.00000002      -0.29667255       0.25908496       0.00000016
H       -1.75955054       1.18782283       0.00000089      -0.15394684      -0.01472099      -0.00000096
H        0.92795931       2.66274746      -0.00000035      -0.02310975      -0.00684107       0.00000041
H       -0.80137876       3.40639418      -0.00000134       0.04776571      -0.08485901       0.00000162
H       -0.08357558      -2.11348597       0.00000008       0.18903889      -0.18512456       0.00000009
H       -1.39789280      -1.32957679       0.88598796       0.05121166      -0.00238857      -0.05936302
H       -1.39789287      -1.32957711      -0.88598784       0.05121171      -0.00238823       0.05936296
12
Lattice="20.0 0.0 0.0 0.0 20.0 0.0 0.0 0.0 20.0" Properties=species:S:1:pos:R:3:REF_forces:R:3 REF_energy=-8331.862830255153 pbc="F F F"
C        0.02243785       0.05280916      -0.00000000       0.00625105      -0.37620428       0.00000000
O        1.32417151      -0.08182211       0.00000000      -1.06275903      -1.05160702       0.00000000
O        2.09175033       0.90900848      -0.00000000       0.67567754       0.91263463      -0.00000000
C       -0.66679151       1.27720221       0.00000000      -0.37436976       0.27352789       0.00000000
C       -0.16301357       2.52938346      -0.00000000       0.23771366      -0.09635214      -0.00000000
C       -0.79867244      -1.26806209       0.00000000       0.65832581      -0.13518905      -0.00000000
H       -1.74019418       1.06607730       0.00000000       0.00513961       0.15265879       0.00000000
H        0.92298456       2.55531153       0.00000000      -0.03971016       0.13709559       0.00000000
H       -0.72942057       3.46187774       0.00000000      -0.05391265      -0.11827837       0.00000000
H        0.03633585      -1.99895541      -0.00000000      -0.17922893      -0.06934466       0.00000000
H       -1.39933594      -1.49185547       0.90302988       0.06342167       0.18510819      -0.08353755
H       -1.39933594      -1.49185547      -0.90302988       0.06342167       0.18510818       0.08353755
12
Lattice="20.0 0.0 0.0 0.0 20.0 0.0 0.0 0.0 20.0" Properties=species:S:1:pos:R:3:REF_forces:R:3 REF_energy=-8332.353220524034 pbc="F F F"
C       -0.00528870       0.03110067       0.00000212       0.00000000       0.00000000       0.00000000
O        1.26561172      -0.10583288      -0.00000089       0.00000000       0.00000000       0.00000000
O        2.12166578       0.93644775      -0.00000020       0.00000000       0.00000000       0.00000000
C       -0.66489711       1.27035773      -0.00000013       0.00000000       0.00000000       0.00000000
C       -0.14021706       2.50970379      -0.00000017       0.00000000       0.00000000       0.00000000
C       -0.74205980      -1.25647883      -0.00000046       0.00000000       0.00000000       0.00000000
H       -1.74956150       1.18520401       0.00000121       0.00000000       0.00000000       0.00000000
H        0.91829178       2.73165423      -0.00000479       0.00000000       0.00000000       0.00000000
H       -0.85903530       3.32982949       0.00000741       0.00000000       0.00000000       0.00000000
H       -0.03035376      -2.08439778      -0.00000201       0.00000000       0.00000000       0.00000000
H       -1.38604000      -1.33969257       0.88411465       0.00000000       0.00000000       0.00000000
H       -1.38604080      -1.33968935      -0.88411528       0.00000000       0.00000000       0.00000000
12
Lattice="20.0 0.0 0.0 0.0 20.0 0.0 0.0 0.0 20.0" Properties=species:S:1:pos:R:3:REF_forces:R:3 REF_energy=-8332.356218556224 pbc="F F F"
C        0.00740625       0.02824719      -0.00000003       0.18560584      -0.03762376      -0.00000006
O        1.28514205      -0.12076764       0.00000005      -0.12229417       0.02074518      -0.00000025
O        2.11639690       0.94010138       0.00000001      -0.05598574      -0.02344022       0.00000012
C       -0.68766000       1.28978930      -0.00000025      -0.25562326       0.01113493       0.00000256
C       -0.14567460       2.52467946       0.00000023      -0.04377781       0.25712614      -0.00000349
C       -0.74203878      -1.27343961       0.00000002      -0.06460739       0.05332669       0.00000017
H       -1.80019774       1.18415247       0.00000089       0.26112855       0.02287354      -0.00000130
H        0.94250672       2.66455951      -0.00000035      -0.16899527      -0.02502861       0.00000048
H       -0.81880422       3.42954429      -0.00000134       0.20691842      -0.29976542       0.00000189
H       -0.06828673      -2.13199145       0.00000008       0.01974010       0.02907291       0.00000008
H       -1.39478597      -1.32909364       0.88122975       0.01860091      -0.00659622      -0.01023344
H       -1.39478605      -1.32909396      -0.88122963       0.01860096      -0.00659589       0.01023339
12
Lattice="20.0 0.0 0.0 0.0 20.0 0.0 0.0 0.0 20.0" Properties=species:S:1:pos:R:3:REF_forces:R:3 REF_energy=-8331.853092626607 pbc="F F F"
C       -0.02802266      -0.01664398      -0.00000000       0.48012382       0.29224546      -0.00000000
O        1.27670982      -0.07268579      -0.00000000      -0.11904362      -0.27236920       0.00000000
O        2.20841431       0.97993362      -0.00000000      -0.59645319      -0.26020508       0.00000000
C       -0.65306852       1.30977703      -0.00000000      -0.19957314       0.00658180       0.00000000
C       -0.14194357       2.57680599      -0.00000000      -0.02028972      -0.28295733      -0.00000000
C       -0.83399523      -1.40082122       0.00000000       0.31597042       0.48202734       0.00000000
H       -1.74355793       1.26449872       0.00000000       0.00588203      -0.03734011      -0.00000000
H        0.91577994       2.82340984      -0.00000000      -0.04070823      -0.08102870      -0.00000000
H       -0.86885267       3.39283015       0.00000000       0.05357363      -0.03054700      -0.00000000
H       -0.14528185      -2.25006626      -0.00000000       0.03558531       0.06359778      -0.00000000
H       -1.47893966      -1.47226264       0.88458388       0.04228246       0.06041856      -0.00480909
H       -1.47893966      -1.47226264      -0.88458388       0.04228246       0.06041856       0.00480909
12
Lattice="20.0 0.0 0.0 0.0 20.0 0.0 0.0 0.0 20.0" Properties=species:S:1:pos:R:3:REF_forces:R:3 REF_energy=-8332.36521880558 pbc="F F F"
C        0.00475169       0.02928901       0.01426163       0.21722850      -0.04054591      -0.20506181
O        1.28414818      -0.12777159      -0.00071028      -0.10374744       0.13763682       0.01687514
O        2.12046044       0.94586659      -0.00052100      -0.12569912      -0.11757575       0.01012630
C       -0.68910120       1.28848411      -0.00249826       0.01158871       0.08235235       0.03609741
C       -0.14593546       2.52636191      -0.00034932      -0.02555318      -0.07993115       0.00510048
C       -0.74614992      -1.26962700      -0.01575564      -0.01508688      -0.00114692       0.22107823
H       -1.77306019       1.18612461      -0.00374782       0.00516835      -0.00013210       0.00422562
H        0.92470893       2.66386108      -0.00612226       0.00627763      -0.00525084       0.00728779
H       -0.80060280       3.39484027       0.01183137      -0.00017408      -0.00977314      -0.01439285
H       -0.04815587      -2.10926621       0.03234077      -0.00673791       0.01422308      -0.03786209
H       -1.35375491      -1.29443108       0.90176477      -0.02732982      -0.05080808      -0.04296859
H       -1.43130889      -1.39573171      -0.86478665       0.06455894       0.07107345      -0.00028652
12
Lattice="20.0 0.0 0.0 0.0 20.0 0.0 0.0 0.0 20.0" Properties=species:S:1:pos:R:3:REF_forces:R:3 REF_energy=-8332.361670995564 pbc="F F F"
C        0.01144528       0.02808124      -0.00000141       0.00000000       0.00000000       0.00000000
O        1.29650581      -0.14239739       0.00000059       0.00000000       0.00000000       0.00000000
O        2.11965688       0.95214581       0.00000013       0.00000000       0.00000000       0.00000000
C       -0.70523726       1.30056837       0.00000009       0.00000000       0.00000000       0.00000000
C       -0.14974773       2.53746733       0.00000012       0.00000000       0.00000000       0.00000000
C       -0.74887666      -1.27839244       0.00000031       0.00000000       0.00000000       0.00000000
H       -1.78872598       1.18673834      -0.00000081       0.00000000       0.00000000       0.00000000
H        0.92898702       2.61866566       0.00000320       0.00000000       0.00000000       0.00000000
H       -0.76164780       3.43818079      -0.00000494       0.00000000       0.00000000       0.00000000
H       -0.06002395      -2.12584516       0.00000134       0.00000000       0.00000000       0.00000000
H       -1.39685983      -1.34867394       0.88271641       0.00000000       0.00000000       0.00000000
H       -1.39685930      -1.34867609      -0.88271599       0.00000000       0.00000000       0.00000000
12
Lattice="20.0 0.0 0.0 0.0 20.0 0.0 0.0 0.0 20.0" Properties=species:S:1:pos:R:3:REF_forces:R:3 REF_energy=-8332.3618890411 pbc="F F F"
C        0.01574453       0.04469531      -0.00000023       0.00000000       0.00000000       0.00000000
O        1.28664327      -0.14624829      -0.00000002       0.00000000       0.00000000       0.00000000
O        2.09095977       0.93444037      -0.00000027       0.00000000       0.00000000       0.00000000
C       -0.70118745       1.28134225       0.00000099       0.00000000       0.00000000       0.00000000
C       -0.14727444       2.50944323      -0.00000010       0.00000000       0.00000000       0.00000000
C       -0.71668536      -1.22562361      -0.00000008       0.00000000       0.00000000       0.00000000
H       -1.78295667       1.15983704      -0.00000038       0.00000000       0.00000000       0.00000000
H        0.92770428       2.61034668      -0.00000044       0.00000000       0.00000000       0.00000000
H       -0.77771092       3.39551597      -0.00000151       0.00000000       0.00000000       0.00000000
H       -0.01557816      -2.06204087       0.00000024       0.00000000       0.00000000       0.00000000
H       -1.36354987      -1.30242348       0.88283687       0.00000000       0.00000000       0.00000000
H       -1.36354953      -1.30242419      -0.88283725       0.00000000       0.00000000       0.00000000
12
Lattice="20.0 0.0 0.0 0.0 20.0 0.0 0.0 0.0 20.0" Properties=species:S:1:pos:R:3:REF_forces:R:3 REF_energy=-8332.390426441663 pbc="F F F"
C        0.00475683       0.02928359      -0.00000000       0.00000000       0.00000000       0.00000000
O        1.28413248      -0.12777334       0.00000000       0.00000000       0.00000000       0.00000000
O        2.12046339       0.94586983       0.00000001       0.00000000       0.00000000       0.00000000
C       -0.68912583       1.28846723      -0.00000001       0.00000000       0.00000000       0.00000000
C       -0.14593415       2.52637058      -0.00000000       0.00000000       0.00000000       0.00000000
C       -0.74531270      -1.26905682       0.00000000       0.00000000       0.00000000       0.00000000
H       -1.77271693       1.18617318      -0.00000005       0.00000000       0.00000000       0.00000000
H        0.92471330       2.66384604       0.00000002       0.00000000       0.00000000       0.00000000
H       -0.80061178       3.39486115      -0.00000000       0.00000000       0.00000000       0.00000000
H       -0.04364483      -2.11449570      -0.00000001       0.00000000       0.00000000       0.00000000
H       -1.39973556      -1.34582159       0.89352856       0.00000000       0.00000000       0.00000000
H       -1.39973559      -1.34582166      -0.89352855       0.00000000       0.00000000       0.00000000
12
Lattice="20.0 0.0 0.0 0.0 20.0 0.0 0.0 0.0 20.0" Properties=species:S:1:pos:R:3:REF_forces:R:3 REF_energy=-8332.073771985757 pbc="F F F"
C        0.00475169       0.02928901       0.00134999       0.22294293      -0.03698549      -0.01304563
O        1.28414818      -0.12777159      -0.00427348      -0.09703811       0.12539429       0.06761170
O        2.12046044       0.94586659       0.00158494      -0.12857200      -0.11120365      -0.02616609
C       -0.68910120       1.28848411       0.03333535      -0.34451034      -0.00587535      -0.51582635
C       -0.14593546       2.52636191      -0.00429534       0.05876201       0.01053126       0.05199311
C       -0.74614992      -1.26962700       0.00407125      -0.00469462       0.00483095      -0.05306511
H       -1.77306019       1.18612461      -0.31069028       0.31410717       0.03667712       0.42556925
H        0.92470893       2.66386108      -0.15911145      -0.07546304      -0.00887339       0.17813638
H       -0.80060280       3.39484027       0.11645159       0.03084712      -0.04535795      -0.13196053
H       -0.04815587      -2.10926621      -0.00708030      -0.00110510       0.00833150       0.00777220
H       -1.40098927      -1.35512551       0.87950179       0.02132318       0.02268517      -0.00401367
H       -1.38407453      -1.33503728      -0.88704963       0.00357700       0.00002817       0.01278955
12
Lattice="20.0 0.0 0.0 0.0 20.0 0.0 0.0 0.0 20.0" Properties=species:S:1:pos:R:3:REF_forces:R:3 REF_energy=-8332.401876174146 pbc="F F F"
C        0.00743239       0.02815311      -0.00000003       0.18234585      -0.02588735      -0.00000005
O        1.28513430      -0.12076890       0.00000005      -0.12095092       0.02103637      -0.00000026
O        2.11642017       0.94009678       0.00000001      -0.05980248      -0.02288595       0.00000012
C       -0.69030266       1.28929009      -0.00000025       0.05750821       0.07507359       0.00000239
C       -0.14592736       2.52758951       0.00000023      -0.03092015      -0.07900915      -0.00000313
C       -0.74229773      -1.27326253       0.00000002      -0.03245452       0.03037444       0.00000016
H       -1.77095044       1.18677173       0.00000089      -0.02735344      -0.00307502      -0.00000107
H        0.92575288       2.66252190      -0.00000035      -0.00036268      -0.00454093       0.00000041
H       -0.79740941       3.40117998      -0.00000134       0.00759765      -0.03182992       0.00000154
H       -0.06640985      -2.13414094       0.00000008       0.00048000       0.05199024       0.00000008
H       -1.39415311      -1.32893973       0.88027955       0.01188465      -0.00809059      -0.00024773
H       -1.39415319      -1.32894004      -0.88027943       0.01188470      -0.00809026       0.00024768
12
Lattice="20.0 0.0 0.0 0.0 20.0 0.0 0.0 0.0 20.0" Properties=species:S:1:pos:R:3:REF_forces:R:3 REF_energy=-8332.268149414813 pbc="F F F"
C       -0.03804804       0.01669225       0.00000337       0.00000000       0.00000000       0.00000000
O        1.24746526      -0.10374935       0.00000311       0.00000000       0.00000000       0.00000000
O        2.03446190       1.00511937      -0.00000356       0.00000000       0.00000000       0.00000000
C       -0.67858969       1.29934376       0.00000046       0.00000000       0.00000000       0.00000000
C       -0.02103517       2.49444915       0.00000166       0.00000000       0.00000000       0.00000000
C       -0.71754920      -1.32718853      -0.00000350       0.00000000       0.00000000       0.00000000
H       -1.76986601       1.27945085      -0.00000425       0.00000000       0.00000000       0.00000000
H        1.05768556       2.53622103       0.00000725       0.00000000       0.00000000       0.00000000
H       -0.60501739       3.41707659      -0.00000189       0.00000000       0.00000000       0.00000000
H        0.04881180      -2.11069697      -0.00000809       0.00000000       0.00000000       0.00000000
H       -1.35544439      -1.45578848       0.88450926       0.00000000       0.00000000       0.00000000
H       -1.35544251      -1.45577781      -0.88451874       0.00000000       0.00000000       0.00000000
12
Lattice="20.0 0.0 0.0 0.0 20.0 0.0 0.0 0.0 20.0" Properties=species:S:1:pos:R:3:REF_forces:R:3 REF_energy=-8332.26079150992 pbc="F F F"
C        0.00475169       0.02928901      -0.05503907       0.22360547      -0.02834479       0.36854678
O        1.28414818      -0.12777159       0.02364119      -0.11680734       0.13487344      -0.21330664
O        2.12046044       0.94586659      -0.00959081      -0.12456912      -0.11476224       0.08148316
C       -0.68910120       1.28848411       0.05396969      -0.04067464       0.05668902      -0.35252074
C       -0.14593546       2.52636191      -0.00444993      -0.03621821      -0.00220574       0.02132573
C       -0.74614992      -1.26962700      -0.00940093      -0.03123843      -0.00503606       0.05608946
H       -1.77306019       1.18612461      -0.06149975       0.05284241       0.00693829       0.03885280
H        0.92470893       2.66386108       0.09963400      -0.03943035      -0.00142460      -0.05739181
H       -0.80060280       3.39484027      -0.16597425       0.06430060      -0.08693986       0.10291591
H       -0.04815587      -2.10926621       0.03289808      -0.00339254       0.01510989      -0.01776951
H       -1.35495277      -1.27785850       0.90813382       0.00550286      -0.02420072      -0.04493316
H       -1.43011103      -1.41230428      -0.85841760       0.04624786       0.04976127       0.01677410
12
Lattice="20.0 0.0 0.0 0.0 20.0 0.0 0.0 0.0 20.0" Properties=species:S:1:pos:R:3:REF_forces:R:3 REF_energy=-8332.36971791807 pbc="F F F"
C        0.00146075       0.02519644       0.00000000       0.32982665       0.10137573      -0.00000000
O        1.28554461      -0.12755593       0.00000000      -0.16755496       0.12522042      -0.00000000
O        2.12058500       0.94609354      -0.00000000      -0.13124520      -0.12811384       0.00000000
C       -0.68560220       1.30387923      -0.00000000      -0.13037428      -0.48163261       0.00000000
C       -0.15014297       2.51441311       0.00000000       0.13673819       0.36926174      -0.00000000
C       -0.74553311      -1.26905402      -0.00000000      -0.02770595      -0.01598888       0.00000000
H       -1.76538077       1.16459371       0.00000000      -0.01280072       0.06294652       0.00000000
H        0.91474815       2.67805743       0.00000000       0.03244187      -0.04684710       0.00000000
H       -0.78481758       3.39636225      -0.00000000      -0.04497259      -0.01636251       0.00000000
H       -0.05004268      -2.11074207      -0.00000000       0.00378588       0.01239489      -0.00000000
H       -1.39025731      -1.34451333       0.88468172       0.00619909       0.00902084      -0.01109609
H       -1.39025731      -1.34451333      -0.88468172       0.00619909       0.00902084       0.01109608
12
Lattice="20.0 0.0 0.0 0.0 20.0 0.0 0.0 0.0 20.0" Properties=species:S:1:pos:R:3:REF_forces:R:3 REF_energy=-8332.302778018427 pbc="F F F"
C        0.00470318       0.02941737       0.00000003       0.00000000       0.00000000       0.00000000
O        1.28416468      -0.12776959       0.00000000       0.00000000       0.00000000       0.00000000
O        2.12042591       0.94587285       0.00000005       0.00000000       0.00000000       0.00000000
C       -0.68562248       1.28918836      -0.00000007       0.00000000       0.00000000       0.00000000
C       -0.14550376       2.52190597      -0.00000004       0.00000000       0.00000000       0.00000000
C       -0.74602915      -1.26968546      -0.00000009       0.00000000       0.00000000       0.00000000
H       -1.81122278       1.18269346      -0.00000016       0.00000000       0.00000000       0.00000000
H        0.95017473       2.66694478       0.00000017       0.00000000       0.00000000       0.00000000
H       -0.83360929       3.43858041      -0.00000001       0.00000000       0.00000000       0.00000000
H       -0.04879047      -2.10865113       0.00000005       0.00000000       0.00000000       0.00000000
H       -1.39294988      -1.34521380       0.88389487       0.00000000       0.00000000       0.00000000
H       -1.39294907      -1.34521410      -0.88389360       0.00000000       0.00000000       0.00000000
12
Lattice="20.0 0.0 0.0 0.0 20.0 0.0 0.0 0.0 20.0" Properties=species:S:1:pos:R:3:REF_forces:R:3 REF_energy=-8332.342899834646 pbc="F F F"
C        0.00475364       0.02928759       0.01353257       0.00000000       0.00000000       0.00000000
O        1.28415000      -0.12776998       0.00524009       0.00000000       0.00000000       0.00000000
O        2.12045880       0.94587105      -0.01962232       0.00000000       0.00000000       0.00000000
C       -0.68910155       1.28848137       0.02350866       0.00000000       0.00000000       0.00000000
C       -0.14593987       2.52636139      -0.00125396       0.00000000       0.00000000       0.00000000
C       -0.74614696      -1.26962938      -0.01266473       0.00000000       0.00000000       0.00000000
H       -1.77306072       1.18611951       0.05611792       0.00000000       0.00000000       0.00000000
H        0.92470413       2.66386509      -0.03916944       0.00000000       0.00000000       0.00000000
H       -0.80061068       3.39483723       0.01714911       0.00000000       0.00000000       0.00000000
H       -0.04815234      -2.10926848       0.22893538       0.00000000       0.00000000       0.00000000
H       -1.59574872      -1.24859152       0.72813507       0.00000000       0.00000000       0.00000000
H       -1.18931000      -1.44157709      -1.03841672       0.00000000       0.00000000       0.00000000
12
Lattice="20.0 0.0 0.0 0.0 20.0 0.0 0.0 0.0 20.0" Properties=species:S:1:pos:R:3:REF_forces:R:3 REF_energy=-8332.324567425403 pbc="F F F"
C        0.01479208       0.02747736      -0.00000212       0.00000000       0.00000000       0.00000000
O        1.30268463      -0.14971029       0.00000089       0.00000000       0.00000000       0.00000000
O        2.11925510       0.95528542       0.00000020       0.00000000       0.00000000       0.00000000
C       -0.71330529       1.30661049       0.00000013       0.00000000       0.00000000       0.00000000
C       -0.15165386       2.54302004       0.00000017       0.00000000       0.00000000       0.00000000
C       -0.75024003      -1.28277517       0.00000046       0.00000000       0.00000000       0.00000000
H       -1.79655888       1.18704520      -0.00000121       0.00000000       0.00000000       0.00000000
H        0.93112607       2.59606794       0.00000479       0.00000000       0.00000000       0.00000000
H       -0.74217029       3.45985104      -0.00000741       0.00000000       0.00000000       0.00000000
H       -0.06595798      -2.13413464       0.00000201       0.00000000       0.00000000       0.00000000
H       -1.39902380      -1.35047021       0.88243677       0.00000000       0.00000000       0.00000000
H       -1.39902300      -1.35047343      -0.88243614       0.00000000       0.00000000       0.00000000
12
Lattice="20.0 0.0 0.0 0.0 20.0 0.0 0.0 0.0 20.0" Properties=species:S:1:pos:R:3:REF_forces:R:3 REF_energy=-8332.3956706921 pbc="F F F"
C        0.00672899       0.03191869      -0.00000595       0.00000000       0.00000000       0.00000000
O        1.28862315      -0.12263418       0.00000029       0.00000000       0.00000000       0.00000000
O        2.11725047       0.94174562       0.00000022       0.00000000       0.00000000       0.00000000
C       -0.68660711       1.28722273       0.00000095       0.00000000       0.00000000       0.00000000
C       -0.14784466       2.52669956       0.00000018       0.00000000       0.00000000       0.00000000
C       -0.75202214      -1.26945196       0.00000659       0.00000000       0.00000000       0.00000000
H       -1.76938599       1.17270364       0.00000248       0.00000000       0.00000000       0.00000000
H        0.92451618       2.65172600       0.00000285       0.00000000       0.00000000       0.00000000
H       -0.79264509       3.40233450      -0.00000527       0.00000000       0.00000000       0.00000000
H       -0.03870920      -2.09693294      -0.00001364       0.00000000       0.00000000       0.00000000
H       -1.39330892      -1.36151260       0.88547656       0.00000000       0.00000000       0.00000000
H       -1.39327640      -1.36147007      -0.88549212       0.00000000       0.00000000       0.00000000
12
Lattice="20.0 0.0 0.0 0.0 20.0 0.0 0.0 0.0 20.0" Properties=species:S:1:pos:R:3:REF_forces:R:3 REF_energy=-8332.356786185568 pbc="F F F"
C        0.00475169       0.02928901       0.05449400       0.22627569      -0.05269244      -0.12039300
O        1.28414818      -0.12777159      -0.03177482      -0.12679813       0.15356140       0.09757562
O        2.12046044       0.94586659       0.00370243      -0.13467026      -0.12129146      -0.01329749
C       -0.68910120       1.28848411       0.01167423      -0.03956400       0.07768798      -0.02705072
C       -0.14593546       2.52636191      -0.00710736       0.00246424       0.00259430       0.00893441
C       -0.74614992      -1.26962700      -0.00367107      -0.01348255       0.00734924       0.00784672
H       -1.77306019       1.18612461      -0.10506322       0.06242559      -0.00350714       0.02125437
H        0.92470893       2.66386108       0.13824920      -0.09058998      -0.00150152      -0.03514475
H       -0.80060280       3.39484027      -0.17288101       0.07992016      -0.09544768       0.04662261
H       -0.04815587      -2.10926621      -0.02343266      -0.00175150       0.01007259       0.00408721
H       -1.41728771      -1.38294120       0.85761256       0.02144122       0.01769564      -0.01139406
H       -1.36777609      -1.30722158      -0.90893886       0.01452696       0.00574445       0.02075473
12
Lattice="20.0 0.0 0.0 0.0 20.0 0.0 0.0 0.0 20.0" Properties=species:S:1:pos:R:3:REF_forces:R:3 REF_energy=-8332.400675672627 pbc="F F F"
C        0.00742531       0.02814691      -0.00000003       0.18306461      -0.02491425      -0.00000006
O        1.28513788      -0.12076878       0.00000005      -0.12154371       0.02097701      -0.00000026
O        2.11641977       0.94009646       0.00000001      -0.05969723      -0.02282777       0.00000012
C       -0.69056378       1.28927302      -0.00000025       0.09134082       0.07722695       0.00000236
C       -0.14588460       2.52744866       0.00000023      -0.03616242      -0.06168262      -0.00000315
C       -0.74247380      -1.27312567       0.00000002      -0.01086941       0.01310374       0.00000017
H       -1.76782938       1.18704192       0.00000089      -0.06114815      -0.00598446      -0.00000104
H        0.92643528       2.66259576      -0.00000035      -0.00744363      -0.00529823       0.00000041
H       -0.79861312       3.40276326      -0.00000134       0.01993809      -0.04820492       0.00000156
H       -0.06496952      -2.13586683       0.00000008      -0.01397740       0.07004565       0.00000008
H       -1.39380612      -1.32887653       0.87975298       0.00816715      -0.00870005       0.00533631
H       -1.39380620      -1.32887685      -0.87975286       0.00816720      -0.00869972      -0.00533637
12
Lattice="20.0 0.0 0.0 0.0 20.0 0.0 0.0 0.0 20.0" Properties=species:S:1:pos:R:3:REF_forces:R:3 REF_energy=-8332.333786213116 pbc="F F F"
C        0.00475169       0.02928901      -0.03435673       0.20472859      -0.06541222       0.02316565
O        1.28414818      -0.12777159       0.00539241      -0.11426659       0.15264362      -0.01161038
O        2.12046044       0.94586659      -0.03343992      -0.12091586      -0.11759798       0.01717744
C       -0.68910120       1.28848411      -0.11616600       0.03162495       0.26087778       0.07150205
C       -0.14593546       2.52636191       0.10243796       0.01845352      -0.26004670      -0.05191909
C       -0.74614992      -1.26962700       0.05749305      -0.01553393      -0.02116386      -0.01747317
H       -1.77306019       1.18612461      -0.31075604       0.16630847       0.03677645       0.03980140
H        0.92470893       2.66386108       0.32473990      -0.20832120      -0.06265558      -0.05644741
H       -0.80060280       3.39484027       0.07037336       0.00876302      -0.00588491      -0.00069701
H       -0.04815587      -2.10926621       0.18066034      -0.03762752       0.06329552      -0.01355229
H       -1.43516023      -1.25049953       0.91730930       0.03700271       0.00140113      -0.05025049
H       -1.34990357      -1.43966326      -0.84924212       0.03088649       0.01773126       0.05011338
12
Lattice="20.0 0.0 0.0 0.0 20.0 0.0 0.0 0.0 20.0" Properties=species:S:1:pos:R:3:REF_forces:R:3 REF_energy=-8332.398065231744 pbc="F F F"
C        0.00744210       0.02816687      -0.00000003       0.18119783      -0.02796847      -0.00000006
O        1.28512533      -0.12076822       0.00000005      -0.11928887       0.02104888      -0.00000025
O        2.11643867       0.94008908       0.00000001      -0.06308563      -0.02171298       0.00000012
C       -0.68999911       1.28927531      -0.00000025       0.01895289       0.07755522       0.00000242
C       -0.14475979       2.52760342       0.00000023      -0.19742724      -0.08012002      -0.00000310
C       -0.74212053      -1.27339909       0.00000002      -0.05433893       0.04789346       0.00000017
H       -1.77473560       1.18640403       0.00000089       0.01336930       0.00092558      -0.00000110
H        0.91349527       2.66072063      -0.00000035       0.14596884       0.01655530       0.00000034
H       -0.79913227       3.40333173      -0.00000134       0.02852411      -0.05797009       0.00000158
H       -0.06785064      -2.13241292       0.00000008       0.01517297       0.03367499       0.00000008
H       -1.39450433      -1.32900253       0.88081059       0.01563365      -0.00752254      -0.00585137
H       -1.39450441      -1.32900285      -0.88081046       0.01563369      -0.00752221       0.00585131
12
Lattice="20.0 0.0 0.0 0.0 20.0 0.0 0.0 0.0 20.0" Properties=species:S:1:pos:R:3:REF_forces:R:3 REF_energy=-8332.072598501723 pbc="F F F"
C       -0.03496625       0.04422318       0.00000000       1.26079951      -0.51947682       0.00000000
O        1.30186903      -0.13214246      -0.00000000      -0.65299757       0.30356217      -0.00000000
O        2.12123355       0.94654591       0.00000000      -0.15417525      -0.14617299      -0.00000000
C       -0.68132622       1.27704706      -0.00000000      -0.24494084       0.47164337      -0.00000000
C       -0.14725292       2.53030085       0.00000000       0.02001117      -0.19637091      -0.00000000
C       -0.74842885      -1.26656335       0.00000000       0.03654806      -0.10423572      -0.00000000
H       -1.76557461       1.17740529      -0.00000000      -0.01384665       0.02179921       0.00000000
H        0.92536151       2.65579145      -0.00000000       0.00434988       0.01476934       0.00000000
H       -0.79685859       3.40207546      -0.00000000      -0.01031851      -0.02579531       0.00000000
H       -0.12228078      -2.16792114      -0.00000000       0.16839943       0.15977390       0.00000000
H       -1.29643737      -1.34423839       0.95252990      -0.20698967       0.01001524      -0.18670342
H       -1.29643737      -1.34423839      -0.95252990      -0.20698967       0.01001524       0.18670342
12
Lattice="20.0 0.0 0.0 0.0 20.0 0.0 0.0 0.0 20.0" Properties=species:S:1:pos:R:3:REF_forces:R:3 REF_energy=-8332.052971176116 pbc="F F F"
C        0.00475169       0.02928901      -0.00145111       0.19813740      -0.04763943       0.02120753
O        1.28414818      -0.12777159      -0.00016023      -0.08277111       0.15479546       0.00033441
O        2.12046044       0.94586659       0.00044638      -0.13544502      -0.13868273      -0.00658255
C       -0.68910120       1.28848411       0.01837764       0.00434300       0.05567871      -0.23122813
C       -0.14593546       2.52636191      -0.05756562       0.14577444       0.23609823       0.87311066
C       -0.74614992      -1.26962700       0.00068505      -0.00505187       0.00494558      -0.00848378
H       -1.77306019       1.18612461      -0.00213139       0.00218730      -0.00737111       0.00615131
H        0.92470893       2.66386108       0.24195691      -0.26356780      -0.06660057      -0.33613042
H       -0.80060280       3.39484027       0.23553261       0.11350918      -0.21916657      -0.32191107
H       -0.04815587      -2.10926621      -0.00160834      -0.00193146       0.00765796       0.00141517
H       -1.39449902      -1.34886996       0.88218364       0.01463239       0.01438256      -0.00594896
H       -1.39056478      -1.34129282      -0.88436778       0.01062660       0.00629630       0.00807379
12
Lattice="20.0 0.0 0.0 0.0 20.0 0.0 0.0 0.0 20.0" Properties=species:S:1:pos:R:3:REF_forces:R:3 REF_energy=-8332.370528539188 pbc="F F F"
C        0.00476197       0.02927816      -0.00000000       0.00000000       0.00000000       0.00000000
O        1.28411679      -0.12777510       0.00000000       0.00000000       0.00000000       0.00000000
O        2.12046633       0.94587308       0.00000002       0.00000000       0.00000000       0.00000000
C       -0.68915045       1.28845034      -0.00000002       0.00000000       0.00000000       0.00000000
C       -0.14593285       2.52637924      -0.00000000       0.00000000       0.00000000       0.00000000
C       -0.74447548      -1.26848664       0.00000001       0.00000000       0.00000000       0.00000000
H       -1.77237367       1.18622175      -0.00000011       0.00000000       0.00000000       0.00000000
H        0.92471768       2.66383101       0.00000005       0.00000000       0.00000000       0.00000000
H       -0.80062076       3.39488203      -0.00000001       0.00000000       0.00000000       0.00000000
H       -0.03913379      -2.11972519      -0.00000002       0.00000000       0.00000000       0.00000000
H       -1.40693923      -1.34656179       0.90378142       0.00000000       0.00000000       0.00000000
H       -1.40693927      -1.34656193      -0.90378140       0.00000000       0.00000000       0.00000000
12
Lattice="20.0 0.0 0.0 0.0 20.0 0.0 0.0 0.0 20.0" Properties=species:S:1:pos:R:3:REF_forces:R:3 REF_energy=-8332.080279637321 pbc="F F F"
C        0.02720179       0.02523799       0.00000000       0.07772583      -0.10248800      -0.00000000
O        1.32559695      -0.17683004      -0.00000000      -0.55302853       0.64985574      -0.00000000
O        2.11776578       0.96692990       0.00000000      -0.06742866      -0.33300814       0.00000000
C       -0.74322421       1.32901536       0.00000000       0.38822542      -0.13959290       0.00000000
C       -0.15872246       2.56360972      -0.00000000       0.13914825      -0.28615593      -0.00000000
C       -0.75529459      -1.29902597       0.00000000       0.06261266       0.22375012       0.00000000
H       -1.82560654       1.18818613       0.00000000       0.04553272      -0.00393320       0.00000000
H        0.93905832       2.51226784       0.00000000      -0.13460704       0.11307376       0.00000000
H       -0.66994440       3.54020782      -0.00000000      -0.02730770      -0.21043572       0.00000000
H       -0.08795787      -2.16486983      -0.00000000       0.02382292       0.05063531      -0.00000000
H       -1.40704666      -1.35713560       0.88139892       0.02268027       0.01911488      -0.00596250
H       -1.40704666      -1.35713560      -0.88139892       0.02268027       0.01911488       0.00596250
12
Lattice="20.0 0.0 0.0 0.0 20.0 0.0 0.0 0.0 20.0" Properties=species:S:1:pos:R:3:REF_forces:R:3 REF_energy=-8332.090798990333 pbc="F F F"
C        0.00456170       0.02912264      -0.00000000       0.23332643      -0.01927710       0.00000000
O        1.28424424      -0.12776826       0.00000000      -0.11926905       0.13745875      -0.00000000
O        2.12044979       0.94585793      -0.00000000      -0.12369857      -0.11664354      -0.00000000
C       -0.69610774       1.28802618      -0.00000000       1.17366528       0.16560323      -0.00000000
C       -0.14478808       2.52258270      -0.00000000      -0.13215778       0.32183848      -0.00000000
C       -0.75087453      -1.26595459      -0.00000000       0.52979559      -0.36513141      -0.00000000
H       -1.68931332       1.19337452       0.00000000      -1.15138726      -0.10176474       0.00000000
H        0.94301975       2.66584312      -0.00000000      -0.17514798      -0.02644703       0.00000000
H       -0.83290171       3.43732409       0.00000000       0.28731475      -0.38865836       0.00000000
H       -0.00950769      -2.15557672      -0.00000000      -0.33883927       0.41124959       0.00000000
H       -1.38322114      -1.34338571       0.86914645      -0.09129602      -0.00923542       0.15077947
H       -1.38322114      -1.34338571      -0.86914645      -0.09129602      -0.00923542      -0.15077947
12
Lattice="20.0 0.0 0.0 0.0 20.0 0.0 0.0 0.0 20.0" Properties=species:S:1:pos:R:3:REF_forces:R:3 REF_energy=-8332.395790246774 pbc="F F F"
C        0.00745009       0.02814764      -0.00000003       0.18026825      -0.02589824      -0.00000005
O        1.28513966      -0.12076463       0.00000005      -0.12157188       0.02053517      -0.00000026
O        2.11641514       0.94009454       0.00000001      -0.05901899      -0.02250086       0.00000012
C       -0.69073859       1.28925852      -0.00000025       0.11408116       0.07892457       0.00000234
C       -0.14586118       2.52739106       0.00000023      -0.03893204      -0.05465998      -0.00000317
C       -0.74105618      -1.27425858       0.00000002      -0.18981856       0.16415728       0.00000016
H       -1.76577381       1.18725657       0.00000089      -0.08369193      -0.00834081      -0.00000102
H        0.92672124       2.66261913      -0.00000035      -0.01037178      -0.00553149       0.00000041
H       -0.79916174       3.40348098      -0.00000134       0.02554184      -0.05547918       0.00000157
H       -0.07683612      -2.12159843       0.00000008       0.11127567      -0.08712292       0.00000009
H       -1.39643879      -1.32933084       0.88376717       0.03609763      -0.00451112      -0.03668790
H       -1.39643886      -1.32933116      -0.88376705       0.03609767      -0.00451078       0.03668784
12
Lattice="20.0 0.0 0.0 0.0 20.0 0.0 0.0 0.0 20.0" Properties=species:S:1:pos:R:3:REF_forces:R:3 REF_energy=-8332.376044107355 pbc="F F F"
C        0.00738282       0.02810971      -0.00000003       0.18724646      -0.01919631      -0.00000007
O        1.28515936      -0.12076803       0.00000005      -0.12510272       0.02066551      -0.00000026
O        2.11641739       0.94009453       0.00000001      -0.05910301      -0.02246110       0.00000012
C       -0.69213049       1.28917062      -0.00000025       0.30908681       0.09172643       0.00000218
C       -0.14562803       2.52660361       0.00000023      -0.06515467       0.03790755      -0.00000330
C       -0.74353026      -1.27230449       0.00000002       0.11513440      -0.08491065       0.00000018
H       -1.74910301       1.18866305       0.00000089      -0.27844035      -0.02481475      -0.00000085
H        0.93052971       2.66303896      -0.00000035      -0.04939890      -0.00982058       0.00000042
H       -0.80583538       3.41226293      -0.00000134       0.09080563      -0.14230852       0.00000170
H       -0.05632753      -2.14622218       0.00000008      -0.09660331       0.17302257       0.00000007
H       -1.39172417      -1.32849737       0.87659359      -0.01442747      -0.01244951       0.03933820
H       -1.39172425      -1.32849768      -0.87659346      -0.01442743      -0.01244919      -0.03933825
12
Lattice="20.0 0.0 0.0 0.0 20.0 0.0 0.0 0.0 20.0" Properties=species:S:1:pos:R:3:REF_forces:R:3 REF_energy=-8332.39563105356 pbc="F F F"
C        0.00746779       0.02818411      -0.00000003       0.17866727      -0.03083859      -0.00000004
O        1.28511640      -0.12076952       0.00000005      -0.11798896       0.02136639      -0.00000026
O        2.11642215       0.94009840       0.00000001      -0.06034319      -0.02316863       0.00000012
C       -0.68899707       1.28937542      -0.00000025      -0.10186263       0.06535924       0.00000252
C       -0.14614116       2.52829372       0.00000023      -0.00283487      -0.16891185      -0.00000299
C       -0.74141735      -1.27394684       0.00000002      -0.14306044       0.12095923       0.00000016
H       -1.78655575       1.18542079       0.00000089       0.13196607       0.01056508      -0.00000121
H        0.92234086       2.66215257      -0.00000035       0.03542267      -0.00073656       0.00000041
H       -0.79139087       3.39326359      -0.00000134      -0.05647580       0.05314063       0.00000141
H       -0.07361152      -2.12551149       0.00000008       0.07586338      -0.04232013       0.00000009
H       -1.39588807      -1.32925570       0.88291238       0.03026981      -0.00510922      -0.02781890
H       -1.39588815      -1.32925602      -0.88291226       0.03026985      -0.00510888       0.02781884
12
Lattice="20.0 0.0 0.0 0.0 20.0 0.0 0.0 0.0 20.0" Properties=species:S:1:pos:R:3:REF_forces:R:3 REF_energy=-8331.804841410913 pbc="F F F"
C       -0.00690395       0.02767966      -0.00000000       0.55697019       0.07864915      -0.00000000
O        1.28591372      -0.12923809       0.00000000      -0.16130548       0.18721187       0.00000000
O        2.12264302       0.94766021       0.00000000      -0.19558396      -0.17405427      -0.00000000
C       -0.68388297       1.27861784       0.00000000      -0.13343625       0.34587343      -0.00000000
C       -0.15145490       2.52543995      -0.00000000       0.11344426      -0.04816155       0.00000000
C       -0.71860631      -1.23109161       0.00000000      -0.85695683      -1.27474327       0.00000000
H       -1.77084642       1.21847427       0.00000000       0.00607322      -0.06981528      -0.00000000
H        0.91559283       2.68611014       0.00000000       0.02628645      -0.05564894       0.00000000
H       -0.75908797       3.42992735       0.00000000      -0.08613204      -0.09127387       0.00000000
H       -0.19082550      -2.21349760       0.00000000       0.26994034       0.33911264      -0.00000000
H       -1.46270641      -1.49613878       0.80161357       0.23044339       0.38174661       0.10843477
H       -1.46270641      -1.49613878      -0.80161357       0.23044340       0.38174661      -0.10843477
12
Lattice="20.0 0.0 0.0 0.0 20.0 0.0 0.0 0.0 20.0" Properties=species:S:1:pos:R:3:REF_forces:R:3 REF_energy=-8332.390967423418 pbc="F F F"
C        0.00744386       0.02817191      -0.00000003       0.18091599      -0.02870274      -0.00000006
O        1.28512173      -0.12076768       0.00000005      -0.11858188       0.02102327      -0.00000025
O        2.11645073       0.94008373       0.00000001      -0.06523710      -0.02086591       0.00000012
C       -0.68997083       1.28925408      -0.00000025       0.01542120       0.08066306       0.00000243
C       -0.14395291       2.52751879       0.00000023      -0.31742009      -0.07079731      -0.00000310
C       -0.74211979      -1.27339889       0.00000002      -0.05442106       0.04787477       0.00000017
H       -1.77517833       1.18633902       0.00000089       0.01840820       0.00169344      -0.00000111
H        0.90577847       2.65956903      -0.00000035       0.24460392       0.03090237       0.00000030
H       -0.80108332       3.40582176      -0.00000134       0.05030594      -0.08564799       0.00000162
H       -0.06785094      -2.13241150       0.00000008       0.01519482       0.03367812       0.00000008
H       -1.39450715      -1.32900226       0.88081357       0.01566397      -0.00754670      -0.00588016
H       -1.39450723      -1.32900258      -0.88081345       0.01566401      -0.00754637       0.00588010
12
Lattice="20.0 0.0 0.0 0.0 20.0 0.0 0.0 0.0 20.0" Properties=species:S:1:pos:R:3:REF_forces:R:3 REF_energy=-8332.37520753128 pbc="F F F"
C        0.01082752       0.03478653       0.00000001       0.00000000       0.00000000       0.00000000
O        1.28080566      -0.12874580      -0.00000001       0.00000000       0.00000000       0.00000000
O        2.12044965       0.94639697      -0.00000002       0.00000000       0.00000000       0.00000000
C       -0.68742168       1.28337928       0.00000002       0.00000000       0.00000000       0.00000000
C       -0.15038408       2.52116910       0.00000003       0.00000000       0.00000000       0.00000000
C       -0.74847332      -1.27201607       0.00000013       0.00000000       0.00000000       0.00000000
H       -1.77416201       1.21860735       0.00000027       0.00000000       0.00000000       0.00000000
H        0.91463638       2.69451270      -0.00000019       0.00000000       0.00000000       0.00000000
H       -0.76278409       3.42218722      -0.00000007       0.00000000       0.00000000       0.00000000
H       -0.04769796      -2.10966899      -0.00000140       0.00000000       0.00000000       0.00000000
H       -1.38532869      -1.34376310       0.89006478       0.00000000       0.00000000       0.00000000
H       -1.38532801      -1.34376409      -0.89006502       0.00000000       0.00000000       0.00000000
12
Lattice="20.0 0.0 0.0 0.0 20.0 0.0 0.0 0.0 20.0" Properties=species:S:1:pos:R:3:REF_forces:R:3 REF_energy=-8332.401818923398 pbc="F F F"
C        0.00744655       0.02816551      -0.00000003       0.18089043      -0.02785034      -0.00000005
O        1.28512714      -0.12076915       0.00000005      -0.11976586       0.02116167      -0.00000026
O        2.11642096       0.94009743       0.00000001      -0.06001638      -0.02300032       0.00000012
C       -0.68978042       1.28932422      -0.00000025      -0.00816541       0.07098047       0.00000244
C       -0.14601288       2.52787119       0.00000023      -0.02006700      -0.11430866      -0.00000308
C       -0.74194558      -1.27353625       0.00000002      -0.07615137       0.06575014       0.00000016
H       -1.77719256       1.18623136       0.00000089       0.03827066       0.00255887      -0.00000113
H        0.92438807       2.66237416      -0.00000035       0.01387504      -0.00302293       0.00000041
H       -0.79500199       3.39801342      -0.00000134      -0.01755205       0.00153212       0.00000149
H       -0.06929052      -2.13068916       0.00000008       0.03000604       0.01508354       0.00000008
H       -1.39484710      -1.32906611       0.88133268       0.01927904      -0.00688485      -0.01134580
H       -1.39484717      -1.32906643      -0.88133256       0.01927908      -0.00688451       0.01134575
12
Lattice="20.0 0.0 0.0 0.0 20.0 0.0 0.0 0.0 20.0" Properties=species:S:1:pos:R:3:REF_forces:R:3 REF_energy=-8331.865899009379 pbc="F F F"
C        0.00869451       0.03438944       0.03444382       0.58116810      -0.37797001      -0.18590049
O        1.31125917      -0.12094811       0.00660394      -0.37917998       0.28478013       0.02881960
O        2.15035340       0.98071236      -0.00055791      -0.24626369      -0.26587473      -0.00121074
C       -0.69517786       1.27898893      -0.00022476      -0.56269365      -0.57714825       0.30511539
C       -0.15809278       2.48282813      -0.04740129      -0.19975585       0.76351324      -0.19117547
C       -0.78362858      -1.28875803       0.01836261      -0.10326175       0.53974322      -0.38221007
H       -1.81496825       1.06110945       0.17284359       0.46004352       0.26871183      -0.16687696
H        0.89608371       2.67885155      -0.15470400       0.03628425      -0.08792258       0.02437136
H       -0.84376435       3.37092751      -0.11544667       0.18139888      -0.24192266       0.08674149
H       -0.06346683      -2.14036531      -0.01097322      -0.27634014       0.11922609       0.10045923
H       -1.47009725      -1.14330354       0.88561809       0.12472054      -0.31184390      -0.09013992
H       -1.47389219      -1.24399500      -0.93500879       0.38309582      -0.11361785       0.47186491
12
Lattice="20.0 0.0 0.0 0.0 20.0 0.0 0.0 0.0 20.0" Properties=species:S:1:pos:R:3:REF_forces:R:3 REF_energy=-8332.367107719656 pbc="F F F"
C        0.00472456       0.02936077      -0.00000000       0.21872388      -0.05061443      -0.00000000
O        1.28415743      -0.12777046      -0.00000000      -0.10579427       0.13723151      -0.00000000
O        2.12044112       0.94587008       0.00000000      -0.12264262      -0.11858277       0.00000000
C       -0.68715668       1.28887779       0.00000000      -0.22047252       0.03081247       0.00000000
C       -0.14569417       2.52387088      -0.00000000      -0.04289587       0.21366636      -0.00000000
C       -0.74608225      -1.26965984      -0.00000000      -0.01369348       0.01098922       0.00000000
H       -1.79439217       1.18420660      -0.00000000       0.21696687       0.01895671       0.00000000
H        0.93894556       2.66558510      -0.00000000      -0.13815936      -0.02345693      -0.00000000
H       -0.81905441       3.41929237      -0.00000000       0.17707150      -0.24583011      -0.00000000
H       -0.04851231      -2.10892034       0.00000000       0.00228280       0.00442905      -0.00000000
H       -1.39276531      -1.34515547       0.88362161       0.01475969       0.01120878      -0.01046229
H       -1.39276531      -1.34515547      -0.88362161       0.01475969       0.01120878       0.01046229
12
Lattice="20.0 0.0 0.0 0.0 20.0 0.0 0.0 0.0 20.0" Properties=species:S:1:pos:R:3:REF_forces:R:3 REF_energy=-8332.392118170592 pbc="F F F"
C        0.00740407       0.02812831      -0.00000003       0.18518426      -0.02202998      -0.00000006
O        1.28514862      -0.12076840       0.00000005      -0.12332205       0.02081186      -0.00000026
O        2.11641858       0.94009549       0.00000001      -0.05939119      -0.02264874       0.00000012
C       -0.69134713       1.28922182      -0.00000025       0.19697035       0.08412982       0.00000227
C       -0.14575632       2.52702614       0.00000023      -0.05117475      -0.01096544      -0.00000323
C       -0.74300203      -1.27271508       0.00000002       0.05286786      -0.03708444       0.00000017
H       -1.75846619       1.18785249       0.00000089      -0.16660752      -0.01509743      -0.00000095
H        0.92848249       2.66281736      -0.00000035      -0.02853453      -0.00756363       0.00000042
H       -0.80222425       3.40751310      -0.00000134       0.05604203      -0.09613198       0.00000163
H       -0.06064852      -2.14104451       0.00000008      -0.05615775       0.12266119       0.00000007
H       -1.39276515      -1.32868695       0.87817329      -0.00306782      -0.01055493       0.02223016
H       -1.39276522      -1.32868727      -0.87817316      -0.00306779      -0.01055461      -0.02223022
12
Lattice="20.0 0.0 0.0 0.0 20.0 0.0 0.0 0.0 20.0" Properties=species:S:1:pos:R:3:REF_forces:R:3 REF_energy=-8332.261166480492 pbc="F F F"
C        0.00466024       0.02375336       0.00000000       0.21980424       0.08574880       0.00000000
O        1.28155930      -0.12738396      -0.00000000      -0.02645090       0.12392333       0.00000000
O        2.12168830       0.94646809      -0.00000000      -0.16316921      -0.13487202       0.00000000
C       -0.70643391       1.27788313      -0.00000000       0.33663870       0.27324677      -0.00000000
C       -0.13020919       2.53691408       0.00000000      -0.32573939      -0.26872766      -0.00000000
C       -0.74645305      -1.26636847      -0.00000000       0.00193785      -0.06966831      -0.00000000
H       -1.78160594       1.06112404      -0.00000000       0.04815001       0.23640926      -0.00000000
H        0.92934715       2.76542258      -0.00000000      -0.01685414      -0.19621814      -0.00000000
H       -0.76083407       3.42737720      -0.00000000      -0.07804073      -0.07335423      -0.00000000
H       -0.04703407      -2.10472297       0.00000000      -0.00390063      -0.00026278       0.00000000
H       -1.38829932      -1.34589376       0.88619758       0.00461115       0.01171099      -0.01226694
H       -1.38829932      -1.34589376      -0.88619758       0.00461115       0.01171099       0.01226694
12
Lattice="20.0 0.0 0.0 0.0 20.0 0.0 0.0 0.0 20.0" Properties=species:S:1:pos:R:3:REF_forces:R:3 REF_energy=-8332.395588231493 pbc="F F F"
C        0.00745160       0.02812722      -0.00000003       0.18005342      -0.02296069      -0.00000005
O        1.28512658      -0.12076953       0.00000005      -0.11967123       0.02129175      -0.00000026
O        2.11642921       0.94009555       0.00000001      -0.06136892      -0.02272974       0.00000012
C       -0.69091116       1.28913109      -0.00000025       0.13781601       0.09661085       0.00000235
C       -0.14607803       2.52884438       0.00000023      -0.00998429      -0.24343776      -0.00000292
C       -0.74215191      -1.27338471       0.00000002      -0.05042680       0.04595084       0.00000017
H       -1.76453155       1.18735931       0.00000089      -0.09863835      -0.00972670      -0.00000102
H        0.91870366       2.66167703      -0.00000035       0.07535247       0.00426757       0.00000038
H       -0.78795389       3.38866139      -0.00000134      -0.09560813       0.10609577       0.00000134
H       -0.06769078      -2.13256973       0.00000008       0.01347024       0.03534778       0.00000008
H       -1.39439572      -1.32896979       0.88065143       0.01448819      -0.00780349      -0.00419369
H       -1.39439580      -1.32897011      -0.88065130       0.01448824      -0.00780316       0.00419363
12
Lattice="20.0 0.0 0.0 0.0 20.0 0.0 0.0 0.0 20.0" Properties=species:S:1:pos:R:3:REF_forces:R:3 REF_energy=-8331.9688091191 pbc="F F F"
C        0.05796905       0.00413962       0.08064315       0.02831266      -0.18176998      -0.17409922
O        1.34175218      -0.09343264       0.02271141      -0.12911447       0.12829696       0.04833538
O        2.19639877       1.03486284      -0.00201828      -0.39141092      -0.33296401      -0.00854695
C       -0.72001869       1.20683535       0.03154462       0.07137649       0.51872199       0.30251677
C       -0.19035037       2.45493679      -0.16731241      -0.53695118      -0.11518879      -0.12457420
C       -0.84506661      -1.25095792       0.04486708       0.29445826      -0.00294639      -0.16352857
H       -1.78420620       1.09401435       0.36400385       0.25926280       0.03211045      -0.20533575
H        0.84505278       2.57962847      -0.41936763       0.09917433       0.00939135       0.02073039
H       -0.90457613       3.31530074      -0.24160219       0.22702052      -0.19458487       0.08390331
H       -0.32277312      -2.22993365       0.10679813      -0.02820467       0.19992157      -0.04131197
H       -1.53636248      -1.17765553       0.88000074      -0.05074651      -0.01080166       0.06058825
H       -1.45696126      -1.19232086      -0.89592931       0.15761201      -0.05042927       0.20171990
12
Lattice="20.0 0.0 0.0 0.0 20.0 0.0 0.0 0.0 20.0" Properties=species:S:1:pos:R:3:REF_forces:R:3 REF_energy=-8332.080219583251 pbc="F F F"
C        0.00475169       0.02928901       0.08255861       0.23398146      -0.01287007      -0.55348726
O        1.28414818      -0.12777159      -0.03546178      -0.13156339       0.13232138       0.31987697
O        2.12046044       0.94586659       0.01438622      -0.12291383      -0.11172189      -0.12125874
C       -0.68910120       1.28848411      -0.08095453      -0.10278648       0.02826779       0.53780586
C       -0.14593546       2.52636191       0.00667490      -0.04420025       0.08312203      -0.01819745
C       -0.74614992      -1.26962700       0.01410140      -0.06261433      -0.01908101      -0.08745639
H       -1.77306019       1.18612461       0.09224963       0.10829943       0.01519209      -0.06816225
H        0.92470893       2.66386108      -0.14945100      -0.09357659       0.00304933       0.09478637
H       -0.80060280       3.39484027       0.24896137       0.13673215      -0.17274795      -0.17712944
H       -0.04815587      -2.10926621      -0.04934713      -0.00578688       0.02365150       0.02766498
H       -1.44890060      -1.44591573       0.84598855       0.07491338       0.07448538      -0.03734595
H       -1.33616320      -1.24424706      -0.92056287       0.01000559      -0.04291088       0.08230289
12
Lattice="20.0 0.0 0.0 0.0 20.0 0.0 0.0 0.0 20.0" Properties=species:S:1:pos:R:3:REF_forces:R:3 REF_energy=-8332.398532866018 pbc="F F F"
C        0.00744857       0.02813524      -0.00000003       0.18045054      -0.02393637      -0.00000005
O        1.28512761      -0.12076940       0.00000005      -0.11984133       0.02124014      -0.00000026
O        2.11642705       0.94009594       0.00000001      -0.06100175      -0.02278544       0.00000012
C       -0.69069375       1.28917511      -0.00000025       0.10884826       0.09065003       0.00000237
C       -0.14605105       2.52856587       0.00000023      -0.01438236      -0.20573976      -0.00000297
C       -0.74214435      -1.27338838       0.00000002      -0.05137306       0.04644379       0.00000017
H       -1.76691654       1.18714487       0.00000089      -0.07193614      -0.00729527      -0.00000104
H        0.92029536       2.66186978      -0.00000035       0.05797066       0.00223954       0.00000039
H       -0.79001684       3.39139522      -0.00000134      -0.07219832       0.07480455       0.00000138
H       -0.06773063      -2.13253106       0.00000008       0.01388739       0.03492836       0.00000008
H       -1.39442182      -1.32897807       0.88069010       0.01476319      -0.00772436      -0.00459714
H       -1.39442189      -1.32897839      -0.88068998       0.01476324      -0.00772403       0.00459708
12
Lattice="20.0 0.0 0.0 0.0 20.0 0.0 0.0 0.0 20.0" Properties=species:S:1:pos:R:3:REF_forces:R:3 REF_energy=-8332.262924798342 pbc="F F F"
C        0.01133356       0.03747415      -0.00000000      -0.00022766      -0.34458261      -0.00000000
O        1.28135532      -0.12820289      -0.00000000       0.03149383       0.15863294       0.00000000
O        2.12021133       0.94541268       0.00000000      -0.11581241      -0.09603324      -0.00000000
C       -0.69609922       1.25769387       0.00000000       0.17144669       1.05365783       0.00000000
C       -0.13752044       2.55025952      -0.00000000      -0.26199451      -0.79093027      -0.00000000
C       -0.74738353      -1.27077296       0.00000000       0.03770662       0.04646063      -0.00000000
H       -1.78841904       1.22918640      -0.00000000       0.06337749      -0.12419418       0.00000000
H        0.94463049       2.63546839      -0.00000000      -0.05281672       0.07396012      -0.00000000
H       -0.83217322       3.39179631       0.00000000       0.09130387      -0.00215311      -0.00000000
H       -0.04438224      -2.10631449       0.00000000      -0.01210257      -0.00050903       0.00000000
H       -1.39708107      -1.34621752       0.88046368       0.02443489       0.01291111       0.00184061
H       -1.39708107      -1.34621752      -0.88046368       0.02443489       0.01291111      -0.00184061
12
Lattice="20.0 0.0 0.0 0.0 20.0 0.0 0.0 0.0 20.0" Properties=species:S:1:pos:R:3:REF_forces:R:3 REF_energy=-8332.372086413938 pbc="F F F"
C        0.00469505       0.02923940      -0.00000001       0.00000000       0.00000000       0.00000000
O        1.28417682      -0.12777059      -0.00000000       0.00000000       0.00000000       0.00000000
O        2.12045726       0.94586400      -0.00000000       0.00000000       0.00000000       0.00000000
C       -0.69119048       1.28834755       0.00000001       0.00000000       0.00000000       0.00000000
C       -0.14559334       2.52523499       0.00000000       0.00000000       0.00000000       0.00000000
C       -0.74755802      -1.26853253      -0.00000008       0.00000000       0.00000000       0.00000000
H       -1.74808772       1.18828648      -0.00000000       0.00000000       0.00000000       0.00000000
H        0.93016910       2.66445213      -0.00000001       0.00000000       0.00000000       0.00000000
H       -0.81023396       3.40750849      -0.00000003       0.00000000       0.00000000       0.00000000
H       -0.03663773      -2.12306789       0.00000000       0.00000000       0.00000000       0.00000000
H       -1.38975709      -1.34457600       0.87906484       0.00000000       0.00000000       0.00000000
H       -1.38975637      -1.34457592      -0.87906390       0.00000000       0.00000000       0.00000000
12
Lattice="20.0 0.0 0.0 0.0 20.0 0.0 0.0 0.0 20.0" Properties=species:S:1:pos:R:3:REF_forces:R:3 REF_energy=-8332.339986116971 pbc="F F F"
C        0.00423081       0.02472181      -0.00000086       0.00000000       0.00000000       0.00000000
O        1.26559067      -0.12904282      -0.00000007       0.00000000       0.00000000       0.00000000
O        2.12574291       0.95113093      -0.00000005       0.00000000       0.00000000       0.00000000
C       -0.67025879       1.28285670      -0.00000022       0.00000000       0.00000000       0.00000000
C       -0.15692687       2.53555664       0.00000030       0.00000000       0.00000000       0.00000000
C       -0.74094674      -1.26947366       0.00000121       0.00000000       0.00000000       0.00000000
H       -1.74959898       1.13014511       0.00000576       0.00000000       0.00000000       0.00000000
H        0.92493395       2.59832088       0.00000065       0.00000000       0.00000000       0.00000000
H       -0.76577904       3.43772263      -0.00000253       0.00000000       0.00000000       0.00000000
H       -0.05078210      -2.11483334      -0.00000370       0.00000000       0.00000000       0.00000000
H       -1.38979555      -1.32963134       0.88246481       0.00000000       0.00000000       0.00000000
H       -1.38978915      -1.32962176      -0.88246821       0.00000000       0.00000000       0.00000000
12
Lattice="20.0 0.0 0.0 0.0 20.0 0.0 0.0 0.0 20.0" Properties=species:S:1:pos:R:3:REF_forces:R:3 REF_energy=-8332.299958889236 pbc="F F F"
C        0.01699299       0.06808899      -0.00000024       0.00000000       0.00000000       0.00000000
O        1.27622941      -0.13585441      -0.00000008       0.00000000       0.00000000       0.00000000
O        2.11986276       0.94843659      -0.00000010       0.00000000       0.00000000       0.00000000
C       -0.68716471       1.29330537       0.00000022       0.00000000       0.00000000       0.00000000
C       -0.14175972       2.51804403       0.00000021       0.00000000       0.00000000       0.00000000
C       -0.74727424      -1.28402790       0.00000031       0.00000000       0.00000000       0.00000000
H       -1.76377633       1.12787011       0.00000177       0.00000000       0.00000000       0.00000000
H        0.92793649       2.66014879      -0.00000081       0.00000000       0.00000000       0.00000000
H       -0.83164868       3.35863553      -0.00000084       0.00000000       0.00000000       0.00000000
H       -0.07893256      -2.14862045      -0.00000200       0.00000000       0.00000000       0.00000000
H       -1.40294155      -1.35710832       0.87723621       0.00000000       0.00000000       0.00000000
H       -1.40293960      -1.35710551      -0.87723738       0.00000000       0.00000000       0.00000000
12
Lattice="20.0 0.0 0.0 0.0 20.0 0.0 0.0 0.0 20.0" Properties=species:S:1:pos:R:3:REF_forces:R:3 REF_energy=-8332.381431959224 pbc="F F F"
C        0.00746070       0.02810315      -0.00000003       0.17883577      -0.02003847      -0.00000004
O        1.28512347      -0.12076991       0.00000005      -0.11916174       0.02145887      -0.00000026
O        2.11643569       0.94009437       0.00000001      -0.06248026      -0.02255243       0.00000012
C       -0.69156337       1.28899905      -0.00000025       0.22720165       0.11472273       0.00000230
C       -0.14615896       2.52967990       0.00000023       0.00534722      -0.36060812      -0.00000277
C       -0.74217461      -1.27337369       0.00000002      -0.04758848       0.04447419       0.00000017
H       -1.75737659       1.18800263       0.00000089      -0.18121500      -0.01725538      -0.00000095
H        0.91392854       2.66109878      -0.00000035       0.12843563       0.01041652       0.00000036
H       -0.78176503       3.38045990      -0.00000134      -0.16890648       0.20396423       0.00000119
H       -0.06757123      -2.13268574       0.00000008       0.01222129       0.03660458       0.00000008
H       -1.39431743      -1.32894495       0.88053541       0.01366257      -0.00803954      -0.00298278
H       -1.39431751      -1.32894527      -0.88053528       0.01366261      -0.00803921       0.00298272
12
Lattice="20.0 0.0 0.0 0.0 20.0 0.0 0.0 0.0 20.0" Properties=species:S:1:pos:R:3:REF_forces:R:3 REF_energy=-8332.378103090576 pbc="F F F"
C        0.00742917       0.02817015      -0.00000003       0.18202369      -0.03102503      -0.00000006
O        1.28516210      -0.12076553       0.00000005      -0.12441216       0.02076569      -0.00000026
O        2.11641469       0.94009062       0.00000001      -0.05907862      -0.02200617       0.00000012
C       -0.68999236       1.28934092      -0.00000025       0.01838738       0.06953927       0.00000242
C       -0.14597273       2.52771305       0.00000023      -0.02528082      -0.09480325      -0.00000310
C       -0.74379610      -1.27453975       0.00000002       0.16305165       0.18281629       0.00000016
H       -1.77475716       1.18640454       0.00000089       0.01261462       0.00079667      -0.00000111
H        0.92506159       2.66247805      -0.00000035       0.00682355      -0.00406429       0.00000041
H       -0.79618761       3.39955477      -0.00000134      -0.00510269      -0.01488435       0.00000151
H       -0.07687228      -2.12195609       0.00000008       0.10316350      -0.07337223       0.00000009
H       -1.38009277      -1.32752245       0.86030035      -0.13620945      -0.01942924       0.20792366
H       -1.38009285      -1.32752277      -0.86030023      -0.13620944      -0.01942897      -0.20792372
12
Lattice="20.0 0.0 0.0 0.0 20.0 0.0 0.0 0.0 20.0" Properties=species:S:1:pos:R:3:REF_forces:R:3 REF_energy=-8332.319764908996 pbc="F F F"
C        0.02745405       0.01702262       0.00000001       0.00000000       0.00000000       0.00000000
O        1.27153484      -0.12496762       0.00000004       0.00000000       0.00000000       0.00000000
O        2.12042290       0.94560402      -0.00000006       0.00000000       0.00000000       0.00000000
C       -0.69510412       1.29652333       0.00000004       0.00000000       0.00000000       0.00000000
C       -0.14311635       2.52762416       0.00000006       0.00000000       0.00000000       0.00000000
C       -0.75222462      -1.26062561       0.00000069       0.00000000       0.00000000       0.00000000
H       -1.77872414       1.18996966      -0.00000006       0.00000000       0.00000000       0.00000000
H        0.92975114       2.65113097      -0.00000048       0.00000000       0.00000000       0.00000000
H       -0.82287760       3.37732744      -0.00000006       0.00000000       0.00000000       0.00000000
H       -0.08349608      -2.12723040      -0.00000748       0.00000000       0.00000000       0.00000000
H       -1.34311297      -1.37903276       0.91852565       0.00000000       0.00000000       0.00000000
H       -1.34310915      -1.37904050      -0.91852674       0.00000000       0.00000000       0.00000000
12
Lattice="20.0 0.0 0.0 0.0 20.0 0.0 0.0 0.0 20.0" Properties=species:S:1:pos:R:3:REF_forces:R:3 REF_energy=-8332.339355071492 pbc="F F F"
C        0.03685148       0.03873659      -0.00000253       0.00000000       0.00000000       0.00000000
O        1.31166036      -0.14578827      -0.00000233       0.00000000       0.00000000       0.00000000
O        2.18495935       0.90142699       0.00000267       0.00000000       0.00000000       0.00000000
C       -0.69698484       1.28033937      -0.00000035       0.00000000       0.00000000       0.00000000
C       -0.23961068       2.55029648      -0.00000125       0.00000000       0.00000000       0.00000000
C       -0.76760045      -1.22645585       0.00000263       0.00000000       0.00000000       0.00000000
H       -1.77545582       1.11612993       0.00000319       0.00000000       0.00000000       0.00000000
H        0.82497645       2.75959113      -0.00000544       0.00000000       0.00000000       0.00000000
H       -0.94729185       3.37816302       0.00000142       0.00000000       0.00000000       0.00000000
H       -0.12088162      -2.10819314       0.00000606       0.00000000       0.00000000       0.00000000
H       -1.42034753      -1.26205108       0.88235055       0.00000000       0.00000000       0.00000000
H       -1.42034894      -1.26205907      -0.88234343       0.00000000       0.00000000       0.00000000
12
Lattice="20.0 0.0 0.0 0.0 20.0 0.0 0.0 0.0 20.0" Properties=species:S:1:pos:R:3:REF_forces:R:3 REF_energy=-8332.366100726242 pbc="F F F"
C        0.00436305       0.02588434      -0.00000000       0.21338917       0.00501810       0.00000000
O        1.27031588      -0.12871998       0.00000000       0.18314330       0.14688151       0.00000000
O        2.12439824       0.94979098       0.00000000      -0.20019708      -0.18882137       0.00000000
C       -0.67505724       1.28428972       0.00000000      -0.21072803       0.14916973      -0.00000000
C       -0.15412755       2.53321541      -0.00000000       0.10598186      -0.18122837      -0.00000000
C       -0.74227158      -1.26951233       0.00000000      -0.06489627       0.00529732      -0.00000000
H       -1.75557370       1.14439983       0.00000000      -0.01352092       0.05531773       0.00000000
H        0.92487694       2.61501264       0.00000000      -0.00348233       0.05797112       0.00000000
H       -0.77464765       3.42680223       0.00000000      -0.02923652      -0.05388317       0.00000000
H       -0.05011299      -2.11341527      -0.00000000       0.00100699       0.01358690       0.00000000
H       -1.39048953      -1.33356116       0.88267291       0.00970997      -0.00448093      -0.00641011
H       -1.39048953      -1.33356116      -0.88267291       0.00970997      -0.00448093       0.00641011
12
Lattice="20.0 0.0 0.0 0.0 20.0 0.0 0.0 0.0 20.0" Properties=species:S:1:pos:R:3:REF_forces:R:3 REF_energy=-8332.3499402568 pbc="F F F"
C       -0.00793884       0.03614644      -0.00000000       0.54865201      -0.23875490      -0.00000000
O        1.29119895      -0.12933904       0.00000000      -0.34285758       0.19575681       0.00000000
O        2.12048142       0.94601339       0.00000000      -0.12736802      -0.12343558       0.00000000
C       -0.68574534       1.28398995       0.00000000      -0.08512281       0.21446350      -0.00000000
C       -0.14751173       2.52565566      -0.00000000       0.01853190      -0.06175763       0.00000000
C       -0.74275429      -1.27465917       0.00000000      -0.10499405       0.14473770       0.00000000
H       -1.76989377       1.18397594       0.00000000      -0.00161163       0.00507845      -0.00000000
H        0.92188932       2.67098040       0.00000000       0.01275570      -0.02171084      -0.00000000
H       -0.78814760       3.40463225       0.00000000      -0.02865959      -0.03203965      -0.00000000
H       -0.02839947      -2.09922359       0.00000000      -0.04593691      -0.01488702      -0.00000000
H       -1.42015834      -1.32609919       0.86357083       0.07829502      -0.03314205       0.03589767
H       -1.42015834      -1.32609919      -0.86357083       0.07829502      -0.03314205      -0.03589767
12
Lattice="20.0 0.0 0.0 0.0 20.0 0.0 0.0 0.0 20.0" Properties=species:S:1:pos:R:3:REF_forces:R:3 REF_energy=-8332.400567583845 pbc="F F F"
C        0.00745363       0.02817171      -0.00000003       0.18015467      -0.02884070      -0.00000005
O        1.28512356      -0.12076927       0.00000005      -0.11917348       0.02122763      -0.00000026
O        2.11642136       0.94009775       0.00000001      -0.06012475      -0.02305682       0.00000012
C       -0.68951931       1.28934128      -0.00000025      -0.04002899       0.06903856       0.00000247
C       -0.14605564       2.52801204       0.00000023      -0.01445189      -0.13228641      -0.00000305
C       -0.74176950      -1.27367312       0.00000002      -0.09826946       0.08386321       0.00000016
H       -1.78031363       1.18596117       0.00000089       0.07012293       0.00528571      -0.00000116
H        0.92370567       2.66230030      -0.00000035       0.02103212      -0.00226204       0.00000041
H       -0.79379828       3.39643015      -0.00000134      -0.03036496       0.01852397       0.00000146
H       -0.07073085      -2.12896327       0.00000008       0.04508019      -0.00377509       0.00000008
H       -1.39519409      -1.32912931       0.88185925       0.02295589      -0.00628861      -0.01685978
H       -1.39519416      -1.32912963      -0.88185913       0.02295593      -0.00628827       0.01685973
12
Lattice="20.0 0.0 0.0 0.0 20.0 0.0 0.0 0.0 20.0" Properties=species:S:1:pos:R:3:REF_forces:R:3 REF_energy=-8332.285620548617 pbc="F F F"
C        0.01057951       0.03009369       0.00000000       0.06415920      -0.05424545       0.00000000
O        1.28326541      -0.12703834      -0.00000000      -0.06510400       0.11230293       0.00000000
O        2.11936915       0.94496977      -0.00000000      -0.08783929      -0.08657286      -0.00000000
C       -0.69171032       1.29341725      -0.00000000       0.07735232      -0.04172654      -0.00000000
C       -0.14317574       2.52682289       0.00000000      -0.09860403      -0.08911580      -0.00000000
C       -0.75992172      -1.28889469      -0.00000000       0.32412709       0.45078334      -0.00000000
H       -1.77416708       1.16994978      -0.00000000       0.00859558       0.03494815       0.00000000
H        0.92926697       2.65273656      -0.00000000      -0.00284395       0.01816350       0.00000000
H       -0.82136021       3.37729672      -0.00000000       0.04559774       0.02660474       0.00000000
H        0.02317895      -2.05715052      -0.00000000      -0.17257831      -0.07831241       0.00000000
H       -1.35744464      -1.26955270       0.92410678      -0.04580736      -0.14612076      -0.11584646
H       -1.35744464      -1.26955270      -0.92410678      -0.04580737      -0.14612076       0.11584646
12
Lattice="20.0 0.0 0.0 0.0 20.0 0.0 0.0 0.0 20.0" Properties=species:S:1:pos:R:3:REF_forces:R:3 REF_energy=-8331.803720046433 pbc="F F F"
C        0.02269894       0.02890528       0.05766364       0.56887724      -0.41057929      -0.25219499
O        1.32758506      -0.11203051       0.01255576      -0.40541571       0.29477281       0.04665394
O        2.17216629       1.00598565      -0.00107769      -0.31757492      -0.32986945      -0.00081989
C       -0.71466974       1.25324335       0.00803364       0.55437922      -0.16499820       0.23138576
C       -0.17285982       2.46959540      -0.09180724       0.20298297      -0.01444426      -0.22550913
C       -0.81658975      -1.28877063       0.02338408       0.37085211       0.91978672       0.35025589
H       -1.71150130       1.04579726       0.26307688      -0.48369431       0.12793700      -0.04364748
H        0.88320384       2.66233039      -0.27331133      -0.06532795      -0.12550872       0.05734062
H       -0.82652432       3.28505256      -0.18302538      -0.27041854       0.36831525       0.06747775
H       -0.16583532      -2.13448675       0.01463249       0.01530415      -0.23929522       0.10850602
H       -1.49760170      -1.08659224       0.86248193       0.03985225      -0.33688231       0.06751958
H       -1.42316070      -1.20164220      -0.83345876      -0.21042746      -0.08882711      -0.40724259
12
Lattice="20.0 0.0 0.0 0.0 20.0 0.0 0.0 0.0 20.0" Properties=species:S:1:pos:R:3:REF_forces:R:3 REF_energy=-8332.376063305812 pbc="F F F"
C        0.00479285       0.03176405      -0.00000017       0.00000000       0.00000000       0.00000000
O        1.28530613      -0.12794471       0.00000002       0.00000000       0.00000000       0.00000000
O        2.11991122       0.94559745      -0.00000010       0.00000000       0.00000000       0.00000000
C       -0.68135012       1.29322504       0.00000015       0.00000000       0.00000000       0.00000000
C       -0.15296859       2.52164268       0.00000016       0.00000000       0.00000000       0.00000000
C       -0.74601419      -1.27108380       0.00000018       0.00000000       0.00000000       0.00000000
H       -1.76923884       1.24202887       0.00000028       0.00000000       0.00000000       0.00000000
H        0.92263426       2.61844226      -0.00000070       0.00000000       0.00000000       0.00000000
H       -0.81838669       3.38029004      -0.00000011       0.00000000       0.00000000       0.00000000
H       -0.04865827      -2.11129824      -0.00000127       0.00000000       0.00000000       0.00000000
H       -1.39442564      -1.34471955       0.88196815       0.00000000       0.00000000       0.00000000
H       -1.39442441      -1.34471871      -0.88196881       0.00000000       0.00000000       0.00000000
12
Lattice="20.0 0.0 0.0 0.0 20.0 0.0 0.0 0.0 20.0" Properties=species:S:1:pos:R:3:REF_forces:R:3 REF_energy=-8332.139206040034 pbc="F F F"
C        0.00468042       0.02936731       0.00000000       0.22571365      -0.05556418      -0.00000000
O        1.28408821      -0.12780105      -0.00000000      -0.09490842       0.14254107       0.00000000
O        2.12049685       0.94588380       0.00000000      -0.13291977      -0.12088913       0.00000000
C       -0.68442530       1.28881037       0.00000000      -0.48013835       0.05307862      -0.00000000
C       -0.14666626       2.52863793      -0.00000000       0.08621081      -0.39633476       0.00000000
C       -0.75329732      -1.26386338       0.00000000       0.75391684      -0.51084975       0.00000000
H       -1.82872281       1.18105977      -0.00000000       0.49701610       0.04404065      -0.00000000
H        0.91363526       2.66271329       0.00000000       0.12501355       0.00726189      -0.00000000
H       -0.78077313       3.36878378       0.00000000      -0.23156130       0.29327712      -0.00000000
H        0.01212363      -2.18182631       0.00000000      -0.47642980       0.57760227      -0.00000000
H       -1.37952682      -1.34288161       0.86341235      -0.13569358      -0.01693955       0.22084112
H       -1.37952682      -1.34288161      -0.86341235      -0.13569358      -0.01693955      -0.22084112
12
Lattice="20.0 0.0 0.0 0.0 20.0 0.0 0.0 0.0 20.0" Properties=species:S:1:pos:R:3:REF_forces:R:3 REF_energy=-8331.770793328435 pbc="F F F"
C        0.08215239      -0.04003010       0.11294609       0.17730408       0.62245166      -0.00416435
O        1.38098090      -0.06156000       0.05305279      -0.33827379      -0.23332105       0.03744768
O        2.20766248       1.06907771      -0.00654988      -0.40129620      -0.26318201      -0.00157377
C       -0.68673322       1.20178244       0.12032608      -0.19188466      -0.06071431      -0.12198298
C       -0.27497445       2.37272786      -0.36070449      -0.02729230       0.36511327       0.21173730
C       -0.86901921      -1.20103193       0.10160577       0.47246048      -0.44000278      -0.10115636
H       -1.76036962       1.09160304       0.33531800       0.13631155      -0.01645750       0.08822129
H        0.73685306       2.46445577      -0.67585727       0.20163002       0.05600025      -0.06860280
H       -0.88636989       3.29694417      -0.28635786       0.04282798      -0.23573243      -0.10405141
H       -0.43540256      -2.20187332       0.16278769       0.12209636       0.02759773       0.02589329
H       -1.61010471      -1.14922792       0.87317010      -0.10387453       0.12056658       0.19601346
H       -1.39714369      -1.18942789      -0.83897819      -0.08933545       0.05746367      -0.15760491
12
Lattice="20.0 0.0 0.0 0.0 20.0 0.0 0.0 0.0 20.0" Properties=species:S:1:pos:R:3:REF_forces:R:3 REF_energy=-8332.390855353005 pbc="F F F"
C        0.00475520       0.02929909       0.00000000       0.00000000       0.00000000       0.00000000
O        1.28414099      -0.12777051      -0.00000000       0.00000000       0.00000000       0.00000000
O        2.12048458       0.94585588      -0.00000000       0.00000000       0.00000000       0.00000000
C       -0.68904465       1.28844165       0.00000000       0.00000000       0.00000000       0.00000000
C       -0.14432169       2.52619268       0.00000000       0.00000000       0.00000000       0.00000000
C       -0.74614842      -1.26962660       0.00000000       0.00000000       0.00000000       0.00000000
H       -1.77394545       1.18599460       0.00000002       0.00000000       0.00000000       0.00000000
H        0.90927525       2.66155788      -0.00000001       0.00000000       0.00000000       0.00000000
H       -0.80450480       3.39982019       0.00000001       0.00000000       0.00000000       0.00000000
H       -0.04815651      -2.10926333      -0.00000001       0.00000000       0.00000000       0.00000000
H       -1.39253752      -1.34508088       0.88328165       0.00000000       0.00000000       0.00000000
H       -1.39253755      -1.34508085      -0.88328172       0.00000000       0.00000000       0.00000000
12
Lattice="20.0 0.0 0.0 0.0 20.0 0.0 0.0 0.0 20.0" Properties=species:S:1:pos:R:3:REF_forces:R:3 REF_energy=-8332.380265445472 pbc="F F F"
C        0.00744562       0.02817695      -0.00000003       0.18063270      -0.02943774      -0.00000007
O        1.28511814      -0.12076715       0.00000005      -0.11787872       0.02100296      -0.00000025
O        2.11646280       0.94007837       0.00000001      -0.06742349      -0.01998896       0.00000011
C       -0.68994254       1.28923285      -0.00000025       0.01193869       0.08382435       0.00000244
C       -0.14314603       2.52743417       0.00000023      -0.44203142      -0.06279578      -0.00000309
C       -0.74211904      -1.27339869       0.00000002      -0.05450180       0.04785701       0.00000017
H       -1.77562106       1.18627401       0.00000089       0.02343112       0.00246075      -0.00000111
H        0.89806166       2.65841742      -0.00000035       0.34814467       0.04591853       0.00000024
H       -0.80303436       3.40831178      -0.00000134       0.07169625      -0.11270056       0.00000166
H       -0.06785125      -2.13241007       0.00000008       0.01521692       0.03368091       0.00000008
H       -1.39450997      -1.32900200       0.88081655       0.01569422      -0.00757050      -0.00590872
H       -1.39451004      -1.32900232      -0.88081643       0.01569426      -0.00757017       0.00590866
12
Lattice="20.0 0.0 0.0 0.0 20.0 0.0 0.0 0.0 20.0" Properties=species:S:1:pos:R:3:REF_forces:R:3 REF_energy=-8331.971597874213 pbc="F F F"
C        0.00539503       0.03354689       0.02000631       0.47002741      -0.27345750      -0.11502010
O        1.30023873      -0.12439854       0.00365833      -0.29042782       0.23725017       0.01500635
O        2.13760362       0.96588051      -0.00030285      -0.20042827      -0.20951737      -0.00141896
C       -0.68878676       1.28611707      -0.00124214      -0.65603265      -0.43519343       0.19155819
C       -0.15101479       2.49748280      -0.02596194      -0.34174087       0.69774962      -0.11352952
C       -0.76652181      -1.28182840       0.01299111      -0.12189304       0.22906738      -0.45896349
H       -1.83393245       1.10175893       0.10434848       0.56220249       0.20512749      -0.10858730
H        0.90213378       2.67513757      -0.08758978       0.11276283      -0.04070729       0.00813762
H       -0.84200874       3.40381230      -0.06869698       0.26161368      -0.35424089       0.05730299
H       -0.03691230      -2.13908276      -0.01099394      -0.29300958       0.19968330       0.06729670
H       -1.44119946      -1.21686383       0.88914616       0.08525090      -0.19793841      -0.07506263
H       -1.46589250      -1.28356466      -0.94850258       0.41107631      -0.05742524       0.53245955
12
Lattice="20.0 0.0 0.0 0.0 20.0 0.0 0.0 0.0 20.0" Properties=species:S:1:pos:R:3:REF_forces:R:3 REF_energy=-8332.37604662311 pbc="F F F"
C        0.00743947       0.02815931       0.00001005       0.18122470      -0.02712821      -0.00224649
O        1.28513072      -0.12076902       0.00000796      -0.12019012       0.02109813      -0.00105288
O        2.11642056       0.94009711       0.00000369      -0.06000161      -0.02304725      -0.00053041
C       -0.69004154       1.28930715      -0.00000672       0.02430003       0.07299828       0.00069665
C       -0.14597012       2.52773035      -0.00000155      -0.02554453      -0.09656304       0.00017273
C       -0.74212165      -1.27339939       0.00335050      -0.02659020       0.05032829      -0.40378691
H       -1.77407150       1.18650155       0.00004122       0.00580022      -0.00023565      -0.00036733
H        0.92507047       2.66244803       0.00001489       0.00673743      -0.00376781      -0.00021775
H       -0.79620570       3.39959670      -0.00000634      -0.00489489      -0.01525503       0.00002098
H       -0.06785019      -2.13241505       0.00065114       0.01492865       0.03380226      -0.00554897
H       -1.37903069      -1.32740611       0.86038961      -0.15568502      -0.02149181       0.21768624
H       -1.40996959      -1.33060005      -0.90122250       0.15972276       0.00437648       0.19541010
12
Lattice="20.0 0.0 0.0 0.0 20.0 0.0 0.0 0.0 20.0" Properties=species:S:1:pos:R:3:REF_forces:R:3 REF_energy=-8332.095607724312 pbc="F F F"
C        0.00475169       0.02928901       0.00003378       0.21074853      -0.04483214      -0.00467233
O        1.28414818      -0.12777159       0.00002656      -0.10245810       0.13746349      -0.00350706
O        2.12046044       0.94586659       0.00001233      -0.12711853      -0.11903673      -0.00188711
C       -0.68910120       1.28848411      -0.00002168       0.01134492       0.08175693       0.00177603
C       -0.14593546       2.52636191      -0.00000597      -0.02515935      -0.08032907       0.00068360
C       -0.74614992      -1.26962700       0.01123784       0.31019515       0.04536942      -1.42495717
H       -1.77306019       1.18612461       0.00013529       0.00537965      -0.00021637      -0.00136571
H        0.92470893       2.66386108       0.00005114       0.00633553      -0.00508511      -0.00050852
H       -0.80060280       3.39484027      -0.00001676      -0.00042245      -0.00940818       0.00019417
H       -0.04815587      -2.10926621       0.00218372      -0.00376575       0.00964994      -0.02082474
H       -1.34064592      -1.33972551       0.81479668      -0.69325596      -0.06606303       0.91630768
H       -1.44441788      -1.35043727      -0.95175474       0.40881593       0.05103214       0.53867825
12
Lattice="20.0 0.0 0.0 0.0 20.0 0.0 0.0 0.0 20.0" Properties=species:S:1:pos:R:3:REF_forces:R:3 REF_energy=-8332.3431968855 pbc="F F F"
C        0.01393266       0.05838899      -0.00000018       0.00000000       0.00000000       0.00000000
O        1.27820910      -0.13383370      -0.00000006       0.00000000       0.00000000       0.00000000
O        2.12001218       0.94779409      -0.00000008       0.00000000       0.00000000       0.00000000
C       -0.68764884       1.29210006       0.00000017       0.00000000       0.00000000       0.00000000
C       -0.14280366       2.52012350       0.00000016       0.00000000       0.00000000       0.00000000
C       -0.74699316      -1.28042768       0.00000023       0.00000000       0.00000000       0.00000000
H       -1.76609729       1.14243373       0.00000133       0.00000000       0.00000000       0.00000000
H        0.92712960       2.66107686      -0.00000061       0.00000000       0.00000000       0.00000000
H       -0.82388721       3.36768671      -0.00000063       0.00000000       0.00000000       0.00000000
H       -0.07123839      -2.13878189      -0.00000150       0.00000000       0.00000000       0.00000000
H       -1.40033914      -1.35410159       0.87874608       0.00000000       0.00000000       0.00000000
H       -1.40033767      -1.35409948      -0.87874696       0.00000000       0.00000000       0.00000000
12
Lattice="20.0 0.0 0.0 0.0 20.0 0.0 0.0 0.0 20.0" Properties=species:S:1:pos:R:3:REF_forces:R:3 REF_energy=-8332.235213231354 pbc="F F F"
C        0.00475169       0.02928901       0.07582529       0.24580787      -0.08306366      -0.08366615
O        1.28414818      -0.12777159       0.15277201      -0.07434542       0.26820523      -0.25203762
O        2.12046044       0.94586659      -0.12638847      -0.20182773      -0.22384150       0.21512584
C       -0.68910120       1.28848411      -0.01672583       0.01557525       0.06947776       0.02108361
C       -0.14593546       2.52636191       0.01130074      -0.03342699      -0.08456741      -0.00861135
C       -0.74614992      -1.26962700      -0.07044572      -0.03745553      -0.06417544       0.05261302
H       -1.77306019       1.18612461      -0.07989122       0.02395501      -0.00085872       0.00953885
H        0.92470893       2.66386108       0.04821417       0.00739764      -0.01068733      -0.00228722
H       -0.80060280       3.39484027       0.00436620       0.00045564      -0.00866862      -0.00410162
H       -0.04815587      -2.10926621      -0.23481682      -0.05994246       0.10672203       0.03772351
H       -1.38389441      -1.50432398       0.80521816       0.05786538       0.04914339      -0.09496358
H       -1.40116939      -1.18583881      -0.96133326       0.05634751      -0.01761274       0.10994252
12
Lattice="20.0 0.0 0.0 0.0 20.0 0.0 0.0 0.0 20.0" Properties=species:S:1:pos:R:3:REF_forces:R:3 REF_energy=-8331.790508218692 pbc="F F F"
C        0.06629466      -0.00360744       0.08461374      -0.11248958      -0.07648000      -0.14087715
O        1.34449975      -0.08857919       0.02540349      -0.04724593       0.06945457       0.04532006
O        2.20054623       1.04032271      -0.00230993      -0.40039140      -0.32552893      -0.00993765
C       -0.71790838       1.19815131       0.03919675      -0.14380215       0.63718022       0.31073555
C       -0.19696722       2.45063719      -0.18671614      -0.56287915      -0.11397323      -0.08804315
C       -0.84785127      -1.23946186       0.05115605       0.07756358      -0.28699259      -0.27125834
H       -1.81540177       1.10942330       0.37739150       0.49547104      -0.00490710      -0.25042533
H        0.84167158       2.55741623      -0.45142990       0.05862696       0.03391422       0.02617481
H       -0.91941426       3.32610609      -0.24824904       0.31131127      -0.30073920       0.07036936
H       -0.35978157      -2.25164113       0.12984992      -0.01384110       0.31967181      -0.09023735
H       -1.55364793      -1.21012623       0.89705626       0.03050776       0.08095972      -0.06683885
H       -1.47503165      -1.19575773      -0.93105319       0.30785153      -0.03229043       0.46537184
12
Lattice="20.0 0.0 0.0 0.0 20.0 0.0 0.0 0.0 20.0" Properties=species:S:1:pos:R:3:REF_forces:R:3 REF_energy=-8331.904039828607 pbc="F F F"
C        0.01670135       0.03192472       0.05055026       0.61295677      -0.42183226      -0.24142648
O        1.32283243      -0.11543762       0.01047530      -0.41942529       0.30395992       0.04248802
O        2.16523065       0.99795735      -0.00089619      -0.29481404      -0.31525115      -0.00058839
C       -0.70793150       1.26354113       0.00426636       0.07580502      -0.39005444       0.30857347
C       -0.16811638       2.47248238      -0.07616134       0.10345331       0.31953517      -0.23503095
C       -0.80571316      -1.29130493       0.02189836       0.11062527       0.86939766       0.01432584
H       -1.74688575       1.04249316       0.23786150      -0.08629192       0.21200315      -0.12651117
H        0.88943539       2.67231577      -0.23510218      -0.05939779      -0.12791054       0.05053751
H       -0.83007303       3.31032800      -0.16333791      -0.11677903       0.16124138       0.08224341
H       -0.12659767      -2.13324434       0.00175720      -0.08918662      -0.12478725       0.11366711
H       -1.49188923      -1.09196475       0.87118612       0.09460696      -0.36268193      -0.00958553
H       -1.44480973      -1.21080855      -0.87093408       0.06838058      -0.12341583       0.00101451
12
Lattice="20.0 0.0 0.0 0.0 20.0 0.0 0.0 0.0 20.0" Properties=species:S:1:pos:R:3:REF_forces:R:3 REF_energy=-8332.27251383051 pbc="F F F"
C        0.01833883       0.04158098      -0.00000000      -0.15585109      -0.37256097       0.00000000
O        1.27667323      -0.12995001       0.00000000       0.18205377       0.21033318       0.00000000
O        2.12043639       0.94705264       0.00000000      -0.12350785      -0.15650850      -0.00000000
C       -0.68534556       1.27707008       0.00000000      -0.11761992       0.38640630      -0.00000000
C       -0.15588304       2.51475041      -0.00000000       0.24014870       0.28028346      -0.00000000
C       -0.75134545      -1.27496805       0.00000000       0.13032433       0.14403700      -0.00000000
H       -1.77552374       1.25876031       0.00000000       0.02812426      -0.16183345       0.00000000
H        0.90218616       2.73239780       0.00000000       0.04889300      -0.17205640       0.00000000
H       -0.71603907       3.45598878       0.00000000      -0.17933515      -0.17560203       0.00000000
H       -0.04713659      -2.11016974       0.00000000      -0.00365321       0.00992857       0.00000000
H       -1.37642061      -1.34213850       0.89845909      -0.02412536       0.00319485      -0.04105256
H       -1.37642061      -1.34213850      -0.89845909      -0.02412536       0.00319485       0.04105256
12
Lattice="20.0 0.0 0.0 0.0 20.0 0.0 0.0 0.0 20.0" Properties=species:S:1:pos:R:3:REF_forces:R:3 REF_energy=-8332.394958235609 pbc="F F F"
C        0.00744298       0.02816939      -0.00000003       0.18105710      -0.02833587      -0.00000006
O        1.28512353      -0.12076795       0.00000005      -0.11893468       0.02103540      -0.00000025
O        2.11644470       0.94008640       0.00000001      -0.06415733      -0.02129279       0.00000012
C       -0.68998497       1.28926469      -0.00000025       0.01718072       0.07910222       0.00000243
C       -0.14435635       2.52756111       0.00000023      -0.25686197      -0.07529427      -0.00000310
C       -0.74212016      -1.27339899       0.00000002      -0.05438017       0.04788426       0.00000017
H       -1.77495696       1.18637153       0.00000089       0.01589054       0.00130959      -0.00000111
H        0.90963687       2.66014483      -0.00000035       0.19468732       0.02364729       0.00000032
H       -0.80010779       3.40457675      -0.00000134       0.03946428      -0.07188781       0.00000160
H       -0.06785079      -2.13241221       0.00000008       0.01518384       0.03367659       0.00000008
H       -1.39450574      -1.32900240       0.88081208       0.01564882      -0.00753471      -0.00586577
H       -1.39450582      -1.32900271      -0.88081196       0.01564887      -0.00753438       0.00586572
12
Lattice="20.0 0.0 0.0 0.0 20.0 0.0 0.0 0.0 20.0" Properties=species:S:1:pos:R:3:REF_forces:R:3 REF_energy=-8331.803225782862 pbc="F F F"
C        0.09802692       0.03689918       0.15361684       0.28323501      -0.61585866       0.07875481
O        1.38112168      -0.08570969       0.09605943      -0.28262129       0.19748311      -0.07031619
O        2.15264746       1.06745522      -0.01443461      -0.17987369      -0.23564423       0.01778872
C       -0.65297673       1.22117096       0.18497517      -0.23470657       0.64721559      -0.33713311
C       -0.32014072       2.32379161      -0.55260485      -0.56334707       0.08404359       0.43067708
C       -0.81224284      -1.21703047       0.15287951       0.79307938       0.31140191       0.07434787
H       -1.67549795       1.08151943       0.60940228       0.22816391       0.13546427      -0.11839669
H        0.64501025       2.44223012      -0.99154844       0.14366387      -0.01709285      -0.07363283
H       -1.08695878       3.15088552      -0.63898694       0.28858450      -0.26175440      -0.00200427
H       -0.24450045      -2.13340559       0.30541698      -0.05145097      -0.03580595      -0.00278706
H       -1.50877163      -1.00151423       0.91644077      -0.27511151      -0.11040180       0.33070422
H       -1.34212638      -1.19089670      -0.76496578      -0.15040418      -0.09826081      -0.32854756
12
Lattice="20.0 0.0 0.0 0.0 20.0 0.0 0.0 0.0 20.0" Properties=species:S:1:pos:R:3:REF_forces:R:3 REF_energy=-8331.905907460483 pbc="F F F"
C        0.01307657       0.03339901       0.04478489       0.61832643      -0.41697371      -0.22569972
O        1.31880902      -0.11770419       0.00898166      -0.41480579       0.30261774       0.03813040
O        2.15979113       0.99166012      -0.00076559      -0.27741466      -0.29976905      -0.00074514
C       -0.70268670       1.27026572       0.00208390      -0.24007937      -0.51240324       0.33345862
C       -0.16430748       2.47539939      -0.06499011      -0.01468038       0.55240840      -0.22906305
C       -0.79734517      -1.29141779       0.02088275      -0.01414456       0.76695314      -0.18675568
H       -1.77636817       1.04499513       0.21621572       0.18098854       0.25520194      -0.16312828
H        0.89245284       2.67671831      -0.20544508      -0.03203227      -0.11845967       0.04140939
H       -0.83594254       3.33385494      -0.14680294       0.01644118      -0.01781799       0.09016463
H       -0.09939399      -2.13580993      -0.00501734      -0.17523705      -0.02098815       0.11247493
H       -1.48564652      -1.10496689       0.87765922       0.11901328      -0.35911748      -0.05419430
H       -1.46010598      -1.22083997      -0.89987257       0.23330280      -0.13174136       0.24390058
12
Lattice="20.0 0.0 0.0 0.0 20.0 0.0 0.0 0.0 20.0" Properties=species:S:1:pos:R:3:REF_forces:R:3 REF_energy=-8332.3418718267 pbc="F F F"
C        0.03992582      -0.00374434       0.00000207       0.00000000       0.00000000       0.00000000
O        1.31869382      -0.15017505       0.00000168       0.00000000       0.00000000       0.00000000
O        2.06919635       0.99702926      -0.00000130       0.00000000       0.00000000       0.00000000
C       -0.63379636       1.26136500       0.00000073       0.00000000       0.00000000       0.00000000
C       -0.14095246       2.52207333      -0.00000137       0.00000000       0.00000000       0.00000000
C       -0.79784807      -1.25154867      -0.00000080       0.00000000       0.00000000       0.00000000
H       -1.71695135       1.14770003      -0.00000525       0.00000000       0.00000000       0.00000000
H        0.91780759       2.73089638       0.00000408       0.00000000       0.00000000       0.00000000
H       -0.85034051       3.35032250      -0.00000882       0.00000000       0.00000000       0.00000000
H       -0.18159486      -2.15910704      -0.00000834       0.00000000       0.00000000       0.00000000
H       -1.45361006      -1.26422055       0.88194357       0.00000000       0.00000000       0.00000000
H       -1.45361945      -1.26421225      -0.88193891       0.00000000       0.00000000       0.00000000
12
Lattice="20.0 0.0 0.0 0.0 20.0 0.0 0.0 0.0 20.0" Properties=species:S:1:pos:R:3:REF_forces:R:3 REF_energy=-8331.794557581086 pbc="F F F"
C        0.00475169       0.02928901      -0.00179999       0.22534214      -0.03243672       0.01693341
O        1.28414818      -0.12777159       0.00569798      -0.09194923       0.11685231      -0.08851580
O        2.12046044       0.94586659      -0.00211325      -0.13020206      -0.10611187       0.03475034
C       -0.68910120       1.28848411      -0.04444713      -0.51877172      -0.06022856       0.72544175
C       -0.14593546       2.52636191       0.00572712       0.11528689       0.07357369      -0.05905965
C       -0.74614992      -1.26962700      -0.00542833      -0.00438079       0.00336583       0.07079390
H       -1.77306019       1.18612461       0.41425370       0.46057342       0.05607548      -0.61372348
H        0.92470893       2.66386108       0.21214860      -0.13490188      -0.01180367      -0.24108059
H       -0.80060280       3.39484027      -0.15526879       0.05516983      -0.07173462       0.17691751
H       -0.04815587      -2.10926621       0.00944041      -0.00084762       0.00845248      -0.01056064
H       -1.38125540      -1.33168924       0.88830761       0.00084594      -0.00303762      -0.01557053
H       -1.40380840      -1.35847355      -0.87824381       0.02435183       0.02710446       0.00362217
12
Lattice="20.0 0.0 0.0 0.0 20.0 0.0 0.0 0.0 20.0" Properties=species:S:1:pos:R:3:REF_forces:R:3 REF_energy=-8332.3585085845 pbc="F F F"
C        0.00743947       0.02815931      -0.00001303       0.18096017      -0.02730316       0.00288973
O        1.28513072      -0.12076902      -0.00001018      -0.12007785       0.02109825       0.00136004
O        2.11642056       0.94009711      -0.00000473      -0.06006351      -0.02311648       0.00068526
C       -0.69004154       1.28930715       0.00000809       0.02427077       0.07300333      -0.00089352
C       -0.14597012       2.52773035       0.00000253      -0.02553722      -0.09657198      -0.00022985
C       -0.74212165      -1.27339939      -0.00432542      -0.00809081       0.05193628       0.52281118
H       -1.77407150       1.18650155      -0.00005119       0.00581272      -0.00024082       0.00047155
H        0.92507047       2.66244803      -0.00002004       0.00673311      -0.00375806       0.00028162
H       -0.79620570       3.39959670       0.00000511      -0.00489231      -0.01525753      -0.00002335
H       -0.06785019      -2.13241505      -0.00084043       0.01478741       0.03388998       0.00715355
H       -1.41447103      -1.33106440       0.90716371       0.19714249       0.00746779      -0.24492660
H       -1.37452926      -1.32694176      -0.85444840      -0.21125548      -0.02601682      -0.28986698
12
Lattice="20.0 0.0 0.0 0.0 20.0 0.0 0.0 0.0 20.0" Properties=species:S:1:pos:R:3:REF_forces:R:3 REF_energy=-8332.291650581681 pbc="F F F"
C        0.00463841       0.02918980      -0.00000002       0.00000000       0.00000000       0.00000000
O        1.28420547      -0.12776960      -0.00000000       0.00000000       0.00000000       0.00000000
O        2.12045408       0.94586142      -0.00000000       0.00000000       0.00000000       0.00000000
C       -0.69327975       1.28821100       0.00000002       0.00000000       0.00000000       0.00000000
C       -0.14525121       2.52410807       0.00000001       0.00000000       0.00000000       0.00000000
C       -0.74896612      -1.26743807      -0.00000016       0.00000000       0.00000000       0.00000000
H       -1.72311525       1.19044836      -0.00000001       0.00000000       0.00000000       0.00000000
H        0.93562927       2.66504317      -0.00000002       0.00000000       0.00000000       0.00000000
H       -0.81986512       3.42017672      -0.00000005       0.00000000       0.00000000       0.00000000
H       -0.02511959      -2.13686956       0.00000000       0.00000000       0.00000000       0.00000000
H       -1.38698227      -1.34407060       0.87485397       0.00000000       0.00000000       0.00000000
H       -1.38698084      -1.34407045      -0.87485210       0.00000000       0.00000000       0.00000000
12
Lattice="20.0 0.0 0.0 0.0 20.0 0.0 0.0 0.0 20.0" Properties=species:S:1:pos:R:3:REF_forces:R:3 REF_energy=-8332.09950690659 pbc="F F F"
C        0.00358578       0.01907499      -0.00000000       0.15608984       0.09059616       0.00000000
O        1.24265130      -0.13061677       0.00000000       0.80714641       0.12603789      -0.00000000
O        2.13227383       0.95763977       0.00000000      -0.32739476      -0.29942310      -0.00000000
C       -0.64696930       1.27590092       0.00000000      -0.69058797       0.29023005      -0.00000000
C       -0.17051174       2.54692241      -0.00000000       0.39594009      -0.36758556       0.00000000
C       -0.73451491      -1.26928299       0.00000000      -0.19090296      -0.00386922      -0.00000000
H       -1.72060071       1.06095027       0.00000000      -0.03390471       0.17496449       0.00000000
H        0.92521297       2.51731575       0.00000000      -0.07237346       0.19962479       0.00000000
H       -0.72273735       3.49072617       0.00000000      -0.06120281      -0.16641053       0.00000000
H       -0.05402724      -2.12171340      -0.00000000       0.00532686       0.02486645       0.00000000
H       -1.38640478      -1.31052071       0.88146732       0.00586685      -0.03452970      -0.00717155
H       -1.38640478      -1.31052071      -0.88146732       0.00586684      -0.03452970       0.00717155
12
Lattice="20.0 0.0 0.0 0.0 20.0 0.0 0.0 0.0 20.0" Properties=species:S:1:pos:R:3:REF_forces:R:3 REF_energy=-8332.39329884916 pbc="F F F"
C        0.00778960       0.03203777       0.00000000       0.00000000       0.00000000       0.00000000
O        1.28247692      -0.12825869      -0.00000001       0.00000000       0.00000000       0.00000000
O        2.12045505       0.94613178      -0.00000001       0.00000000       0.00000000       0.00000000
C       -0.68826144       1.28593169       0.00000001       0.00000000       0.00000000       0.00000000
C       -0.14815977       2.52376550       0.00000001       0.00000000       0.00000000       0.00000000
C       -0.74731162      -1.27082153       0.00000006       0.00000000       0.00000000       0.00000000
H       -1.77361110       1.20236598       0.00000014       0.00000000       0.00000000       0.00000000
H        0.91967265       2.67918689      -0.00000009       0.00000000       0.00000000       0.00000000
H       -0.78169344       3.40851375      -0.00000004       0.00000000       0.00000000       0.00000000
H       -0.04792691      -2.10946760      -0.00000070       0.00000000       0.00000000       0.00000000
H       -1.38893030      -1.34442225       0.88667024       0.00000000       0.00000000       0.00000000
H       -1.38892996      -1.34442274      -0.88667037       0.00000000       0.00000000       0.00000000
12
Lattice="20.0 0.0 0.0 0.0 20.0 0.0 0.0 0.0 20.0" Properties=species:S:1:pos:R:3:REF_forces:R:3 REF_energy=-8332.105171089239 pbc="F F F"
C        0.00591760       0.03950304       0.00000000       0.13846051      -0.20059067       0.00000000
O        1.32564505      -0.12492640      -0.00000000      -0.89093021       0.02456538      -0.00000000
O        2.10864706       0.93409340      -0.00000000       0.14695878       0.16583700      -0.00000000
C       -0.73123311       1.30106730      -0.00000000       0.58910047      -0.10212251      -0.00000000
C       -0.12135918       2.50580141       0.00000000      -0.34472789       0.27569233      -0.00000000
C       -0.75778492      -1.26997101      -0.00000000       0.16004988      -0.00004190      -0.00000000
H       -1.82551967       1.31129895      -0.00000000       0.10337266      -0.16208502       0.00000000
H        0.92420488       2.81040641      -0.00000000      -0.08547761      -0.19813457       0.00000000
H       -0.87846824       3.29895437      -0.00000000       0.14893025       0.09357877       0.00000000
H       -0.04228450      -2.09681903       0.00000000      -0.01042629      -0.00709122       0.00000000
H       -1.39865902      -1.37964208       0.88508410       0.02260358       0.05491215      -0.01147241
H       -1.39865902      -1.37964208      -0.88508410       0.02260358       0.05491215       0.01147241
12
Lattice="20.0 0.0 0.0 0.0 20.0 0.0 0.0 0.0 20.0" Properties=species:S:1:pos:R:3:REF_forces:R:3 REF_energy=-8332.391951950307 pbc="F F F"
C        0.00747487       0.02819031      -0.00000003       0.17791486      -0.03184659      -0.00000005
O        1.28511282      -0.12076964       0.00000005      -0.11739596       0.02143917      -0.00000026
O        2.11642255       0.94009872       0.00000001      -0.06045281      -0.02322416       0.00000012
C       -0.68873595       1.28939248      -0.00000025      -0.13185238       0.06361983       0.00000254
C       -0.14618392       2.52843456       0.00000023       0.00317123      -0.18756429      -0.00000296
C       -0.74124127      -1.27408371       0.00000002      -0.16573927       0.13995076       0.00000017
H       -1.78967681       1.18515060       0.00000089       0.16197887       0.01311987      -0.00000123
H        0.92165845       2.66207870      -0.00000035       0.04265644       0.00002834       0.00000040
H       -0.79018716       3.39168031      -0.00000134      -0.06977748       0.07077043       0.00000138
H       -0.07505185      -2.12378560       0.00000008       0.09157815      -0.06201449       0.00000008
H       -1.39623506      -1.32931889       0.88343895       0.03390677      -0.00452614      -0.03326391
H       -1.39623514      -1.32931921      -0.88343882       0.03390681      -0.00452580       0.03326385
12
Lattice="20.0 0.0 0.0 0.0 20.0 0.0 0.0 0.0 20.0" Properties=species:S:1:pos:R:3:REF_forces:R:3 REF_energy=-8332.245351845186 pbc="F F F"
C        0.00475307       0.02929007      -0.04609444       0.00000000       0.00000000       0.00000000
O        1.28414634      -0.12776984       0.00723467       0.00000000       0.00000000       0.00000000
O        2.12045911       0.94586954      -0.04486431       0.00000000       0.00000000       0.00000000
C       -0.68909732       1.28848088      -0.15585340       0.00000000       0.00000000       0.00000000
C       -0.14593922       2.52635828       0.13743538       0.00000000       0.00000000       0.00000000
C       -0.74614732      -1.26962621       0.07713490       0.00000000       0.00000000       0.00000000
H       -1.77305291       1.18611759      -0.41692397       0.00000000       0.00000000       0.00000000
H        0.92470211       2.66386234       0.43568549       0.00000000       0.00000000       0.00000000
H       -0.80060998       3.39483208       0.09441615       0.00000000       0.00000000       0.00000000
H       -0.04815404      -2.10926335       0.24238170       0.00000000       0.00000000       0.00000000
H       -1.44972111      -1.21818816       0.92893430       0.00000000       0.00000000       0.00000000
H       -1.33533638      -1.47197829      -0.83761341       0.00000000       0.00000000       0.00000000
12
Lattice="20.0 0.0 0.0 0.0 20.0 0.0 0.0 0.0 20.0" Properties=species:S:1:pos:R:3:REF_forces:R:3 REF_energy=-8332.264740732813 pbc="F F F"
C        0.05718616      -0.01995297       0.00000000       0.10613447      -0.00954832       0.00000000
O        1.33564654      -0.16116728      -0.00000000      -0.17413965       0.26948350       0.00000000
O        2.04404720       1.02213317      -0.00000000       0.02251929      -0.31944857       0.00000000
C       -0.60666198       1.24805667       0.00000000      -0.10720683       0.17328153      -0.00000000
C       -0.13850816       2.51996629      -0.00000000      -0.02695355      -0.06840875       0.00000000
C       -0.82322032      -1.24267444      -0.00000000       0.11346287      -0.10002571      -0.00000000
H       -1.68942225       1.12884232      -0.00000000      -0.00600717       0.01347577      -0.00000000
H        0.91442124       2.76378416       0.00000000      -0.04067927      -0.02174066      -0.00000000
H       -0.87474545       3.32847663      -0.00000000       0.04053477      -0.03240013       0.00000000
H       -0.24708198      -2.18356488      -0.00000000      -0.03844694       0.10772470       0.00000000
H       -1.48359247      -1.22452930       0.88128658       0.05552096      -0.00588847      -0.02824921
H       -1.48359247      -1.22452930      -0.88128658       0.05552096      -0.00588847       0.02824921
12
Lattice="20.0 0.0 0.0 0.0 20.0 0.0 0.0 0.0 20.0" Properties=species:S:1:pos:R:3:REF_forces:R:3 REF_energy=-8332.327501882082 pbc="F F F"
C        0.00084287       0.02874881       0.00000004       0.00000000       0.00000000       0.00000000
O        1.28474013      -0.12826332      -0.00000005       0.00000000       0.00000000       0.00000000
O        2.12119245       0.94646814      -0.00000001       0.00000000       0.00000000       0.00000000
C       -0.68735146       1.28517474       0.00000002       0.00000000       0.00000000       0.00000000
C       -0.14778656       2.52605268       0.00000001       0.00000000       0.00000000       0.00000000
C       -0.73691159      -1.25670173      -0.00000012       0.00000000       0.00000000       0.00000000
H       -1.77231794       1.19697425       0.00000053       0.00000000       0.00000000       0.00000000
H        0.92165096       2.67132660       0.00000008       0.00000000       0.00000000       0.00000000
H       -0.78667638       3.40661015      -0.00000009       0.00000000       0.00000000       0.00000000
H       -0.09600865      -2.14422610       0.00000103       0.00000000       0.00000000       0.00000000
H       -1.41606850      -1.39574871       0.85588562       0.00000000       0.00000000       0.00000000
H       -1.41606911      -1.39574695      -0.85588551       0.00000000       0.00000000       0.00000000
12
Lattice="20.0 0.0 0.0 0.0 20.0 0.0 0.0 0.0 20.0" Properties=species:S:1:pos:R:3:REF_forces:R:3 REF_energy=-8331.768965740768 pbc="F F F"
C        0.10877153       0.04183260       0.16140162      -0.01892707      -0.59575706       0.11352134
O        1.37369724      -0.09039402       0.10208933      -0.05506585       0.21602736      -0.09041720
O        2.14108556       1.06418203      -0.01562932      -0.13236343      -0.22332005       0.02025935
C       -0.64764114       1.23011376       0.18524675      -0.52380110       0.64550480      -0.14660070
C       -0.32739355       2.32173778      -0.57416106      -0.46542923       0.11180446       0.25062869
C       -0.78896564      -1.20806728       0.16147481       0.20890087      -0.01821946      -0.13315175
H       -1.70203758       1.11957738       0.67950253       0.57189085       0.11032071      -0.31492686
H        0.64613548       2.42675747      -1.05094760      -0.06444073      -0.03379666       0.03235204
H       -1.12811029       3.12902537      -0.71568607       0.38968628      -0.30887034       0.06354076
H       -0.23697652      -2.16015024       0.35751895      -0.09436418       0.20443209      -0.12333621
H       -1.50759938      -1.06095678       0.97396715      -0.03824044      -0.05307564      -0.02819770
H       -1.36571650      -1.22667083      -0.82646918       0.22328483      -0.05536583       0.35624809
12
Lattice="20.0 0.0 0.0 0.0 20.0 0.0 0.0 0.0 20.0" Properties=species:S:1:pos:R:3:REF_forces:R:3 REF_energy=-8332.265791088594 pbc="F F F"
C        0.00373853       0.02667051       0.00000000       0.20913594      -0.06150966       0.00000000
O        1.27522080      -0.17504154      -0.00000000      -0.10118694       0.29225945      -0.00000000
O        2.06134089       0.90909674       0.00000000       0.07952343      -0.01070947      -0.00000000
C       -0.62959008       1.33355757       0.00000000      -0.10104163       0.03342550       0.00000000
C       -0.16833669       2.61603881       0.00000000       0.03725955      -0.24115755      -0.00000000
C       -0.70206711      -1.30135446      -0.00000000      -0.09729409       0.03006842      -0.00000000
H       -1.71446422       1.22998480      -0.00000000      -0.00682976      -0.00949405       0.00000000
H        0.88413357       2.88656761       0.00000000      -0.05465435      -0.06231156       0.00000000
H       -0.91345838       3.41790060      -0.00000000       0.05902828      -0.05081631       0.00000000
H        0.06365542      -2.08558335      -0.00000000      -0.04928487       0.02320912       0.00000000
H       -1.33869181      -1.43298444       0.88518775       0.01330472       0.02824788      -0.01619594
H       -1.33869181      -1.43298444      -0.88518775       0.01330471       0.02824788       0.01619594
12
Lattice="20.0 0.0 0.0 0.0 20.0 0.0 0.0 0.0 20.0" Properties=species:S:1:pos:R:3:REF_forces:R:3 REF_energy=-8332.284567953664 pbc="F F F"
C       -0.00748961      -0.00951096       0.00000024       0.00000000       0.00000000       0.00000000
O        1.29206694      -0.11968877       0.00000008       0.00000000       0.00000000       0.00000000
O        2.12105813       0.94329658       0.00000010       0.00000000       0.00000000       0.00000000
C       -0.69103769       1.28366285      -0.00000022       0.00000000       0.00000000       0.00000000
C       -0.15011120       2.53467980      -0.00000021       0.00000000       0.00000000       0.00000000
C       -0.74502560      -1.25522610      -0.00000031       0.00000000       0.00000000       0.00000000
H       -1.78234405       1.24437911      -0.00000177       0.00000000       0.00000000       0.00000000
H        0.92148136       2.66757338       0.00000081       0.00000000       0.00000000       0.00000000
H       -0.76955691       3.43104501       0.00000084       0.00000000       0.00000000       0.00000000
H       -0.01737918      -2.06991198       0.00000200       0.00000000       0.00000000       0.00000000
H       -1.38212225      -1.33305446       0.88931521       0.00000000       0.00000000       0.00000000
H       -1.38212420      -1.33305728      -0.88931404       0.00000000       0.00000000       0.00000000
12
Lattice="20.0 0.0 0.0 0.0 20.0 0.0 0.0 0.0 20.0" Properties=species:S:1:pos:R:3:REF_forces:R:3 REF_energy=-8332.399691442748 pbc="F F F"
C        0.00743561       0.02816338      -0.00000003       0.18182663      -0.02840726      -0.00000006
O        1.28514248      -0.12076771       0.00000005      -0.12189609       0.02097981      -0.00000026
O        2.11641836       0.94009467       0.00000001      -0.05958644      -0.02258061       0.00000012
C       -0.69002310       1.28931981      -0.00000025       0.02211463       0.07169719       0.00000242
C       -0.14597110       2.52772386       0.00000023      -0.02545440      -0.09589227      -0.00000310
C       -0.74274957      -1.27382703       0.00000002       0.02272881       0.09728725       0.00000016
H       -1.77432863       1.18646517       0.00000089       0.00834484       0.00015817      -0.00000110
H        0.92506714       2.66245929      -0.00000035       0.00677468      -0.00389030       0.00000041
H       -0.79619892       3.39958098      -0.00000134      -0.00497557      -0.01511314       0.00000151
H       -0.07123347      -2.12849294       0.00000008       0.04740804      -0.00557970       0.00000008
H       -1.38909735      -1.32844774       0.87311646      -0.03872904      -0.01182562       0.07069114
H       -1.38909743      -1.32844806      -0.87311633      -0.03872900      -0.01182530      -0.07069119
12
Lattice="20.0 0.0 0.0 0.0 20.0 0.0 0.0 0.0 20.0" Properties=species:S:1:pos:R:3:REF_forces:R:3 REF_energy=-8332.009195735 pbc="F F F"
C        0.04913547       0.01139093       0.07621236       0.17974973      -0.26538753      -0.20551756
O        1.33898824      -0.09822652       0.02013143      -0.21453306       0.18276313       0.05015503
O        2.19160595       1.02888889      -0.00176032      -0.37899306      -0.33830940      -0.00644129
C       -0.72188755       1.21684760       0.02489199       0.41517995       0.39224206       0.24410379
C       -0.18535815       2.45908985      -0.14842350      -0.37227961      -0.17566644      -0.15836650
C       -0.84136624      -1.26243429       0.03813619       0.52949101       0.30486255       0.10752262
H       -1.74401849       1.07977293       0.34314938      -0.11938354       0.04790971      -0.11326228
H        0.85167319       2.60223235      -0.38674092       0.08895973      -0.02396501       0.02734563
H       -0.88149147       3.29781580      -0.23204301       0.06389753      -0.00076033       0.08492203
H       -0.28695947      -2.20130861       0.08231136      -0.00328572       0.02621966       0.01075473
H       -1.52136651      -1.14590677       0.86535815      -0.10098925      -0.09853172       0.16067222
H       -1.43374921      -1.19112702      -0.85406895      -0.08775652      -0.05122757      -0.20139417
12
Lattice="20.0 0.0 0.0 0.0 20.0 0.0 0.0 0.0 20.0" Properties=species:S:1:pos:R:3:REF_forces:R:3 REF_energy=-8331.936137607416 pbc="F F F"
C        0.10045146       0.05745872       0.00000000       0.04439689      -0.07872783      -0.00000000
O        1.36617131      -0.18148564       0.00000000      -0.20056142       0.24273642       0.00000000
O        2.31276413       0.81336801      -0.00000000      -0.33071053      -0.07381023       0.00000000
C       -0.71261175       1.26420540      -0.00000000      -0.01177292       0.44021705      -0.00000000
C       -0.42522023       2.59772184       0.00000000       0.23000413      -0.24438708       0.00000000
C       -0.81009985      -1.14091728      -0.00000000       0.10934594      -0.27343892      -0.00000000
H       -1.78020852       0.97744761      -0.00000000       0.15168277       0.10597558      -0.00000000
H        0.62736593       2.94926604       0.00000000      -0.22133070      -0.07645586      -0.00000000
H       -1.23793811       3.34512313       0.00000000       0.13565101      -0.13229559      -0.00000000
H       -0.26497231      -2.10606322      -0.00000000      -0.06175675       0.14483239       0.00000000
H       -1.47545981      -1.09755132       0.88050706       0.07793768      -0.02748472      -0.04174359
H       -1.47545981      -1.09755132      -0.88050706       0.07793768      -0.02748472       0.04174359
12
Lattice="20.0 0.0 0.0 0.0 20.0 0.0 0.0 0.0 20.0" Properties=species:S:1:pos:R:3:REF_forces:R:3 REF_energy=-8331.780591721394 pbc="F F F"
C        0.10962063      -0.06919496       0.00000000      -0.05450820      -0.02744677      -0.00000000
O        1.38714491      -0.19456297      -0.00000000      -0.20648642       0.46254604       0.00000000
O        1.96763396       1.09839976      -0.00000000       0.18742921      -0.57235527      -0.00000000
C       -0.52422276       1.20762922       0.00000000      -0.24456851       0.32989068       0.00000000
C       -0.13108086       2.51357067      -0.00000000      -0.02696053      -0.05315043      -0.00000000
C       -0.90029073      -1.21572189      -0.00000000       0.19666172      -0.31258440      -0.00000000
H       -1.60578430       1.07156003      -0.00000000      -0.01827825       0.04352393       0.00000000
H        0.90413356       2.86370723       0.00000000      -0.16941924      -0.06673827       0.00000000
H       -0.94888810       3.26211300      -0.00000000       0.14796298      -0.09709474       0.00000000
H       -0.44600809      -2.25786355      -0.00000000      -0.12486098       0.37538816       0.00000000
H       -1.57465304      -1.10397722       0.87929746       0.15805459      -0.04188308      -0.08781543
H       -1.57465304      -1.10397722      -0.87929746       0.15805459      -0.04188308       0.08781543
12
Lattice="20.0 0.0 0.0 0.0 20.0 0.0 0.0 0.0 20.0" Properties=species:S:1:pos:R:3:REF_forces:R:3 REF_energy=-8332.321141980432 pbc="F F F"
C        0.01940881       0.04983074      -0.00000030       0.00000000       0.00000000       0.00000000
O        1.28747497      -0.15240719      -0.00000002       0.00000000       0.00000000       0.00000000
O        2.08112622       0.93063163      -0.00000036       0.00000000       0.00000000       0.00000000
C       -0.70521620       1.27896163       0.00000133       0.00000000       0.00000000       0.00000000
C       -0.14772076       2.50380367      -0.00000013       0.00000000       0.00000000       0.00000000
C       -0.70686384      -1.21095581      -0.00000011       0.00000000       0.00000000       0.00000000
H       -1.78625550       1.15107451      -0.00000050       0.00000000       0.00000000       0.00000000
H        0.92870273       2.59250855      -0.00000059       0.00000000       0.00000000       0.00000000
H       -0.77008029       3.39574120      -0.00000201       0.00000000       0.00000000       0.00000000
H       -0.00471893      -2.04629909       0.00000032       0.00000000       0.00000000       0.00000000
H       -1.35388919      -1.28820418       0.88269059       0.00000000       0.00000000       0.00000000
H       -1.35388874      -1.28820513      -0.88269110       0.00000000       0.00000000       0.00000000
12
Lattice="20.0 0.0 0.0 0.0 20.0 0.0 0.0 0.0 20.0" Properties=species:S:1:pos:R:3:REF_forces:R:3 REF_energy=-8332.389126476248 pbc="F F F"
C        0.00622366       0.03111910       0.00000007       0.00000000       0.00000000       0.00000000
O        1.28352356      -0.12786801      -0.00000001       0.00000000       0.00000000       0.00000000
O        2.12040476       0.94576510       0.00000005       0.00000000       0.00000000       0.00000000
C       -0.69066605       1.28159933      -0.00000008       0.00000000       0.00000000       0.00000000
C       -0.14405378       2.53170561      -0.00000005       0.00000000       0.00000000       0.00000000
C       -0.74642578      -1.26988323       0.00000001       0.00000000       0.00000000       0.00000000
H       -1.77649452       1.19575370       0.00000001       0.00000000       0.00000000       0.00000000
H        0.92916349       2.65751219       0.00000023       0.00000000       0.00000000       0.00000000
H       -0.80766231       3.39415948      -0.00000000       0.00000000       0.00000000       0.00000000
H       -0.04731196      -2.10860603      -0.00000017       0.00000000       0.00000000       0.00000000
H       -1.39354929      -1.34533532       0.88264680       0.00000000       0.00000000       0.00000000
H       -1.39354937      -1.34533605      -0.88264672       0.00000000       0.00000000       0.00000000
12
Lattice="20.0 0.0 0.0 0.0 20.0 0.0 0.0 0.0 20.0" Properties=species:S:1:pos:R:3:REF_forces:R:3 REF_energy=-8332.391644927915 pbc="F F F"
C        0.00475185       0.02928906      -0.00066105       0.00000000       0.00000000       0.00000000
O        1.28414807      -0.12777159       0.00000507       0.00000000       0.00000000       0.00000000
O        2.12046044       0.94586658      -0.00000240       0.00000000       0.00000000       0.00000000
C       -0.68910120       1.28848404       0.00014641       0.00000000       0.00000000       0.00000000
C       -0.14593547       2.52636196       0.00001567       0.00000000       0.00000000       0.00000000
C       -0.74615009      -1.26962694      -0.00213844       0.00000000       0.00000000       0.00000000
H       -1.77306030       1.18612517      -0.00022130       0.00000000       0.00000000       0.00000000
H        0.92470900       2.66386079       0.00000711       0.00000000       0.00000000       0.00000000
H       -0.80060299       3.39484021      -0.00031679       0.00000000       0.00000000       0.00000000
H       -0.04815675      -2.10926686       0.02799081       0.00000000       0.00000000       0.00000000
H       -1.38596325      -1.36254318       0.88524006       0.00000000       0.00000000       0.00000000
H       -1.39909736      -1.32762015      -0.88131388       0.00000000       0.00000000       0.00000000
12
Lattice="20.0 0.0 0.0 0.0 20.0 0.0 0.0 0.0 20.0" Properties=species:S:1:pos:R:3:REF_forces:R:3 REF_energy=-8332.264442850921 pbc="F F F"
C        0.00462503       0.02917810      -0.00000000       0.22794984      -0.02641953       0.00000000
O        1.28421222      -0.12776937       0.00000000      -0.11424525       0.13731415       0.00000000
O        2.12045334       0.94586081      -0.00000000      -0.12448473      -0.11709426       0.00000000
C       -0.69377223       1.28817882      -0.00000000       0.71699919       0.13029436      -0.00000000
C       -0.14517054       2.52384244      -0.00000000      -0.10459112       0.20269847      -0.00000000
C       -0.74929966      -1.26717872      -0.00000000       0.36332282      -0.25951432      -0.00000000
H       -1.71722894       1.19095789       0.00000000      -0.69778999      -0.06138639       0.00000000
H        0.93691614       2.66518244      -0.00000000      -0.11662530      -0.01944327       0.00000000
H       -0.82213540       3.42316282       0.00000000       0.20213486      -0.27607275       0.00000000
H       -0.02239041      -2.14013988      -0.00000000      -0.24053980       0.29406776       0.00000000
H       -1.38632473      -1.34395094       0.87385620      -0.05562881      -0.00226740       0.09625909
H       -1.38632473      -1.34395094      -0.87385620      -0.05562881      -0.00226740      -0.09625909
12
Lattice="20.0 0.0 0.0 0.0 20.0 0.0 0.0 0.0 20.0" Properties=species:S:1:pos:R:3:REF_forces:R:3 REF_energy=-8332.247596425352 pbc="F F F"
C        0.01971843       0.02658833       0.00000000       0.11198011      -0.06332198      -0.00000000
O        1.31178069      -0.16047722      -0.00000000      -0.40830603       0.48854522      -0.00000000
O        2.11866400       0.95990880       0.00000000      -0.09030067      -0.26695115       0.00000000
C       -0.72518321       1.31550494       0.00000000       0.27966725      -0.09132682       0.00000000
C       -0.15446013       2.55119378      -0.00000000       0.07064568      -0.23756809      -0.00000000
C       -0.75224636      -1.28922631       0.00000000       0.04233249       0.15837551      -0.00000000
H       -1.80809109       1.18749896       0.00000000       0.03121265      -0.00212500      -0.00000000
H        0.93427519       2.56279892       0.00000000      -0.06152587       0.06763834      -0.00000000
H       -0.71349720       3.49175197      -0.00000000      -0.02999378      -0.12137907      -0.00000000
H       -0.07469054      -2.14633529      -0.00000000       0.01600780       0.03558712      -0.00000000
H       -1.40220841      -1.35311753       0.88202452       0.01896396       0.01618819      -0.00605658
H       -1.40220841      -1.35311753      -0.88202452       0.01896396       0.01618819       0.00605659
12
Lattice="20.0 0.0 0.0 0.0 20.0 0.0 0.0 0.0 20.0" Properties=species:S:1:pos:R:3:REF_forces:R:3 REF_energy=-8332.301173572625 pbc="F F F"
C        0.00470916       0.02933566       0.00000001       0.00000000       0.00000000       0.00000000
O        1.28411242      -0.12778918       0.00000001       0.00000000       0.00000000       0.00000000
O        2.12048217       0.94587686       0.00000001       0.00000000       0.00000000       0.00000000
C       -0.68631433       1.28867852      -0.00000003       0.00000000       0.00000000       0.00000000
C       -0.14637104       2.52771888      -0.00000000       0.00000000       0.00000000       0.00000000
C       -0.75041249      -1.26618967       0.00000008       0.00000000       0.00000000       0.00000000
H       -1.80623569       1.18310591      -0.00000010       0.00000000       0.00000000       0.00000000
H        0.91810621       2.66317664       0.00000005       0.00000000       0.00000000       0.00000000
H       -0.78878088       3.37930608       0.00000002       0.00000000       0.00000000       0.00000000
H       -0.01220629      -2.15253969      -0.00000000       0.00000000       0.00000000       0.00000000
H       -1.38477567      -1.34376938       0.87142919       0.00000000       0.00000000       0.00000000
H       -1.38477642      -1.34376958      -0.87143013       0.00000000       0.00000000       0.00000000
12
Lattice="20.0 0.0 0.0 0.0 20.0 0.0 0.0 0.0 20.0" Properties=species:S:1:pos:R:3:REF_forces:R:3 REF_energy=-8332.268597106164 pbc="F F F"
C        0.00487835       0.02939993       0.00000000       0.20102568      -0.05891445       0.00000000
O        1.28408414      -0.12777381      -0.00000000      -0.09431604       0.13839016      -0.00000000
O        2.12046755       0.94587236       0.00000000      -0.12777303      -0.11869626      -0.00000000
C       -0.68443018       1.28878940       0.00000000      -0.48010364       0.05587009       0.00000000
C       -0.14670038       2.52888139       0.00000000       0.09434205      -0.43259885      -0.00000000
C       -0.74300017      -1.27207528       0.00000000      -0.43413629       0.36165158      -0.00000000
H       -1.82889144       1.18129133      -0.00000000       0.49919510       0.04158480       0.00000000
H        0.91250171       2.66253973       0.00000000       0.13778409       0.00918114       0.00000000
H       -0.77907019       3.36651772      -0.00000000      -0.25401860       0.32297861       0.00000000
H       -0.07392132      -2.07839254       0.00000000       0.30647582      -0.36176039       0.00000000
H       -1.39873907      -1.34621185       0.89269521       0.07607518       0.02144535      -0.10252576
H       -1.39873907      -1.34621185      -0.89269521       0.07607518       0.02144535       0.10252576
12
Lattice="20.0 0.0 0.0 0.0 20.0 0.0 0.0 0.0 20.0" Properties=species:S:1:pos:R:3:REF_forces:R:3 REF_energy=-8332.368553385675 pbc="F F F"
C        0.03096892       0.00466802       0.00000000       0.16768180      -0.01581886       0.00000000
O        1.30989736      -0.14446943      -0.00000000      -0.14765873       0.19039326      -0.00000000
O        2.08225382       0.98399988      -0.00000000      -0.04981153      -0.20882664      -0.00000000
C       -0.64788159       1.26827039       0.00000000      -0.04696171       0.11945307       0.00000000
C       -0.14222181       2.52316410      -0.00000000      -0.02736956      -0.07537150      -0.00000000
C       -0.78468512      -1.25615072      -0.00000000       0.05361827      -0.03004383      -0.00000001
H       -1.73124122       1.15748346      -0.00000000      -0.00052385       0.00500756       0.00000000
H        0.91956509       2.71382262       0.00000000      -0.00531019      -0.01167156       0.00000000
H       -0.83767412       3.36165845      -0.00000000       0.01195374      -0.01374703       0.00000000
H       -0.14761892      -2.14641555      -0.00000000      -0.00690908       0.03482897       0.00000000
H       -1.43806219      -1.28480535       0.88228115       0.02600691       0.00309549      -0.01210906
H       -1.43806219      -1.28480535      -0.88228115       0.02600691       0.00309549       0.01210906
12
Lattice="20.0 0.0 0.0 0.0 20.0 0.0 0.0 0.0 20.0" Properties=species:S:1:pos:R:3:REF_forces:R:3 REF_energy=-8331.84428482813 pbc="F F F"
C       -0.04820557       0.04920123       0.00000000       1.55855505      -0.69357149      -0.00000000
O        1.30777598      -0.13359942      -0.00000000      -0.77942382       0.35225614      -0.00000000
O        2.12149126       0.94677236       0.00000000      -0.16037618      -0.15446013      -0.00000000
C       -0.67873456       1.27323472      -0.00000000      -0.34068527       0.62262028       0.00000000
C       -0.14769207       2.53161383       0.00000000       0.03682199      -0.23149299      -0.00000000
C       -0.74918850      -1.26554213       0.00000000       0.04108790      -0.14917562      -0.00000000
H       -1.76307942       1.17449886      -0.00000000      -0.02103853       0.02924148       0.00000000
H        0.92557904       2.65310157      -0.00000000       0.00308946       0.02164872      -0.00000000
H       -0.79561052       3.40448719      -0.00000000      -0.01358516      -0.03113985       0.00000000
H       -0.14698908      -2.18747278      -0.00000000       0.21987083       0.21274801       0.00000000
H       -1.26440586      -1.34395739       0.97561463      -0.27218225       0.01067281      -0.25051750
H       -1.26440586      -1.34395739      -0.97561463      -0.27218225       0.01067281       0.25051750
12
Lattice="20.0 0.0 0.0 0.0 20.0 0.0 0.0 0.0 20.0" Properties=species:S:1:pos:R:3:REF_forces:R:3 REF_energy=-8332.388858394981 pbc="F F F"
C       -0.00697302       0.04030013      -0.00000069       0.00000000       0.00000000       0.00000000
O        1.27263296      -0.12030377      -0.00000056       0.00000000       0.00000000       0.00000000
O        2.13754848       0.92881236       0.00000043       0.00000000       0.00000000       0.00000000
C       -0.70753615       1.29752382      -0.00000024       0.00000000       0.00000000       0.00000000
C       -0.14759646       2.52779144       0.00000046       0.00000000       0.00000000       0.00000000
C       -0.72891720      -1.27565311       0.00000027       0.00000000       0.00000000       0.00000000
H       -1.79176314       1.19893280       0.00000175       0.00000000       0.00000000       0.00000000
H        0.92700937       2.64151599      -0.00000136       0.00000000       0.00000000       0.00000000
H       -0.78402356       3.40967952       0.00000294       0.00000000       0.00000000       0.00000000
H       -0.00367621      -2.09265260       0.00000278       0.00000000       0.00000000       0.00000000
H       -1.37217251      -1.37203501       0.88371976       0.00000000       0.00000000       0.00000000
H       -1.37216938      -1.37203777      -0.88372131       0.00000000       0.00000000       0.00000000
12
Lattice="20.0 0.0 0.0 0.0 20.0 0.0 0.0 0.0 20.0" Properties=species:S:1:pos:R:3:REF_forces:R:3 REF_energy=-8332.401848043928 pbc="F F F"
C        0.00743947       0.02815931      -0.00000128       0.18161441      -0.02687026       0.00028227
O        1.28513072      -0.12076902      -0.00000094      -0.12035546       0.02109791       0.00013103
O        2.11642056       0.94009711      -0.00000045      -0.05991031      -0.02294506       0.00006643
C       -0.69004154       1.28930715       0.00000056       0.02434287       0.07299183      -0.00008439
C       -0.14597012       2.52773035       0.00000045      -0.02555563      -0.09655046      -0.00002511
C       -0.74212165      -1.27339939      -0.00041879      -0.05378386       0.04795973       0.05024967
H       -1.77407150       1.18650155      -0.00000415       0.00578243      -0.00022776       0.00004469
H        0.92507047       2.66244803      -0.00000226       0.00674351      -0.00378218       0.00002777
H       -0.79620570       3.39959670      -0.00000071      -0.00489843      -0.01525171      -0.00000098
H       -0.06785019      -2.13241505      -0.00008130       0.01513697       0.03367262       0.00069517
H       -1.39643378      -1.32920252       0.88335818       0.03500400      -0.00589187      -0.03125678
H       -1.39256650      -1.32880364      -0.87825393      -0.00425018      -0.00911238      -0.02016880
12
Lattice="20.0 0.0 0.0 0.0 20.0 0.0 0.0 0.0 20.0" Properties=species:S:1:pos:R:3:REF_forces:R:3 REF_energy=-8332.269678917095 pbc="F F F"
C        0.00475156       0.02929094       0.06782020       0.00000000       0.00000000       0.00000000
O        1.28414876      -0.12777195       0.13664343       0.00000000       0.00000000       0.00000000
O        2.12046678       0.94586174      -0.11304529       0.00000000       0.00000000       0.00000000
C       -0.68910544       1.28848444      -0.01496001       0.00000000       0.00000000       0.00000000
C       -0.14593862       2.52636345       0.01010768       0.00000000       0.00000000       0.00000000
C       -0.74615063      -1.26962467      -0.06300857       0.00000000       0.00000000       0.00000000
H       -1.77306490       1.18612282      -0.07145681       0.00000000       0.00000000       0.00000000
H        0.92470766       2.66386046       0.04312400       0.00000000       0.00000000       0.00000000
H       -0.80060462       3.39484417       0.00390524       0.00000000       0.00000000       0.00000000
H       -0.04815728      -2.10926494      -0.21002648       0.00000000       0.00000000       0.00000000
H       -1.38480759      -1.48750876       0.81345933       0.00000000       0.00000000       0.00000000
H       -1.40025873      -1.20264707      -0.95309298       0.00000000       0.00000000       0.00000000
12
Lattice="20.0 0.0 0.0 0.0 20.0 0.0 0.0 0.0 20.0" Properties=species:S:1:pos:R:3:REF_forces:R:3 REF_energy=-8332.376047424914 pbc="F F F"
C        0.00743947       0.02815931      -0.00001010       0.18122396      -0.02712852       0.00224639
O        1.28513072      -0.12076902      -0.00000787      -0.12018914       0.02109814       0.00105236
O        2.11642056       0.94009711      -0.00000366      -0.06000169      -0.02304731       0.00053065
C       -0.69004154       1.28930715       0.00000621       0.02430009       0.07299838      -0.00069182
C       -0.14597012       2.52773035       0.00000201      -0.02554446      -0.09656292      -0.00017894
C       -0.74212165      -1.27339939      -0.00335046      -0.02658971       0.05032909       0.40378727
H       -1.77407150       1.18650155      -0.00003945       0.00579983      -0.00023553       0.00036513
H        0.92507047       2.66244803      -0.00001560       0.00673764      -0.00376769       0.00021857
H       -0.79620570       3.39959670       0.00000366      -0.00489499      -0.01525488      -0.00001795
H       -0.06785019      -2.13241505      -0.00065097       0.01492898       0.03380155       0.00554913
H       -1.40996951      -1.33059973       0.90122262       0.15972231       0.00437601      -0.19540971
H       -1.37903077      -1.32740642      -0.86038949      -0.15568543      -0.02149167      -0.21768678
12
Lattice="20.0 0.0 0.0 0.0 20.0 0.0 0.0 0.0 20.0" Properties=species:S:1:pos:R:3:REF_forces:R:3 REF_energy=-8332.389949960114 pbc="F F F"
C        0.00171378       0.02654025      -0.00000000       0.00000000       0.00000000       0.00000000
O        1.28581944      -0.12728448       0.00000001       0.00000000       0.00000000       0.00000000
O        2.12046584       0.94560139       0.00000001       0.00000000       0.00000000       0.00000000
C       -0.68994096       1.29103653      -0.00000001       0.00000000       0.00000000       0.00000000
C       -0.14371115       2.52895832      -0.00000001       0.00000000       0.00000000       0.00000000
C       -0.74498821      -1.26843247      -0.00000006       0.00000000       0.00000000       0.00000000
H       -1.77250928       1.16988324      -0.00000014       0.00000000       0.00000000       0.00000000
H        0.92974520       2.64853527       0.00000009       0.00000000       0.00000000       0.00000000
H       -0.81951215       3.38116679       0.00000004       0.00000000       0.00000000       0.00000000
H       -0.04838482      -2.10906482       0.00000070       0.00000000       0.00000000       0.00000000
H       -1.39613350      -1.34574054       0.87988118       0.00000000       0.00000000       0.00000000
H       -1.39613384      -1.34574004      -0.87988105       0.00000000       0.00000000       0.00000000
12
Lattice="20.0 0.0 0.0 0.0 20.0 0.0 0.0 0.0 20.0" Properties=species:S:1:pos:R:3:REF_forces:R:3 REF_energy=-8332.052970987697 pbc="F F F"
C        0.00475169       0.02928901       0.00145111       0.19813768      -0.04763929      -0.02120754
O        1.28414818      -0.12777159       0.00016023      -0.08277134       0.15479548      -0.00033441
O        2.12046044       0.94586659      -0.00044638      -0.13544502      -0.13868273       0.00658255
C       -0.68910120       1.28848411      -0.01837764       0.00434292       0.05567865       0.23122817
C       -0.14593546       2.52636191       0.05756562       0.14577445       0.23609819      -0.87311075
C       -0.74614992      -1.26962700      -0.00068505      -0.00505196       0.00494538       0.00848377
H       -1.77306019       1.18612461       0.00213139       0.00218740      -0.00737112      -0.00615131
H        0.92470893       2.66386108      -0.24195691      -0.26356788      -0.06660059       0.33613045
H       -0.80060280       3.39484027      -0.23553261       0.11350920      -0.21916663       0.32191110
H       -0.04815587      -2.10926621       0.00160834      -0.00193153       0.00765812      -0.00141517
H       -1.39056478      -1.34129282       0.88436778       0.01062668       0.00629633      -0.00807388
H       -1.39449902      -1.34886996      -0.88218364       0.01463247       0.01438260       0.00594906
12
Lattice="20.0 0.0 0.0 0.0 20.0 0.0 0.0 0.0 20.0" Properties=species:S:1:pos:R:3:REF_forces:R:3 REF_energy=-8332.38771134951 pbc="F F F"
C        0.00277439       0.02665934       0.00000595       0.00000000       0.00000000       0.00000000
O        1.27967320      -0.13290899      -0.00000029       0.00000000       0.00000000       0.00000000
O        2.12367042       0.94998755      -0.00000022       0.00000000       0.00000000       0.00000000
C       -0.69159529       1.28974549      -0.00000095       0.00000000       0.00000000       0.00000000
C       -0.14402626       2.52602427      -0.00000018       0.00000000       0.00000000       0.00000000
C       -0.74027770      -1.26980204      -0.00000659       0.00000000       0.00000000       0.00000000
H       -1.77673439       1.19954558      -0.00000248       0.00000000       0.00000000       0.00000000
H        0.92490168       2.67599617      -0.00000285       0.00000000       0.00000000       0.00000000
H       -0.80856051       3.38734604       0.00000527       0.00000000       0.00000000       0.00000000
H       -0.05760253      -2.12159949       0.00001364       0.00000000       0.00000000       0.00000000
H       -1.39175488      -1.32865019       0.88107486       0.00000000       0.00000000       0.00000000
H       -1.39178740      -1.32869271      -0.88105930       0.00000000       0.00000000       0.00000000
12
Lattice="20.0 0.0 0.0 0.0 20.0 0.0 0.0 0.0 20.0" Properties=species:S:1:pos:R:3:REF_forces:R:3 REF_energy=-8331.865022745194 pbc="F F F"
C        0.00475169       0.02928901       0.06871347       0.17621186      -0.13079249      -0.04669255
O        1.28414818      -0.12777159      -0.01078482      -0.14134655       0.20071899       0.02572797
O        2.12046044       0.94586659       0.06687985      -0.10933022      -0.12353580      -0.03278552
C       -0.68910120       1.28848411       0.23233201       0.09013052       0.64498851      -0.24863016
C       -0.14593546       2.52636191      -0.20487592       0.06470706      -0.66199164       0.15226125
C       -0.74614992      -1.26962700      -0.11498610      -0.04584988      -0.09211843       0.01819374
H       -1.77306019       1.18612461       0.62151207       0.52809825       0.11995485      -0.22066510
H        0.92470893       2.66386108      -0.64947979      -0.64933132      -0.18256970       0.30825942
H       -0.80060280       3.39484027      -0.14074672       0.03439836       0.00187641      -0.01151560
H       -0.04815587      -2.10926621      -0.36132069      -0.13420796       0.21039400       0.06723436
H       -1.30727524      -1.53424512       0.81520853       0.07574349       0.04777446      -0.17532944
H       -1.47778856      -1.15591766      -0.95134289       0.11069551      -0.03427058       0.16339171
12
Lattice="20.0 0.0 0.0 0.0 20.0 0.0 0.0 0.0 20.0" Properties=species:S:1:pos:R:3:REF_forces:R:3 REF_energy=-8332.398651301142 pbc="F F F"
C        0.00741823       0.02814071      -0.00000003       0.18377706      -0.02394678      -0.00000006
O        1.28514146      -0.12076865       0.00000005      -0.12213659       0.02091984      -0.00000026
O        2.11641937       0.94009614       0.00000001      -0.05959341      -0.02276889       0.00000012
C       -0.69082490       1.28925595      -0.00000025       0.12585325       0.07945360       0.00000233
C       -0.14584184       2.52730782       0.00000023      -0.04128434      -0.04456848      -0.00000318
C       -0.74264988      -1.27298880       0.00000002       0.01054421      -0.00389420       0.00000017
H       -1.76470832       1.18731211       0.00000089      -0.09561355      -0.00895714      -0.00000101
H        0.92711769       2.66266963      -0.00000035      -0.01449948      -0.00605444       0.00000041
H       -0.79981683       3.40434654      -0.00000134       0.03212459      -0.06437898       0.00000159
H       -0.06352919      -2.13759272       0.00000008      -0.02823462       0.08784047       0.00000008
H       -1.39345913      -1.32881334       0.87922642       0.00443606      -0.00931387       0.01094376
H       -1.39345920      -1.32881366      -0.87922629       0.00443610      -0.00931354      -0.01094381
12
Lattice="20.0 0.0 0.0 0.0 20.0 0.0 0.0 0.0 20.0" Properties=species:S:1:pos:R:3:REF_forces:R:3 REF_energy=-8331.944524598528 pbc="F F F"
C       -0.06702314       0.00816173      -0.00000000       0.24412665       0.04806993      -0.00000000
O        1.22263083      -0.08748605      -0.00000000       0.02664027       0.07472489       0.00000000
O        1.97623268       1.04524052       0.00000000       0.30730128      -0.56070788       0.00000000
C       -0.67146830       1.30669314       0.00000000       0.02295755       0.15339423      -0.00000000
C        0.06352812       2.47284197      -0.00000000      -0.40575381       0.08313410       0.00000000
C       -0.69818746      -1.36615929       0.00000000      -0.02078901       0.05374083      -0.00000000
H       -1.76769895       1.34263236       0.00000000       0.09543517      -0.00892076      -0.00000000
H        1.14771618       2.44980736      -0.00000000      -0.22537951       0.10870248      -0.00000000
H       -0.47260131       3.43212812      -0.00000000      -0.02696645      -0.09801007      -0.00000000
H        0.11445646      -2.11166845       0.00000000      -0.08795296       0.06813030      -0.00000000
H       -1.33033597      -1.53072895       0.88535220       0.03550576       0.03885351      -0.02909180
H       -1.33033597      -1.53072895      -0.88535220       0.03550576       0.03885351       0.02909181
12
Lattice="20.0 0.0 0.0 0.0 20.0 0.0 0.0 0.0 20.0" Properties=species:S:1:pos:R:3:REF_forces:R:3 REF_energy=-8332.387385956614 pbc="F F F"
C        0.00745540       0.02814180      -0.00000003       0.17958676      -0.02546748      -0.00000005
O        1.28514413      -0.12076244       0.00000005      -0.12217328       0.02026192      -0.00000026
O        2.11641242       0.94009326       0.00000001      -0.05858133      -0.02228263       0.00000012
C       -0.69108711       1.28923420      -0.00000025       0.16076470       0.08207245       0.00000230
C       -0.14580671       2.52722142       0.00000023      -0.04534967      -0.03419578      -0.00000320
C       -0.74052344      -1.27468818       0.00000002      -0.26054112       0.22667447       0.00000015
H       -1.76162496       1.18763408       0.00000089      -0.13022152      -0.01256544      -0.00000098
H        0.92754662       2.66270469      -0.00000035      -0.01887298      -0.00640474       0.00000041
H       -0.80063975       3.40542311      -0.00000134       0.04041463      -0.07513991       0.00000160
H       -0.08132909      -2.11619012       0.00000008       0.16255654      -0.15172199       0.00000009
H       -1.39740813      -1.32949481       0.88524770       0.04619871      -0.00308579      -0.05185017
H       -1.39740820      -1.32949512      -0.88524758       0.04619875      -0.00308545       0.05185011
12
Lattice="20.0 0.0 0.0 0.0 20.0 0.0 0.0 0.0 20.0" Properties=species:S:1:pos:R:3:REF_forces:R:3 REF_energy=-8332.335094776941 pbc="F F F"
C        0.00475220       0.02928909      -0.00064894       0.00000000       0.00000000       0.00000000
O        1.28414812      -0.12777119      -0.00007166       0.00000000       0.00000000       0.00000000
O        2.12046015       0.94586625       0.00019963       0.00000000       0.00000000       0.00000000
C       -0.68910112       1.28848447       0.00821874       0.00000000       0.00000000       0.00000000
C       -0.14593581       2.52636190      -0.02574413       0.00000000       0.00000000       0.00000000
C       -0.74614962      -1.26962741       0.00030635       0.00000000       0.00000000       0.00000000
H       -1.77305977       1.18612431      -0.00095327       0.00000000       0.00000000       0.00000000
H        0.92470871       2.66385922       0.10820637       0.00000000       0.00000000       0.00000000
H       -0.80060173       3.39484109       0.10533344       0.00000000       0.00000000       0.00000000
H       -0.04815766      -2.10926829      -0.00071924       0.00000000       0.00000000       0.00000000
H       -1.39341177      -1.34677449       0.88278707       0.00000000       0.00000000       0.00000000
H       -1.39165237      -1.34338597      -0.88376383       0.00000000       0.00000000       0.00000000
12
Lattice="20.0 0.0 0.0 0.0 20.0 0.0 0.0 0.0 20.0" Properties=species:S:1:pos:R:3:REF_forces:R:3 REF_energy=-8332.400531524157 pbc="F F F"
C        0.00743416       0.02816514      -0.00000003       0.18229219      -0.02740020      -0.00000005
O        1.28512625      -0.12077122       0.00000005      -0.11974630       0.02138700      -0.00000026
O        2.11642328       0.94009839       0.00000001      -0.06036119      -0.02316779       0.00000012
C       -0.68969302       1.28933147      -0.00000025      -0.01876864       0.07020219       0.00000245
C       -0.14602459       2.52789999       0.00000023      -0.01858982      -0.11798570      -0.00000307
C       -0.74265439      -1.27296980       0.00000002       0.01085630      -0.00603975       0.00000017
H       -1.77822035       1.18612403       0.00000089       0.04878318       0.00366649      -0.00000114
H        0.92424509       2.66236248      -0.00000035       0.01535710      -0.00290674       0.00000041
H       -0.79472769       3.39765457      -0.00000134      -0.02047197       0.00532293       0.00000148
H       -0.06335722      -2.13782336       0.00000008      -0.02988186       0.09009170       0.00000007
H       -1.39353076      -1.32883896       0.87932559       0.00517696      -0.00903495       0.00991386
H       -1.39353084      -1.32883928      -0.87932547       0.00517700      -0.00903462      -0.00991391
12
Lattice="20.0 0.0 0.0 0.0 20.0 0.0 0.0 0.0 20.0" Properties=species:S:1:pos:R:3:REF_forces:R:3 REF_energy=-8332.398162887423 pbc="F F F"
C        0.00475169       0.02928901       0.00000000       0.21543006      -0.04177014       0.00000000
O        1.28414818      -0.12777159       0.00000000      -0.10426882       0.13752164       0.00000000
O        2.12046044       0.94586659       0.00000000      -0.12610961      -0.11790376       0.00000000
C       -0.68910120       1.28848411       0.00000000       0.01180535       0.08167932      -0.00000000
C       -0.14593546       2.52636191       0.00000000      -0.02527663      -0.08019011       0.00000000
C       -0.74614992      -1.26962700       0.00000000      -0.00514634       0.00673126      -0.00000000
H       -1.77306019       1.18612461       0.00000000       0.00517762      -0.00013076      -0.00000000
H        0.92470893       2.66386108       0.00000000       0.00640062      -0.00525113       0.00000000
H       -0.80060280       3.39484027       0.00000000      -0.00046083      -0.00936619       0.00000000
H       -0.04815587      -2.10926621       0.00000000      -0.00150635       0.00815434       0.00000000
H       -1.39253190      -1.34508139       0.88327571       0.01231089       0.01040916      -0.00684131
H       -1.39253190      -1.34508139      -0.88327571       0.01231089       0.01040916       0.00684131
12
Lattice="20.0 0.0 0.0 0.0 20.0 0.0 0.0 0.0 20.0" Properties=species:S:1:pos:R:3:REF_forces:R:3 REF_energy=-8332.276323379754 pbc="F F F"
C       -0.00046007       0.02856875       0.00000005       0.00000000       0.00000000       0.00000000
O        1.28493745      -0.12842724      -0.00000007       0.00000000       0.00000000       0.00000000
O        2.12143645       0.94666866      -0.00000002       0.00000000       0.00000000       0.00000000
C       -0.68676821       1.28407162       0.00000002       0.00000000       0.00000000       0.00000000
C       -0.14840359       2.52594960       0.00000002       0.00000000       0.00000000       0.00000000
C       -0.73383215      -1.25239330      -0.00000016       0.00000000       0.00000000       0.00000000
H       -1.77207052       1.20059080       0.00000071       0.00000000       0.00000000       0.00000000
H        0.92063163       2.67381510       0.00000011       0.00000000       0.00000000       0.00000000
H       -0.78203424       3.41053344      -0.00000012       0.00000000       0.00000000       0.00000000
H       -0.11195957      -2.15587940       0.00000137       0.00000000       0.00000000       0.00000000
H       -1.42391403      -1.41263782       0.84675559       0.00000000       0.00000000       0.00000000
H       -1.42391485      -1.41263547      -0.84675544       0.00000000       0.00000000       0.00000000
12
Lattice="20.0 0.0 0.0 0.0 20.0 0.0 0.0 0.0 20.0" Properties=species:S:1:pos:R:3:REF_forces:R:3 REF_energy=-8332.297456940545 pbc="F F F"
C        0.00477226       0.02926732      -0.00000000       0.00000000       0.00000000       0.00000000
O        1.28408540      -0.12777862       0.00000001       0.00000000       0.00000000       0.00000000
O        2.12047221       0.94587958       0.00000003       0.00000000       0.00000000       0.00000000
C       -0.68919970       1.28841657      -0.00000005       0.00000000       0.00000000       0.00000000
C       -0.14593023       2.52639658      -0.00000001       0.00000000       0.00000000       0.00000000
C       -0.74280103      -1.26734629       0.00000002       0.00000000       0.00000000       0.00000000
H       -1.77168715       1.18631889      -0.00000021       0.00000000       0.00000000       0.00000000
H        0.92472644       2.66380093       0.00000010       0.00000000       0.00000000       0.00000000
H       -0.80063872       3.39492379      -0.00000002       0.00000000       0.00000000       0.00000000
H       -0.03011170      -2.13018417      -0.00000003       0.00000000       0.00000000       0.00000000
H       -1.42134656      -1.34804219       0.92428713       0.00000000       0.00000000       0.00000000
H       -1.42134665      -1.34804246      -0.92428708       0.00000000       0.00000000       0.00000000
12
Lattice="20.0 0.0 0.0 0.0 20.0 0.0 0.0 0.0 20.0" Properties=species:S:1:pos:R:3:REF_forces:R:3 REF_energy=-8332.287373635378 pbc="F F F"
C        0.00466936       0.02433893       0.00000033       0.00000000       0.00000000       0.00000000
O        1.28183226      -0.12742533      -0.00000003       0.00000000       0.00000000       0.00000000
O        2.12155888       0.94640485       0.00000020       0.00000000       0.00000000       0.00000000
C       -0.70460337       1.27900226      -0.00000030       0.00000000       0.00000000       0.00000000
C       -0.13186921       2.53580037      -0.00000032       0.00000000       0.00000000       0.00000000
C       -0.74642138      -1.26671339      -0.00000035       0.00000000       0.00000000       0.00000000
H       -1.78070288       1.07431610      -0.00000056       0.00000000       0.00000000       0.00000000
H        0.92885825       2.75469874       0.00000140       0.00000000       0.00000000       0.00000000
H       -0.76503501       3.42394072       0.00000023       0.00000000       0.00000000       0.00000000
H       -0.04715107      -2.10520216       0.00000253       0.00000000       0.00000000       0.00000000
H       -1.38874442      -1.34580507       0.88589084       0.00000000       0.00000000       0.00000000
H       -1.38874688      -1.34580675      -0.88588950       0.00000000       0.00000000       0.00000000
12
Lattice="20.0 0.0 0.0 0.0 20.0 0.0 0.0 0.0 20.0" Properties=species:S:1:pos:R:3:REF_forces:R:3 REF_energy=-8332.38412165951 pbc="F F F"
C        0.01659313       0.02483628      -0.00000014       0.00000000       0.00000000       0.00000000
O        1.27886497      -0.12646837       0.00000002       0.00000000       0.00000000       0.00000000
O        2.12022994       0.94566403      -0.00000002       0.00000000       0.00000000       0.00000000
C       -0.69141934       1.29189441       0.00000005       0.00000000       0.00000000       0.00000000
C       -0.14554264       2.52518730       0.00000003       0.00000000       0.00000000       0.00000000
C       -0.74547049      -1.27054044      -0.00000013       0.00000000       0.00000000       0.00000000
H       -1.77529172       1.18872262      -0.00000003       0.00000000       0.00000000       0.00000000
H        0.92451412       2.66626756      -0.00000023       0.00000000       0.00000000       0.00000000
H       -0.80171884       3.39268291      -0.00000009       0.00000000       0.00000000       0.00000000
H       -0.02605566      -2.09177832       0.00000246       0.00000000       0.00000000       0.00000000
H       -1.42118114      -1.34533423       0.86262835       0.00000000       0.00000000       0.00000000
H       -1.42118219      -1.34533027      -0.86262802       0.00000000       0.00000000       0.00000000
12
Lattice="20.0 0.0 0.0 0.0 20.0 0.0 0.0 0.0 20.0" Properties=species:S:1:pos:R:3:REF_forces:R:3 REF_energy=-8332.384127500318 pbc="F F F"
C        0.00743332       0.02814167      -0.00000003       0.18261529      -0.02427784      -0.00000003
O        1.28514330      -0.12077090       0.00000005      -0.12288187       0.02128067      -0.00000027
O        2.11637833       0.94011584       0.00000001      -0.05253201      -0.02576680       0.00000013
C       -0.69014054       1.28938145      -0.00000025       0.03738481       0.06279167       0.00000240
C       -0.14879421       2.52802653       0.00000023       0.34142479      -0.14614138      -0.00000306
C       -0.74212426      -1.27340010       0.00000002      -0.05391755       0.04799249       0.00000017
H       -1.77252194       1.18672908       0.00000089      -0.01205663      -0.00292661      -0.00000110
H        0.95207929       2.66647864      -0.00000035      -0.28083326      -0.04627912       0.00000054
H       -0.78937705       3.39088163      -0.00000134      -0.08651721       0.09027753       0.00000135
H       -0.06784913      -2.13242003       0.00000008       0.01506610       0.03366122       0.00000008
H       -1.39449024      -1.32900384       0.88079568       0.01548422      -0.00739625      -0.00570783
H       -1.39449032      -1.32900416      -0.88079556       0.01548426      -0.00739592       0.00570778
12
Lattice="20.0 0.0 0.0 0.0 20.0 0.0 0.0 0.0 20.0" Properties=species:S:1:pos:R:3:REF_forces:R:3 REF_energy=-8332.344794896324 pbc="F F F"
C       -0.00125866       0.03181493      -0.00000000       0.29117047      -0.07814179      -0.00000000
O        1.28195138      -0.14342934      -0.00000000      -0.08874657       0.37199837       0.00000000
O        2.12949379       0.95876719       0.00000000      -0.25025242      -0.30202574       0.00000000
C       -0.68699875       1.28664347       0.00000000      -0.01641453       0.10740948      -0.00000000
C       -0.14585749       2.52330173      -0.00000000      -0.02650683      -0.04381185       0.00000000
C       -0.75515745      -1.26119139       0.00000000       0.10410193      -0.10838327       0.00000000
H       -1.77079941       1.18528261       0.00000000       0.00305769       0.00087002      -0.00000000
H        0.92390060       2.66702382       0.00000000       0.00738091      -0.00858177      -0.00000000
H       -0.81043649       3.38420301      -0.00000000       0.00989580       0.00111443      -0.00000000
H       -0.00411733      -2.05750313      -0.00000000      -0.05950461      -0.03463032      -0.00000000
H       -1.38813066      -1.38103337       0.88879832       0.01326019       0.04735819      -0.01790350
H       -1.38813066      -1.38103337      -0.88879832       0.01326019       0.04735819       0.01790350
12
Lattice="20.0 0.0 0.0 0.0 20.0 0.0 0.0 0.0 20.0" Properties=species:S:1:pos:R:3:REF_forces:R:3 REF_energy=-8332.064403313183 pbc="F F F"
C       -0.00399004       0.02808200      -0.00000000       0.46688961       0.03638528      -0.00000000
O        1.28547233      -0.12887146       0.00000000      -0.14970559       0.17509862       0.00000000
O        2.12209738       0.94721180       0.00000000      -0.17933132      -0.16107115       0.00000000
C       -0.68518753       1.28108441       0.00000000      -0.09558220       0.27724930      -0.00000000
C       -0.15007504       2.52567044      -0.00000000       0.07984610      -0.05792939       0.00000000
C       -0.72549221      -1.24072546       0.00000000      -0.62162340      -0.90603586       0.00000000
H       -1.77139986       1.21038686       0.00000000       0.00492908      -0.05244381      -0.00000000
H        0.91787185       2.68054787       0.00000000       0.02114185      -0.04255917      -0.00000000
H       -0.76946668       3.42115558       0.00000000      -0.06544285      -0.06956712      -0.00000000
H       -0.15515809      -2.18743975       0.00000000       0.20491262       0.23944391      -0.00000000
H       -1.44516279      -1.45837443       0.82202911       0.16713608       0.28120986       0.08613522
H       -1.44516279      -1.45837443      -0.82202911       0.16713608       0.28120987      -0.08613522
12
Lattice="20.0 0.0 0.0 0.0 20.0 0.0 0.0 0.0 20.0" Properties=species:S:1:pos:R:3:REF_forces:R:3 REF_energy=-8331.917592300626 pbc="F F F"
C        0.05551379       0.00185930       0.00000000      -1.51075175       0.61687414       0.00000000
O        1.25594507      -0.12150179      -0.00000000       1.29714706      -0.12706344       0.00000000
O        2.12037653       0.94527938      -0.00000000      -0.10105292      -0.08571664      -0.00000000
C       -0.70252465       1.30646078      -0.00000000       0.33712235      -0.32544890      -0.00000000
C       -0.13963040       2.52918692       0.00000000      -0.20586986      -0.12682310      -0.00000000
C       -0.75973241      -1.24949831      -0.00000000       0.26289195      -0.53451972      -0.00000000
H       -1.78572589       1.19471931      -0.00000000       0.02787467      -0.01929190       0.00000000
H        0.93598735       2.63538382      -0.00000000      -0.02060012       0.05735854      -0.00000000
H       -0.85042358       3.35567234      -0.00000000       0.12050992       0.07108011       0.00000000
H       -0.12718147      -2.14943670      -0.00000000       0.17907744       0.10423500       0.00000000
H       -1.28202612      -1.42101020       0.96209523      -0.19419663       0.18500231      -0.22501124
H       -1.28202612      -1.42101020      -0.96209523      -0.19419663       0.18500231       0.22501125
12
Lattice="20.0 0.0 0.0 0.0 20.0 0.0 0.0 0.0 20.0" Properties=species:S:1:pos:R:3:REF_forces:R:3 REF_energy=-8332.291987344928 pbc="F F F"
C        0.00474342       0.02927884      -0.02551195       0.00000000       0.00000000       0.00000000
O        1.28413319      -0.12779038       0.00127059       0.00000000       0.00000000       0.00000000
O        2.12047200       0.94588140       0.00093199       0.00000000       0.00000000       0.00000000
C       -0.68911228       1.28848830       0.00446904       0.00000000       0.00000000       0.00000000
C       -0.14592671       2.52636044       0.00062486       0.00000000       0.00000000       0.00000000
C       -0.74612825      -1.26962719       0.02818453       0.00000000       0.00000000       0.00000000
H       -1.77307678       1.18617905       0.00670416       0.00000000       0.00000000       0.00000000
H        0.92471046       2.66391557       0.01095183       0.00000000       0.00000000       0.00000000
H       -0.80063627       3.39480878      -0.02116444       0.00000000       0.00000000       0.00000000
H       -0.04819025      -2.10931122      -0.05785290       0.00000000       0.00000000       0.00000000
H       -1.46189546      -1.43562646       0.85019358       0.00000000       0.00000000       0.00000000
H       -1.32316272      -1.25441444      -0.91634205       0.00000000       0.00000000       0.00000000
12
Lattice="20.0 0.0 0.0 0.0 20.0 0.0 0.0 0.0 20.0" Properties=species:S:1:pos:R:3:REF_forces:R:3 REF_energy=-8332.391541045745 pbc="F F F"
C        0.00475180       0.02928906       0.00020125       0.00000000       0.00000000       0.00000000
O        1.28414813      -0.12777146      -0.00063705       0.00000000       0.00000000       0.00000000
O        2.12046038       0.94586650       0.00023627       0.00000000       0.00000000       0.00000000
C       -0.68910105       1.28848404       0.00496934       0.00000000       0.00000000       0.00000000
C       -0.14593562       2.52636218      -0.00064031       0.00000000       0.00000000       0.00000000
C       -0.74614990      -1.26962718       0.00060690       0.00000000       0.00000000       0.00000000
H       -1.77305997       1.18612366      -0.04631497       0.00000000       0.00000000       0.00000000
H        0.92470899       2.66385987      -0.02371896       0.00000000       0.00000000       0.00000000
H       -0.80060191       3.39484135       0.01735957       0.00000000       0.00000000       0.00000000
H       -0.04815635      -2.10926674      -0.00105546       0.00000000       0.00000000       0.00000000
H       -1.39379274      -1.34657862       0.88271303       0.00000000       0.00000000       0.00000000
H       -1.39127126      -1.34358408      -0.88383819       0.00000000       0.00000000       0.00000000
12
Lattice="20.0 0.0 0.0 0.0 20.0 0.0 0.0 0.0 20.0" Properties=species:S:1:pos:R:3:REF_forces:R:3 REF_energy=-8332.17156191184 pbc="F F F"
C        0.00475169       0.02928901      -0.10898800       0.25676871      -0.08484804       0.26428328
O        1.28414818      -0.12777159       0.06354963      -0.18911167       0.20051316      -0.21254526
O        2.12046044       0.94586659      -0.00740486      -0.15800138      -0.13366101       0.02995889
C       -0.68910120       1.28848411      -0.02334845      -0.17593546       0.06942030       0.08861423
C       -0.14593546       2.52636191       0.01421472       0.07988148       0.19888280      -0.00796725
C       -0.74614992      -1.26962700       0.00734214      -0.03794401       0.00934356      -0.01486328
H       -1.77306019       1.18612461       0.21012645       0.21598998      -0.01316373      -0.07926067
H        0.92470893       2.66386108      -0.27649839      -0.33437384       0.00911983       0.14435501
H       -0.80060280       3.39484027       0.34576201       0.27570933      -0.30260826      -0.18161461
H       -0.04815587      -2.10926621       0.04686531      -0.00246935       0.01574327      -0.00923800
H       -1.34302028      -1.26936178       0.93460201       0.02653462       0.00156277      -0.05378878
H       -1.44204352      -1.42080101      -0.83194941       0.04298690       0.02982927       0.03254891
12
Lattice="20.0 0.0 0.0 0.0 20.0 0.0 0.0 0.0 20.0" Properties=species:S:1:pos:R:3:REF_forces:R:3 REF_energy=-8331.809299993147 pbc="F F F"
C        0.03811999       0.01939115       0.06987976       0.36125757      -0.34109366      -0.23681476
O        1.33519484      -0.10395494       0.01706643      -0.31030737       0.23970970       0.05039195
O        2.18476677       1.02068876      -0.00147528      -0.35822630      -0.34100572      -0.00351293
C       -0.72226150       1.23060333       0.01768889       0.83995329       0.23001449       0.15566165
C       -0.18057608       2.46380098      -0.12567702      -0.04948731      -0.26865569      -0.18934412
C       -0.83438406      -1.27531018       0.03040412       0.71963518       0.64972370       0.52481556
H       -1.70268013       1.06438848       0.31184505      -0.61063803       0.04120313       0.00877097
H        0.86380843       2.62910903      -0.34479344       0.02356449      -0.07211479       0.04449564
H       -0.85050154       3.27777259      -0.21603041      -0.18499129       0.28973959       0.07102986
H       -0.24237706      -2.16566730       0.05265099       0.05278485      -0.18559386       0.06555176
H       -1.50842323      -1.11223632       0.85583212      -0.08730051      -0.20417946       0.19189784
H       -1.41140609      -1.19274647      -0.81503447      -0.39623096      -0.03745365      -0.68257174
12
Lattice="20.0 0.0 0.0 0.0 20.0 0.0 0.0 0.0 20.0" Properties=species:S:1:pos:R:3:REF_forces:R:3 REF_energy=-8332.293713785006 pbc="F F F"
C        0.00475232       0.02928921      -0.00264421       0.00000000       0.00000000       0.00000000
O        1.28414774      -0.12777158       0.00002028       0.00000000       0.00000000       0.00000000
O        2.12046041       0.94586658      -0.00000959       0.00000000       0.00000000       0.00000000
C       -0.68910118       1.28848381       0.00058565       0.00000000       0.00000000       0.00000000
C       -0.14593549       2.52636210       0.00006269       0.00000000       0.00000000       0.00000000
C       -0.74615061      -1.26962675      -0.00855377       0.00000000       0.00000000       0.00000000
H       -1.77306064       1.18612686      -0.00088521       0.00000000       0.00000000       0.00000000
H        0.92470924       2.66385991       0.00002843       0.00000000       0.00000000       0.00000000
H       -0.80060356       3.39484005      -0.00126717       0.00000000       0.00000000       0.00000000
H       -0.04815941      -2.10926879       0.11196324       0.00000000       0.00000000       0.00000000
H       -1.36625730      -1.41492855       0.89113310       0.00000000       0.00000000       0.00000000
H       -1.41879373      -1.27523644      -0.87542840       0.00000000       0.00000000       0.00000000
12
Lattice="20.0 0.0 0.0 0.0 20.0 0.0 0.0 0.0 20.0" Properties=species:S:1:pos:R:3:REF_forces:R:3 REF_energy=-8332.384222952696 pbc="F F F"
C        0.00743046       0.02816880      -0.00000003       0.18199893      -0.03049609      -0.00000006
O        1.28515817      -0.12076597       0.00000005      -0.12391337       0.02081030      -0.00000026
O        2.11641543       0.94009143       0.00000001      -0.05917718      -0.02211807       0.00000012
C       -0.68999850       1.28933669      -0.00000025       0.01913426       0.06997070       0.00000242
C       -0.14597240       2.52771521       0.00000023      -0.02531579      -0.09501994      -0.00000310
C       -0.74358680      -1.27439720       0.00000002       0.13372330       0.16537828       0.00000016
H       -1.77467146       1.18641667       0.00000089       0.01176061       0.00066943      -0.00000111
H        0.92506270       2.66247430      -0.00000035       0.00681383      -0.00403000       0.00000041
H       -0.79618987       3.39956001      -0.00000134      -0.00507727      -0.01493007       0.00000151
H       -0.07574452      -2.12326346       0.00000008       0.09181143      -0.05957199       0.00000009
H       -1.38189369      -1.32770751       0.86286357      -0.11599022      -0.01787068       0.17946480
H       -1.38189376      -1.32770783      -0.86286345      -0.11599020      -0.01787040      -0.17946486
12
Lattice="20.0 0.0 0.0 0.0 20.0 0.0 0.0 0.0 20.0" Properties=species:S:1:pos:R:3:REF_forces:R:3 REF_energy=-8331.779696099667 pbc="F F F"
C        0.00474778       0.02929187      -0.02706514       0.00000000       0.00000000       0.00000000
O        1.28414454      -0.12777480      -0.01048019       0.00000000       0.00000000       0.00000000
O        2.12046374       0.94585765       0.03924463       0.00000000       0.00000000       0.00000000
C       -0.68910052       1.28848960      -0.04701733       0.00000000       0.00000000       0.00000000
C       -0.14592663       2.52636296       0.00250791       0.00000000       0.00000000       0.00000000
C       -0.74615583      -1.26962224       0.02532945       0.00000000       0.00000000       0.00000000
H       -1.77305913       1.18613480      -0.11223585       0.00000000       0.00000000       0.00000000
H        0.92471851       2.66385307       0.07833888       0.00000000       0.00000000       0.00000000
H       -0.80058702       3.39484634      -0.03429823       0.00000000       0.00000000       0.00000000
H       -0.04816293      -2.10926168      -0.45787077       0.00000000       0.00000000       0.00000000
H       -0.98609827      -1.53806114       1.19355700       0.00000000       0.00000000       0.00000000
H       -1.79897571      -1.15209000      -0.57299369       0.00000000       0.00000000       0.00000000
12
Lattice="20.0 0.0 0.0 0.0 20.0 0.0 0.0 0.0 20.0" Properties=species:S:1:pos:R:3:REF_forces:R:3 REF_energy=-8331.768564622007 pbc="F F F"
C        0.08144184      -0.03922522       0.11382342       0.21252156       0.61016244      -0.00535172
O        1.38212771      -0.06148528       0.05400150      -0.36022860      -0.23064526       0.03699283
O        2.20707904       1.06949995      -0.00672023      -0.39908935      -0.26311268      -0.00096226
C       -0.68440149       1.20324871       0.12227809      -0.30804323      -0.12276567      -0.09482700
C       -0.27684891       2.36931166      -0.36565255      -0.03310717       0.46096943       0.20362266
C       -0.86846995      -1.20142058       0.10405888       0.42002913      -0.44854499      -0.19650823
H       -1.76835283       1.08541667       0.33834055       0.22875438       0.00757586       0.07155879
H        0.73471022       2.46497937      -0.68275261       0.19431812       0.04998358      -0.06766409
H       -0.88960125       3.29976302      -0.28947468       0.06681752      -0.27976676      -0.10935160
H       -0.42562020      -2.20443838       0.16155100       0.08122466       0.07352609       0.03251068
H       -1.61359915      -1.13658737       0.87475393      -0.07870167       0.09483131       0.17298406
H       -1.40256794      -1.18623168      -0.84864376      -0.02364998       0.04740250      -0.04270019
12
Lattice="20.0 0.0 0.0 0.0 20.0 0.0 0.0 0.0 20.0" Properties=species:S:1:pos:R:3:REF_forces:R:3 REF_energy=-8332.392386285392 pbc="F F F"
C        0.00474818       0.02927893      -0.00000000       0.00000000       0.00000000       0.00000000
O        1.28415536      -0.12777266       0.00000000       0.00000000       0.00000000       0.00000000
O        2.12043631       0.94587729       0.00000000       0.00000000       0.00000000       0.00000000
C       -0.68915776       1.28852657      -0.00000000       0.00000000       0.00000000       0.00000000
C       -0.14754923       2.52653115      -0.00000000       0.00000000       0.00000000       0.00000000
C       -0.74615141      -1.26962740      -0.00000000       0.00000000       0.00000000       0.00000000
H       -1.77217493       1.18625462      -0.00000002       0.00000000       0.00000000       0.00000000
H        0.94014260       2.66616429       0.00000001       0.00000000       0.00000000       0.00000000
H       -0.79670079       3.38986034      -0.00000001       0.00000000       0.00000000       0.00000000
H       -0.04815523      -2.10926910       0.00000001       0.00000000       0.00000000       0.00000000
H       -1.39252628      -1.34508190       0.88326977       0.00000000       0.00000000       0.00000000
H       -1.39252625      -1.34508193      -0.88326970       0.00000000       0.00000000       0.00000000
12
Lattice="20.0 0.0 0.0 0.0 20.0 0.0 0.0 0.0 20.0" Properties=species:S:1:pos:R:3:REF_forces:R:3 REF_energy=-8331.770712770136 pbc="F F F"
C        0.02439657       0.02796401       0.05933654       0.55110436      -0.40507912      -0.25298675
O        1.32866703      -0.11111044       0.01309310      -0.39831493       0.29054914       0.04742103
O        2.17383830       1.00792369      -0.00112455      -0.32310569      -0.33250654      -0.00097073
C       -0.71615224       1.25049970       0.00910638       0.66117293      -0.10552463       0.20917230
C       -0.17394899       2.46894308      -0.09585383       0.20760239      -0.08507182      -0.22131173
C       -0.81917863      -1.28768788       0.02388823       0.44412112       0.91261533       0.43036195
H       -1.70492064       1.04749369       0.26904179      -0.56893710       0.10707909      -0.02187339
H        0.88120619       2.65909338      -0.28260001      -0.06075963      -0.12207313       0.05770317
H       -0.82703872       3.28067434      -0.18758655      -0.29351045       0.40050068       0.06469733
H       -0.17575519      -2.13611400       0.01852798       0.03434869      -0.25677716       0.10585147
H       -1.49876835      -1.08730860       0.86059305       0.02325910      -0.32533215       0.08792448
H       -1.41859930      -1.19997711      -0.82586453      -0.27775137      -0.07790680      -0.50617838
12
Lattice="20.0 0.0 0.0 0.0 20.0 0.0 0.0 0.0 20.0" Properties=species:S:1:pos:R:3:REF_forces:R:3 REF_energy=-8332.365937793325 pbc="F F F"
C        0.00475165       0.02928926       0.04874092       0.00000000       0.00000000       0.00000000
O        1.28414778      -0.12777206      -0.02842026       0.00000000       0.00000000       0.00000000
O        2.12046037       0.94586528       0.00331155       0.00000000       0.00000000       0.00000000
C       -0.68910073       1.28848541       0.01044177       0.00000000       0.00000000       0.00000000
C       -0.14593691       2.52636343      -0.00635701       0.00000000       0.00000000       0.00000000
C       -0.74614851      -1.26962782      -0.00328353       0.00000000       0.00000000       0.00000000
H       -1.77305940       1.18612561      -0.09397136       0.00000000       0.00000000       0.00000000
H        0.92470698       2.66386480       0.12365380       0.00000000       0.00000000       0.00000000
H       -0.80060558       3.39484042      -0.15462947       0.00000000       0.00000000       0.00000000
H       -0.04815264      -2.10926531      -0.02095880       0.00000000       0.00000000       0.00000000
H       -1.41467242      -1.37894634       0.86032186       0.00000000       0.00000000       0.00000000
H       -1.37038783      -1.31122066      -0.90622956       0.00000000       0.00000000       0.00000000
12
Lattice="20.0 0.0 0.0 0.0 20.0 0.0 0.0 0.0 20.0" Properties=species:S:1:pos:R:3:REF_forces:R:3 REF_energy=-8332.391372426751 pbc="F F F"
C        0.00492532       0.03081141       0.00000029       0.00000000       0.00000000       0.00000000
O        1.29033401      -0.12734784       0.00000002       0.00000000       0.00000000       0.00000000
O        2.11869962       0.94411180       0.00000002       0.00000000       0.00000000       0.00000000
C       -0.69538201       1.29035991       0.00000007       0.00000000       0.00000000       0.00000000
C       -0.14227166       2.52329701      -0.00000010       0.00000000       0.00000000       0.00000000
C       -0.74788431      -1.26967811      -0.00000040       0.00000000       0.00000000       0.00000000
H       -1.78088059       1.20478444      -0.00000192       0.00000000       0.00000000       0.00000000
H        0.92463392       2.68570782      -0.00000022       0.00000000       0.00000000       0.00000000
H       -0.81221072       3.38054615       0.00000084       0.00000000       0.00000000       0.00000000
H       -0.04728046      -2.10741050       0.00000123       0.00000000       0.00000000       0.00000000
H       -1.39344402      -1.35023141       0.88354601       0.00000000       0.00000000       0.00000000
H       -1.39344615      -1.35023460      -0.88354488       0.00000000       0.00000000       0.00000000
12
Lattice="20.0 0.0 0.0 0.0 20.0 0.0 0.0 0.0 20.0" Properties=species:S:1:pos:R:3:REF_forces:R:3 REF_energy=-8332.01690695742 pbc="F F F"
C        0.00586264       0.03344328       0.02109088       0.47398070      -0.27690054      -0.11898329
O        1.30101215      -0.12406737       0.00389852      -0.29468770       0.23918281       0.01600047
O        2.13858677       0.96701889      -0.00032493      -0.20350640      -0.21345487      -0.00139056
C       -0.68989109       1.28517691      -0.00104877      -0.59812561      -0.42602332       0.19594091
C       -0.15190215       2.49693099      -0.02775183      -0.29692184       0.65897607      -0.11815476
C       -0.76801288      -1.28227957       0.01295259      -0.11123904       0.26774557      -0.42202635
H       -1.82629340       1.10025404       0.10918140       0.50994262       0.20190312      -0.10942349
H        0.90291546       2.67518345      -0.09290129       0.09189193      -0.04660622       0.00989650
H       -0.83926456       3.39737251      -0.07204909       0.23121000      -0.31318399       0.05814091
H       -0.04203237      -2.13708823      -0.01042617      -0.27217527       0.17317096       0.06882311
H       -1.44305750      -1.21270406       0.88845305       0.08588339      -0.20301830      -0.07171304
H       -1.46204060      -1.28072179      -0.94144747       0.38305563      -0.06139326       0.49203705
12
Lattice="20.0 0.0 0.0 0.0 20.0 0.0 0.0 0.0 20.0" Properties=species:S:1:pos:R:3:REF_forces:R:3 REF_energy=-8332.382101808162 pbc="F F F"
C        0.00206391       0.03041872       0.00000003       0.00000000       0.00000000       0.00000000
O        1.28316564      -0.13477415      -0.00000005       0.00000000       0.00000000       0.00000000
O        2.12450032       0.95163607      -0.00000001       0.00000000       0.00000000       0.00000000
C       -0.68816086       1.28766107       0.00000025       0.00000000       0.00000000       0.00000000
C       -0.14590080       2.52499348      -0.00000023       0.00000000       0.00000000       0.00000000
C       -0.75017818      -1.26585461      -0.00000002       0.00000000       0.00000000       0.00000000
H       -1.77204888       1.18574767      -0.00000089       0.00000000       0.00000000       0.00000000
H        0.92434738       2.66527414       0.00000035       0.00000000       0.00000000       0.00000000
H       -0.80499989       3.39008383       0.00000134       0.00000000       0.00000000       0.00000000
H       -0.02846155      -2.08611737      -0.00000008       0.00000000       0.00000000       0.00000000
H       -1.39056370      -1.36115986       0.88574530       0.00000000       0.00000000       0.00000000
H       -1.39056362      -1.36115955      -0.88574543       0.00000000       0.00000000       0.00000000
12
Lattice="20.0 0.0 0.0 0.0 20.0 0.0 0.0 0.0 20.0" Properties=species:S:1:pos:R:3:REF_forces:R:3 REF_energy=-8332.28379647021 pbc="F F F"
C        0.00475101       0.02928891       0.00086525       0.00000000       0.00000000       0.00000000
O        1.28414825      -0.12777211       0.00009555       0.00000000       0.00000000       0.00000000
O        2.12046084       0.94586703      -0.00026617       0.00000000       0.00000000       0.00000000
C       -0.68910132       1.28848364      -0.01095832       0.00000000       0.00000000       0.00000000
C       -0.14593500       2.52636193       0.03432550       0.00000000       0.00000000       0.00000000
C       -0.74615031      -1.26962646      -0.00040846       0.00000000       0.00000000       0.00000000
H       -1.77306076       1.18612501       0.00127102       0.00000000       0.00000000       0.00000000
H        0.92470921       2.66386357      -0.14427516       0.00000000       0.00000000       0.00000000
H       -0.80060422       3.39483917      -0.14044458       0.00000000       0.00000000       0.00000000
H       -0.04815349      -2.10926344       0.00095899       0.00000000       0.00000000       0.00000000
H       -1.39135874      -1.34282392       0.88392723       0.00000000       0.00000000       0.00000000
H       -1.39370461      -1.34734196      -0.88262488       0.00000000       0.00000000       0.00000000
12
Lattice="20.0 0.0 0.0 0.0 20.0 0.0 0.0 0.0 20.0" Properties=species:S:1:pos:R:3:REF_forces:R:3 REF_energy=-8332.059786262691 pbc="F F F"
C       -0.03331989       0.04986129      -0.00000000       1.13332095      -0.67942225       0.00000000
O        1.30530051      -0.13247394       0.00000000      -0.71839544       0.30128256       0.00000000
O        2.12052338       0.94630699       0.00000000      -0.12462278      -0.13179995      -0.00000000
C       -0.67903362       1.27500161       0.00000000      -0.29907970       0.52579504       0.00000000
C       -0.15066426       2.52424316      -0.00000000       0.10440990      -0.01637978      -0.00000000
C       -0.73596305      -1.28472352       0.00000000      -0.34201282       0.42534922      -0.00000000
H       -1.76356092       1.17967859       0.00000000      -0.01670022       0.01595928       0.00000000
H        0.91625011       2.68521903       0.00000000       0.02519156      -0.05595228       0.00000000
H       -0.76323721       3.42421622       0.00000000      -0.08282241      -0.08070933       0.00000000
H        0.01111333      -2.07913834       0.00000000      -0.13304919      -0.05798989       0.00000000
H       -1.47541123      -1.28813479       0.82416107       0.22686230      -0.12274817       0.11109217
H       -1.47541123      -1.28813479      -0.82416107       0.22686229      -0.12274817      -0.11109217
12
Lattice="20.0 0.0 0.0 0.0 20.0 0.0 0.0 0.0 20.0" Properties=species:S:1:pos:R:3:REF_forces:R:3 REF_energy=-8332.289136905141 pbc="F F F"
C        0.00473112       0.02931071       0.00000000       0.00000000       0.00000000       0.00000000
O        1.28421095      -0.12776456      -0.00000001       0.00000000       0.00000000       0.00000000
O        2.12044867       0.94585359      -0.00000003       0.00000000       0.00000000       0.00000000
C       -0.68900271       1.28855165       0.00000005       0.00000000       0.00000000       0.00000000
C       -0.14594069       2.52632725       0.00000001       0.00000000       0.00000000       0.00000000
C       -0.74949880      -1.27190771      -0.00000002       0.00000000       0.00000000       0.00000000
H       -1.77443323       1.18593033       0.00000021       0.00000000       0.00000000       0.00000000
H        0.92469142       2.66392124      -0.00000010       0.00000000       0.00000000       0.00000000
H       -0.80056687       3.39475675       0.00000002       0.00000000       0.00000000       0.00000000
H       -0.06620004      -2.08834825       0.00000003       0.00000000       0.00000000       0.00000000
H       -1.36371724      -1.34212059       0.84226429       0.00000000       0.00000000       0.00000000
H       -1.36371715      -1.34212032      -0.84226434       0.00000000       0.00000000       0.00000000
12
Lattice="20.0 0.0 0.0 0.0 20.0 0.0 0.0 0.0 20.0" Properties=species:S:1:pos:R:3:REF_forces:R:3 REF_energy=-8331.879646363499 pbc="F F F"
C        0.00533440       0.03396072       0.02155413       0.49046605      -0.29323125      -0.12500070
O        1.30150977      -0.12417454       0.00393117      -0.30523270       0.24569442       0.01643342
O        2.13891651       0.96741589      -0.00032483      -0.20618120      -0.21652927      -0.00146328
C       -0.68846363       1.28613886      -0.00140138      -0.72233314      -0.48672836       0.21121688
C       -0.15124162       2.49498228      -0.02787613      -0.37513363       0.77562865      -0.12372077
C       -0.76799616      -1.28281736       0.01420074      -0.13159006       0.24301453      -0.49441407
H       -1.84158698       1.09445170       0.11260840       0.61599160       0.22513909      -0.12139027
H        0.89983101       2.67614312      -0.09422761       0.12615049      -0.04237799       0.00827883
H       -0.84656279       3.40637653      -0.07409982       0.28954064      -0.39120375       0.06324399
H       -0.03453582      -2.14236734      -0.01213459      -0.32240898       0.22233170       0.07314732
H       -1.44514580      -1.20624292       0.88983891       0.09440286      -0.21638721      -0.08549204
H       -1.47367824      -1.27870806      -0.95640641       0.44551755      -0.06500840       0.57831882
12
Lattice="20.0 0.0 0.0 0.0 20.0 0.0 0.0 0.0 20.0" Properties=species:S:1:pos:R:3:REF_forces:R:3 REF_energy=-8332.350995669916 pbc="F F F"
C        0.00475261       0.02928972      -0.03072963       0.00000000       0.00000000       0.00000000
O        1.28414695      -0.12777042       0.00482311       0.00000000       0.00000000       0.00000000
O        2.12045955       0.94586856      -0.02990954       0.00000000       0.00000000       0.00000000
C       -0.68909861       1.28848196      -0.10390227       0.00000000       0.00000000       0.00000000
C       -0.14593797       2.52635949       0.09162359       0.00000000       0.00000000       0.00000000
C       -0.74614819      -1.26962647       0.05142327       0.00000000       0.00000000       0.00000000
H       -1.77305533       1.18611993      -0.27794931       0.00000000       0.00000000       0.00000000
H        0.92470438       2.66386192       0.29045699       0.00000000       0.00000000       0.00000000
H       -0.80060758       3.39483481       0.06294410       0.00000000       0.00000000       0.00000000
H       -0.04815465      -2.10926430       0.16158780       0.00000000       0.00000000       0.00000000
H       -1.43065804      -1.26048590       0.91371477       0.00000000       0.00000000       0.00000000
H       -1.35440155      -1.42967932      -0.85283417       0.00000000       0.00000000       0.00000000
12
Lattice="20.0 0.0 0.0 0.0 20.0 0.0 0.0 0.0 20.0" Properties=species:S:1:pos:R:3:REF_forces:R:3 REF_energy=-8332.037205873014 pbc="F F F"
C       -0.07390001       0.10315199      -0.00000000       0.30263678      -0.28137284       0.00000000
O        1.20690063      -0.07767805       0.00000000       0.17527996       0.18522408      -0.00000000
O        2.23508031       0.83146671       0.00000000      -0.42318292       0.03149891      -0.00000000
C       -0.81276003       1.34912528      -0.00000000       0.22001649       0.06008080       0.00000000
C       -0.15707641       2.53595535       0.00000000       0.00417923      -0.08413519      -0.00000000
C       -0.63054431      -1.31005583       0.00000000      -0.11777798      -0.07622090       0.00000000
H       -1.89851711       1.27204804       0.00000000       0.02671862      -0.00240696       0.00000000
H        0.94014045       2.51397647      -0.00000000      -0.10134542       0.03135172      -0.00000000
H       -0.68938882       3.49438572       0.00000000       0.03491409      -0.10478424      -0.00000000
H        0.25023329      -1.99781821       0.00000000      -0.23684131       0.12728358      -0.00000000
H       -1.25594104      -1.52590952       0.88625940       0.05815968       0.05665264      -0.05747176
H       -1.25594104      -1.52590952      -0.88625940       0.05815968       0.05665264       0.05747176
12
Lattice="20.0 0.0 0.0 0.0 20.0 0.0 0.0 0.0 20.0" Properties=species:S:1:pos:R:3:REF_forces:R:3 REF_energy=-8332.298103527806 pbc="F F F"
C        0.00490266       0.03122712       0.00864295       0.33260584      -0.14571093      -0.04877263
O        1.29112847      -0.12635790       0.00156834      -0.18901532       0.18194575       0.00554650
O        2.12785086       0.95449711      -0.00012918      -0.15940378      -0.15840027      -0.00085595
C       -0.68861704       1.28770412      -0.00061296      -0.33268182      -0.14609914       0.07407051
C       -0.14793681       2.51357409      -0.01110460      -0.20244846       0.29143513      -0.04672734
C       -0.75483362      -1.27495130       0.00584377      -0.07251767       0.08193553      -0.26364216
H       -1.80277770       1.14875207       0.04532634       0.30061590       0.09077340      -0.03870400
H        0.91429851       2.66888468      -0.03767277       0.06606968      -0.01924845       0.00398060
H       -0.82006793       3.40089932      -0.02978856       0.13848277      -0.19269679       0.02254464
H       -0.04153606      -2.12329977      -0.00508993      -0.14626976       0.10794888       0.02909666
H       -1.41378730      -1.28887106       0.88612023       0.03754682      -0.08026906      -0.02907296
H       -1.42664495      -1.31836905      -0.91473425       0.22700694      -0.01039025       0.29210267
12
Lattice="20.0 0.0 0.0 0.0 20.0 0.0 0.0 0.0 20.0" Properties=species:S:1:pos:R:3:REF_forces:R:3 REF_energy=-8331.761620969703 pbc="F F F"
C        0.00461606       0.02964781      -0.00000000       0.22894452      -0.08679880      -0.00000000
O        1.28419445      -0.12776593      -0.00000000      -0.11241475       0.13792430      -0.00000000
O        2.12036383       0.94588404       0.00000000      -0.10899303      -0.12022741       0.00000000
C       -0.67937860       1.29045249       0.00000000      -0.90376962      -0.15159521       0.00000000
C       -0.14472901       2.51390672      -0.00000000       0.05073856       1.03129098       0.00000000
C       -0.74581159      -1.26979119      -0.00000000      -0.04805620       0.02802519       0.00000000
H       -1.87972010       1.17653455      -0.00000000       0.82103072       0.07215687      -0.00000000
H        0.99589210       2.67248115      -0.00000000      -0.61046400      -0.08863094      -0.00000000
H       -0.89286085       3.51710080      -0.00000000       0.61745238      -0.84100580      -0.00000000
H       -0.04993805      -2.10753687       0.00000000       0.01766818      -0.01055437      -0.00000000
H       -1.39369895      -1.34545176       0.88500520       0.02453805       0.01458413      -0.02496427
H       -1.39369895      -1.34545176      -0.88500520       0.02453805       0.01458413       0.02496427
12
Lattice="20.0 0.0 0.0 0.0 20.0 0.0 0.0 0.0 20.0" Properties=species:S:1:pos:R:3:REF_forces:R:3 REF_energy=-8331.896395651806 pbc="F F F"
C        0.01203682       0.03374101       0.04278598       0.61525133      -0.41240536      -0.21906150
O        1.31738114      -0.11840529       0.00849548      -0.41041923       0.30060273       0.03645281
O        2.15793777       0.98951274      -0.00072305      -0.27139893      -0.29379129      -0.00083033
C       -0.70101789       1.27227167       0.00148958      -0.32637572      -0.54003675       0.33427337
C       -0.16302982       2.47659815      -0.06137176      -0.05524101       0.61525994      -0.22409763
C       -0.79456465      -1.29114784       0.02048776      -0.04203046       0.72506411      -0.23933077
H       -1.78558760       1.04697720       0.20830183       0.25455835       0.26376827      -0.16918073
H        0.89324038       2.67763184      -0.19540454      -0.01968107      -0.11352236       0.03798487
H       -0.83795111       3.34181895      -0.14091593       0.05702459      -0.07262009       0.09126183
H       -0.09110995      -2.13689701      -0.00673106      -0.20120564       0.01201621       0.11111024
H       -1.48307543      -1.11100961       0.87960212       0.12359809      -0.35360287      -0.06544730
H       -1.46428658      -1.22483604      -0.90858854       0.27559181      -0.13096380       0.30689834
12
Lattice="20.0 0.0 0.0 0.0 20.0 0.0 0.0 0.0 20.0" Properties=species:S:1:pos:R:3:REF_forces:R:3 REF_energy=-8331.848026502763 pbc="F F F"
C        0.00475169       0.02928901      -0.05704651       0.23787238      -0.02578005       0.79493261
O        1.28414818      -0.12777159       0.00284113      -0.09656902       0.13775074      -0.06711660
O        2.12046044       0.94586659       0.00208400      -0.11918415      -0.11225073      -0.04037480
C       -0.68910120       1.28848411       0.00999305       0.00856354       0.09309277      -0.14113388
C       -0.14593546       2.52636191       0.00139727      -0.02987388      -0.07626416      -0.01991690
C       -0.74614992      -1.26962700       0.06302254      -0.12921715      -0.11517812      -0.87036878
H       -1.77306019       1.18612461       0.01499126       0.00506036      -0.00016603      -0.01729172
H        0.92470893       2.66386108       0.02448903       0.00445795      -0.00530202      -0.02922499
H       -0.80060280       3.39484027      -0.04732548       0.00414383      -0.01582875       0.05762820
H       -0.04815587      -2.10926621      -0.12936306      -0.08134217       0.09683251       0.16853544
H       -1.54763986      -1.54768266       0.80931945       0.31891996       0.28710488      -0.11731397
H       -1.23742394      -1.14248013      -0.95723197      -0.12262289      -0.26357072       0.28167993
12
Lattice="20.0 0.0 0.0 0.0 20.0 0.0 0.0 0.0 20.0" Properties=species:S:1:pos:R:3:REF_forces:R:3 REF_energy=-8332.391942803153 pbc="F F F"
C        0.00457806       0.02776661      -0.00000029       0.00000000       0.00000000       0.00000000
O        1.27796234      -0.12819533      -0.00000002       0.00000000       0.00000000       0.00000000
O        2.12222126       0.94762137      -0.00000002       0.00000000       0.00000000       0.00000000
C       -0.68282040       1.28660831      -0.00000007       0.00000000       0.00000000       0.00000000
C       -0.14959926       2.52942682       0.00000010       0.00000000       0.00000000       0.00000000
C       -0.74441552      -1.26957589       0.00000040       0.00000000       0.00000000       0.00000000
H       -1.76523979       1.16746477       0.00000192       0.00000000       0.00000000       0.00000000
H        0.92478394       2.64201435       0.00000022       0.00000000       0.00000000       0.00000000
H       -0.78899488       3.40913439      -0.00000084       0.00000000       0.00000000       0.00000000
H       -0.04903128      -2.11112192      -0.00000123       0.00000000       0.00000000       0.00000000
H       -1.39161978      -1.33993137       0.88300541       0.00000000       0.00000000       0.00000000
H       -1.39161765      -1.33992818      -0.88300654       0.00000000       0.00000000       0.00000000
12
Lattice="20.0 0.0 0.0 0.0 20.0 0.0 0.0 0.0 20.0" Properties=species:S:1:pos:R:3:REF_forces:R:3 REF_energy=-8332.288777614143 pbc="F F F"
C        0.00475264       0.02928867       0.04922846       0.00000000       0.00000000       0.00000000
O        1.28415014      -0.12777364      -0.02114532       0.00000000       0.00000000       0.00000000
O        2.12045953       0.94586723       0.00857829       0.00000000       0.00000000       0.00000000
C       -0.68910322       1.28848566      -0.04827194       0.00000000       0.00000000       0.00000000
C       -0.14593545       2.52636269       0.00398014       0.00000000       0.00000000       0.00000000
C       -0.74615025      -1.26962723       0.00840842       0.00000000       0.00000000       0.00000000
H       -1.77306183       1.18612551       0.05500714       0.00000000       0.00000000       0.00000000
H        0.92470960       2.66385807      -0.08911540       0.00000000       0.00000000       0.00000000
H       -0.80059948       3.39484363       0.14845186       0.00000000       0.00000000       0.00000000
H       -0.04815741      -2.10926771      -0.02942492       0.00000000       0.00000000       0.00000000
H       -1.42614415      -1.40520640       0.86104205       0.00000000       0.00000000       0.00000000
H       -1.35892051      -1.28495446      -0.90550962       0.00000000       0.00000000       0.00000000
12
Lattice="20.0 0.0 0.0 0.0 20.0 0.0 0.0 0.0 20.0" Properties=species:S:1:pos:R:3:REF_forces:R:3 REF_energy=-8332.365559105916 pbc="F F F"
C        0.00475169       0.02928901       0.00147816       0.21495603      -0.04245763      -0.04304136
O        1.28414818      -0.12777159      -0.00001134      -0.10386955       0.13749518       0.00117649
O        2.12046044       0.94586659       0.00000536      -0.12613133      -0.11785688      -0.00017170
C       -0.68910120       1.28848411      -0.00032739       0.01191388       0.08214734       0.00907571
C       -0.14593546       2.52636191      -0.00003504      -0.02536838      -0.08024818       0.00097091
C       -0.74614992      -1.26962700       0.00478170      -0.00055366      -0.00200998      -0.13503326
H       -1.77306019       1.18612461       0.00049485       0.00516610      -0.00006655      -0.00132375
H        0.92470893       2.66386108      -0.00001589       0.00640295      -0.00525818       0.00007278
H       -0.80060280       3.39484027       0.00070837      -0.00046271      -0.00935936      -0.00166016
H       -0.04815587      -2.10926621      -0.06258936      -0.00529504       0.01517590       0.14732257
H       -1.40721628      -1.30603626       0.87888611       0.04614505      -0.08113531       0.00136898
H       -1.37784752      -1.38412652      -0.88766531      -0.02216247       0.10417398       0.02083044
12
Lattice="20.0 0.0 0.0 0.0 20.0 0.0 0.0 0.0 20.0" Properties=species:S:1:pos:R:3:REF_forces:R:3 REF_energy=-8332.365470716682 pbc="F F F"
C        0.00468836       0.02923356      -0.00000000       0.22195915      -0.03389838      -0.00000000
O        1.28418020      -0.12777048       0.00000000      -0.10925050       0.13733445       0.00000000
O        2.12045689       0.94586370      -0.00000000      -0.12529853      -0.11750452       0.00000000
C       -0.69143671       1.28833147      -0.00000000       0.33329502       0.10268666       0.00000000
C       -0.14555300       2.52510218      -0.00000000      -0.06933884       0.06915071       0.00000000
C       -0.74772479      -1.26840286      -0.00000000       0.18561564      -0.13626051       0.00000000
H       -1.74514457       1.18854125       0.00000000      -0.31581126      -0.02787226      -0.00000000
H        0.93081253       2.66452176      -0.00000000      -0.05612983      -0.01237844      -0.00000000
H       -0.81136910       3.40900154       0.00000000       0.10657938      -0.15011722      -0.00000000
H       -0.03527314      -2.12470305      -0.00000000      -0.12865931       0.16039759      -0.00000000
H       -1.38942831      -1.34451616       0.87856596      -0.02111080       0.00427897       0.04374410
H       -1.38942831      -1.34451616      -0.87856596      -0.02111080       0.00427897      -0.04374410
12
Lattice="20.0 0.0 0.0 0.0 20.0 0.0 0.0 0.0 20.0" Properties=species:S:1:pos:R:3:REF_forces:R:3 REF_energy=-8332.35301775049 pbc="F F F"
C        0.00743947       0.02815931      -0.00001382       0.18087727      -0.02735793       0.00306163
O        1.28513072      -0.12076902      -0.00001080      -0.12004272       0.02109828       0.00144292
O        2.11642056       0.94009711      -0.00000502      -0.06008281      -0.02313809       0.00072692
C       -0.69004154       1.28930715       0.00000860       0.02426179       0.07300471      -0.00094775
C       -0.14597012       2.52773035       0.00000267      -0.02553495      -0.09657471      -0.00024352
C       -0.74212165      -1.27339939      -0.00458781      -0.00229939       0.05243945       0.55502581
H       -1.77407150       1.18650155      -0.00005434       0.00581649      -0.00024241       0.00050016
H        0.92507047       2.66244803      -0.00002123       0.00673182      -0.00375500       0.00029855
H       -0.79620570       3.39959670       0.00000551      -0.00489152      -0.01525829      -0.00002479
H       -0.06785019      -2.13241505      -0.00089142       0.01474324       0.03391736       0.00758405
H       -1.41568247      -1.33118945       0.90876257       0.20688902       0.00827394      -0.25784702
H       -1.37331782      -1.32681671      -0.85284954      -0.22668382      -0.02727168      -0.30988160
12
Lattice="20.0 0.0 0.0 0.0 20.0 0.0 0.0 0.0 20.0" Properties=species:S:1:pos:R:3:REF_forces:R:3 REF_energy=-8332.333645425631 pbc="F F F"
C        0.00916761       0.03477926       0.00000021       0.00000000       0.00000000       0.00000000
O        1.28227431      -0.12806086      -0.00000004       0.00000000       0.00000000       0.00000000
O        2.12029339       0.94556213       0.00000015       0.00000000       0.00000000       0.00000000
C       -0.69379575       1.26782975      -0.00000025       0.00000000       0.00000000       0.00000000
C       -0.14029043       2.54239300      -0.00000016       0.00000000       0.00000000       0.00000000
C       -0.74697752      -1.27039569       0.00000002       0.00000000       0.00000000       0.00000000
H       -1.78336319       1.21501189       0.00000002       0.00000000       0.00000000       0.00000000
H        0.93807262       2.64481440       0.00000070       0.00000000       0.00000000       0.00000000
H       -0.82178134       3.39279790      -0.00000000       0.00000000       0.00000000       0.00000000
H       -0.04562415      -2.10728565      -0.00000052       0.00000000       0.00000000       0.00000000
H       -1.39558406      -1.34584318       0.88138897       0.00000000       0.00000000       0.00000000
H       -1.39558431      -1.34584536      -0.88138875       0.00000000       0.00000000       0.00000000
12
Lattice="20.0 0.0 0.0 0.0 20.0 0.0 0.0 0.0 20.0" Properties=species:S:1:pos:R:3:REF_forces:R:3 REF_energy=-8332.261807568007 pbc="F F F"
C       -0.00883545       0.01699705       0.00000000       0.57798350       0.30212063      -0.00000000
O        1.29162312      -0.12559317      -0.00000000      -0.35924620       0.04997211       0.00000000
O        2.12048449       0.94468053      -0.00000000      -0.12440130      -0.07238222      -0.00000000
C       -0.69285684       1.29989815      -0.00000000       0.08933320      -0.22822616      -0.00000000
C       -0.13598788       2.53797342       0.00000000      -0.29919508      -0.34053650       0.00000000
C       -0.74095439      -1.26428595      -0.00000000      -0.15501152      -0.15428173       0.00000000
H       -1.77059664       1.11348891      -0.00000000       0.01369925       0.16564887       0.00000000
H        0.94723169       2.59532436      -0.00000000      -0.04881236       0.13499873      -0.00000000
H       -0.88516652       3.33369176      -0.00000000       0.20441350       0.09986385       0.00000000
H       -0.04917515      -2.10836268      -0.00000000       0.00055652       0.00661569      -0.00000000
H       -1.40864319      -1.34802428       0.86809233       0.05054591       0.01801061       0.02563428
H       -1.40864319      -1.34802428      -0.86809233       0.05054591       0.01801061      -0.02563428
12
Lattice="20.0 0.0 0.0 0.0 20.0 0.0 0.0 0.0 20.0" Properties=species:S:1:pos:R:3:REF_forces:R:3 REF_energy=-8332.363692393707 pbc="F F F"
C       -0.01917325       0.02224659      -0.00000000       0.23473656      -0.02195990      -0.00000000
O        1.26364239      -0.11434307      -0.00000000      -0.06817941       0.11783927       0.00000000
O        2.07238452       0.97899123       0.00000000      -0.03288702      -0.19650274       0.00000000
C       -0.68322357       1.29455379       0.00000000       0.01135671       0.08352278      -0.00000000
C       -0.07611427       2.50852193      -0.00000000      -0.12143263      -0.05269894       0.00000000
C       -0.73016243      -1.30180443       0.00000000      -0.02015038       0.03568937       0.00000000
H       -1.77127311       1.23829386       0.00000000       0.01587511      -0.00370736      -0.00000000
H        0.99904468       2.59250984      -0.00000000      -0.02237859       0.00747526      -0.00000000
H       -0.69126897       3.40726955      -0.00000000      -0.00830930      -0.02041658      -0.00000000
H        0.00604824      -2.11006696       0.00000000      -0.01435364       0.01578665      -0.00000000
H       -1.37179992      -1.40696391       0.88396787       0.01364603       0.01756620      -0.00956701
H       -1.37179992      -1.40696391      -0.88396787       0.01364603       0.01756620       0.00956701
12
Lattice="20.0 0.0 0.0 0.0 20.0 0.0 0.0 0.0 20.0" Properties=species:S:1:pos:R:3:REF_forces:R:3 REF_energy=-8332.37181560869 pbc="F F F"
C        0.00474755       0.02928393      -0.01275598       0.00000000       0.00000000       0.00000000
O        1.28414068      -0.12778098       0.00063529       0.00000000       0.00000000       0.00000000
O        2.12046622       0.94587399       0.00046600       0.00000000       0.00000000       0.00000000
C       -0.68910674       1.28848621       0.00223452       0.00000000       0.00000000       0.00000000
C       -0.14593109       2.52636118       0.00031243       0.00000000       0.00000000       0.00000000
C       -0.74613908      -1.26962710       0.01409226       0.00000000       0.00000000       0.00000000
H       -1.77306848       1.18615183       0.00335208       0.00000000       0.00000000       0.00000000
H        0.92470969       2.66388833       0.00547592       0.00000000       0.00000000       0.00000000
H       -0.80061953       3.39482452      -0.01058222       0.00000000       0.00000000       0.00000000
H       -0.04817306      -2.10928872      -0.02892645       0.00000000       0.00000000       0.00000000
H       -1.42721368      -1.39035393       0.86673464       0.00000000       0.00000000       0.00000000
H       -1.35784731      -1.29974792      -0.89980888       0.00000000       0.00000000       0.00000000
12
Lattice="20.0 0.0 0.0 0.0 20.0 0.0 0.0 0.0 20.0" Properties=species:S:1:pos:R:3:REF_forces:R:3 REF_energy=-8331.884377892351 pbc="F F F"
C        0.02879307       0.01918536       0.00000000      -0.09128939       0.08910750      -0.00000000
O        1.29293537      -0.06514056       0.00000000      -0.55993003      -1.26001491       0.00000000
O        2.08432706       0.89426417      -0.00000000       0.79575722       1.11101791      -0.00000000
C       -0.69751103       1.29584670      -0.00000000       0.10957261       0.01661506      -0.00000000
C       -0.14624734       2.53860263       0.00000000      -0.02636207      -0.21368292       0.00000000
C       -0.71011977      -1.30336944      -0.00000000      -0.46275031       0.23047878      -0.00000000
H       -1.78210330       1.18949260      -0.00000000       0.01381953      -0.00039477      -0.00000000
H        0.92794224       2.65121014      -0.00000000      -0.00052005       0.01078021      -0.00000000
H       -0.76126801       3.43738931       0.00000000      -0.03442738      -0.05877568      -0.00000000
H       -0.22431003      -2.31631853       0.00000000       0.03557162       0.40289688       0.00000000
H       -1.41013685      -1.20127347       0.86118527       0.11069352      -0.16408494      -0.05405100
H       -1.41013685      -1.20127347      -0.86118527       0.11069352      -0.16408494       0.05405101
12
Lattice="20.0 0.0 0.0 0.0 20.0 0.0 0.0 0.0 20.0" Properties=species:S:1:pos:R:3:REF_forces:R:3 REF_energy=-8332.38802863395 pbc="F F F"
C        0.00742127       0.02820745      -0.00000003       0.18385879      -0.03274580      -0.00000006
O        1.28513692      -0.12076827       0.00000005      -0.12140912       0.02087147      -0.00000026
O        2.11640760       0.94009945       0.00000001      -0.05775277      -0.02322716       0.00000012
C       -0.68873712       1.28957124      -0.00000025      -0.13435081       0.03862423       0.00000250
C       -0.14580826       2.52605931       0.00000023      -0.03958632       0.10542131      -0.00000333
C       -0.74207626      -1.27342142       0.00000002      -0.05990286       0.05088136       0.00000016
H       -1.78838143       1.18521490       0.00000089       0.15094339       0.01293079      -0.00000121
H        0.93462070       2.66360453      -0.00000035      -0.09166676      -0.01555743       0.00000045
H       -0.80858342       3.41599967      -0.00000134       0.11733664      -0.17922298       0.00000174
H       -0.06808929      -2.13218304       0.00000008       0.01765488       0.03115339       0.00000008
H       -1.39465668      -1.32905261       0.88103815       0.01723877      -0.00700178      -0.00823166
H       -1.39465676      -1.32905293      -0.88103803       0.01723881      -0.00700144       0.00823161
12
Lattice="20.0 0.0 0.0 0.0 20.0 0.0 0.0 0.0 20.0" Properties=species:S:1:pos:R:3:REF_forces:R:3 REF_energy=-8332.29351836305 pbc="F F F"
C        0.00384429       0.02694815      -0.00000321       0.00000000       0.00000000       0.00000000
O        1.27616125      -0.17004962       0.00000268       0.00000000       0.00000000       0.00000000
O        2.06758425       0.91297670      -0.00000105       0.00000000       0.00000000       0.00000000
C       -0.63587404       1.32880047      -0.00000052       0.00000000       0.00000000       0.00000000
C       -0.16597285       2.60657167       0.00000112       0.00000000       0.00000000       0.00000000
C       -0.70671833      -1.29800666      -0.00000073       0.00000000       0.00000000       0.00000000
H       -1.72065135       1.22535662       0.00000649       0.00000000       0.00000000       0.00000000
H        0.88841585       2.86305505      -0.00000655       0.00000000       0.00000000       0.00000000
H       -0.90154389       3.41546654       0.00001180       0.00000000       0.00000000       0.00000000
H        0.05185829      -2.08808167      -0.00000187       0.00000000       0.00000000       0.00000000
H       -1.34436916      -1.42370849       0.88498791       0.00000000       0.00000000       0.00000000
H       -1.34437621      -1.42371085      -0.88498386       0.00000000       0.00000000       0.00000000
12
Lattice="20.0 0.0 0.0 0.0 20.0 0.0 0.0 0.0 20.0" Properties=species:S:1:pos:R:3:REF_forces:R:3 REF_energy=-8332.265121530289 pbc="F F F"
C        0.00475169       0.02928901      -0.02852325       0.22231859      -0.03706251       0.40758442
O        1.28414818      -0.12777159       0.00142057      -0.10223533       0.13793766      -0.03368894
O        2.12046044       0.94586659       0.00104200      -0.12442120      -0.11659050      -0.02024304
C       -0.68910120       1.28848411       0.00499653       0.01095895       0.08438754      -0.07187824
C       -0.14593546       2.52636191       0.00069864      -0.02639309      -0.07916593      -0.01015259
C       -0.74614992      -1.26962700       0.03151127      -0.04280767      -0.02420772      -0.44098632
H       -1.77306019       1.18612461       0.00749563       0.00514266      -0.00013684      -0.00849076
H        0.92470893       2.66386108       0.01224452       0.00590946      -0.00525291      -0.01458744
H       -0.80060280       3.39484027      -0.02366274       0.00068914      -0.01099238       0.02879469
H       -0.04815587      -2.10926621      -0.06468153      -0.02227929       0.03189121       0.07776117
H       -1.47008588      -1.44638202       0.84629758       0.13319738       0.13559807      -0.01958336
H       -1.31497792      -1.24378076      -0.92025384      -0.05925835      -0.11569015       0.10550329
12
Lattice="20.0 0.0 0.0 0.0 20.0 0.0 0.0 0.0 20.0" Properties=species:S:1:pos:R:3:REF_forces:R:3 REF_energy=-8331.971654377869 pbc="F F F"
C        0.00617822       0.03373836       0.02337216       0.49601611      -0.29763695      -0.13131129
O        1.30279490      -0.12359690       0.00434073      -0.31160142       0.24842037       0.01813692
O        2.14057293       0.96933320      -0.00036261      -0.21117585      -0.22295938      -0.00140903
C       -0.69045714       1.28444092      -0.00103225      -0.61788349      -0.46608700       0.21752433
C       -0.15280086       2.49419230      -0.03093680      -0.29456752       0.70202355      -0.13130197
C       -0.77054632      -1.28353104       0.01405853      -0.11399592       0.30958638      -0.42981470
H       -1.82744762       1.09238651       0.12052667       0.52275236       0.21823058      -0.12188336
H        0.90136318       2.67612559      -0.10322234       0.08806965      -0.05287125       0.01161233
H       -0.84135921       3.39473676      -0.07964758       0.23468059      -0.31712687       0.06419679
H       -0.04387079      -2.13857898      -0.01100696      -0.28352428       0.17405223       0.07528587
H       -1.44810080      -1.19968457       0.88847202       0.09459094      -0.22400466      -0.07834244
H       -1.46630010      -1.27407616      -0.94333721       0.39570833      -0.07125276       0.50643494
12
Lattice="20.0 0.0 0.0 0.0 20.0 0.0 0.0 0.0 20.0" Properties=species:S:1:pos:R:3:REF_forces:R:3 REF_energy=-8331.883219230229 pbc="F F F"
C        0.00500501       0.02951084       0.00000000       0.18524573      -0.07825069       0.00000000
O        1.28402010      -0.12777603      -0.00000000      -0.08431171       0.13989081      -0.00000000
O        2.12047465       0.94587813       0.00000000      -0.12964181      -0.11944294      -0.00000000
C       -0.67975916       1.28909469       0.00000000      -0.81742048       0.04698418      -0.00000000
C       -0.14746531       2.53140086       0.00000000       0.26571445      -0.86900076       0.00000000
C       -0.73985043      -1.27452355       0.00000000      -0.94275456       0.82792658       0.00000000
H       -1.88472268       1.17645806      -0.00000000       0.84191884       0.06953967      -0.00000000
H        0.90029450       2.66121837       0.00000000       0.27788567       0.02391880       0.00000000
H       -0.75753759       3.33819517      -0.00000000      -0.56994227       0.73560584       0.00000000
H       -0.09968678      -2.04751887       0.00000000       0.70161684      -0.83824643       0.00000000
H       -1.40494625      -1.34734230       0.90211472       0.13607254       0.03089079      -0.19138549
H       -1.40494625      -1.34734230      -0.90211472       0.13607254       0.03089079       0.19138548
12
Lattice="20.0 0.0 0.0 0.0 20.0 0.0 0.0 0.0 20.0" Properties=species:S:1:pos:R:3:REF_forces:R:3 REF_energy=-8332.375384024765 pbc="F F F"
C        0.00746072       0.02813597      -0.00000003       0.17890154      -0.02507331      -0.00000006
O        1.28514860      -0.12076024       0.00000005      -0.12277123       0.01999435      -0.00000026
O        2.11640971       0.94009197       0.00000001      -0.05814854      -0.02206646       0.00000012
C       -0.69143563       1.28920988      -0.00000025       0.20870057       0.08534525       0.00000226
C       -0.14575224       2.52705177       0.00000023      -0.05159174      -0.01404616      -0.00000323
C       -0.73999071      -1.27511777       0.00000002      -0.33333198       0.29228254       0.00000015
H       -1.75747611       1.18801159       0.00000089      -0.17798440      -0.01690584      -0.00000094
H        0.92837200       2.66279024      -0.00000035      -0.02733695      -0.00727719       0.00000041
H       -0.80211777       3.40736525      -0.00000134       0.05506019      -0.09450432       0.00000163
H       -0.08582206      -2.11078181       0.00000008       0.21609809      -0.21928358       0.00000010
H       -1.39837747      -1.32965877       0.88672823       0.05619970      -0.00170157      -0.06683057
H       -1.39837754      -1.32965909      -0.88672810       0.05619975      -0.00170122       0.06683051
12
Lattice="20.0 0.0 0.0 0.0 20.0 0.0 0.0 0.0 20.0" Properties=species:S:1:pos:R:3:REF_forces:R:3 REF_energy=-8332.367946407185 pbc="F F F"
C        0.00471053       0.02681397       0.00000017       0.00000000       0.00000000       0.00000000
O        1.28299022      -0.12759846      -0.00000002       0.00000000       0.00000000       0.00000000
O        2.12100966       0.94613572       0.00000010       0.00000000       0.00000000       0.00000000
C       -0.69685229       1.28374319      -0.00000015       0.00000000       0.00000000       0.00000000
C       -0.13890233       2.53108114      -0.00000016       0.00000000       0.00000000       0.00000000
C       -0.74628565      -1.26817020      -0.00000018       0.00000000       0.00000000       0.00000000
H       -1.77688154       1.13022035      -0.00000028       0.00000000       0.00000000       0.00000000
H        0.92678359       2.70927991       0.00000070       0.00000000       0.00000000       0.00000000
H       -0.78281890       3.40939049       0.00000011       0.00000000       0.00000000       0.00000000
H       -0.04765347      -2.10723419       0.00000127       0.00000000       0.00000000       0.00000000
H       -1.39063816      -1.34544323       0.88458327       0.00000000       0.00000000       0.00000000
H       -1.39063939      -1.34544407      -0.88458261       0.00000000       0.00000000       0.00000000
12
Lattice="20.0 0.0 0.0 0.0 20.0 0.0 0.0 0.0 20.0" Properties=species:S:1:pos:R:3:REF_forces:R:3 REF_energy=-8332.401698037625 pbc="F F F"
C        0.00744035       0.02816183      -0.00000003       0.18147905      -0.02723384      -0.00000005
O        1.28512892      -0.12076876       0.00000005      -0.12000031       0.02108007      -0.00000026
O        2.11642660       0.94009443       0.00000001      -0.06096263      -0.02253724       0.00000012
C       -0.69002740       1.28929654      -0.00000025       0.02253409       0.07449995       0.00000242
C       -0.14556668       2.52768804       0.00000023      -0.08180390      -0.09074943      -0.00000310
C       -0.74212128      -1.27339929       0.00000002      -0.05425560       0.04791266       0.00000016
H       -1.77429287       1.18646904       0.00000089       0.00831511       0.00015703      -0.00000110
H        0.92121207       2.66187223      -0.00000035       0.05202252       0.00284461       0.00000039
H       -0.79718123       3.40084171      -0.00000134       0.00634368      -0.02965376       0.00000154
H       -0.06785034      -2.13241434       0.00000008       0.01515112       0.03367190       0.00000008
H       -1.39450151      -1.32900279       0.88080761       0.01560350      -0.00749801      -0.00582265
H       -1.39450159      -1.32900311      -0.88080748       0.01560353      -0.00749768       0.00582260
12
Lattice="20.0 0.0 0.0 0.0 20.0 0.0 0.0 0.0 20.0" Properties=species:S:1:pos:R:3:REF_forces:R:3 REF_energy=-8332.235212669104 pbc="F F F"
C        0.00475169       0.02928901      -0.07582529       0.24580837      -0.08306335       0.08366611
O        1.28414818      -0.12777159      -0.15277201      -0.07434595       0.26820527       0.25203769
O        2.12046044       0.94586659       0.12638847      -0.20182775      -0.22384146      -0.21512585
C       -0.68910120       1.28848411       0.01672583       0.01557525       0.06947777      -0.02108361
C       -0.14593546       2.52636191      -0.01130074      -0.03342703      -0.08456755       0.00861136
C       -0.74614992      -1.26962700       0.07044572      -0.03745573      -0.06417575      -0.05261295
H       -1.77306019       1.18612461       0.07989122       0.02395525      -0.00085873      -0.00953886
H        0.92470893       2.66386108      -0.04821417       0.00739742      -0.01068745       0.00228723
H       -0.80060280       3.39484027      -0.00436620       0.00045574      -0.00866878       0.00410162
H       -0.04815587      -2.10926621       0.23481682      -0.05994258       0.10672231      -0.03772357
H       -1.40116939      -1.18583881       0.96133326       0.05634766      -0.01761272      -0.10994271
H       -1.38389441      -1.50432398      -0.80521816       0.05786552       0.04914345       0.09496375
12
Lattice="20.0 0.0 0.0 0.0 20.0 0.0 0.0 0.0 20.0" Properties=species:S:1:pos:R:3:REF_forces:R:3 REF_energy=-8332.352234587166 pbc="F F F"
C        0.00745357       0.02814446      -0.00000003       0.18035089      -0.02137839      -0.00000004
O        1.28508775      -0.12077381       0.00000005      -0.11454267       0.02147213      -0.00000026
O        2.11642860       0.94010599       0.00000001      -0.06120421      -0.02439078       0.00000012
C       -0.69010889       1.28926092      -0.00000025       0.03243530       0.07771933       0.00000241
C       -0.14596655       2.52775404       0.00000023      -0.02590958      -0.09898151      -0.00000310
C       -0.73982882      -1.27183790       0.00000002      -0.29429630      -0.12066599       0.00000017
H       -1.77313262       1.18663437       0.00000089      -0.00358356      -0.00165321      -0.00000109
H        0.92508265       2.66240693      -0.00000035       0.00662015      -0.00336616       0.00000041
H       -0.79623048       3.39965412      -0.00000134      -0.00461245      -0.01576410       0.00000152
H       -0.05549618      -2.14673658       0.00000008      -0.09548184       0.16834654       0.00000006
H       -1.41422816      -1.33103014       0.90888479       0.19005039       0.00703164      -0.25168741
H       -1.41422823      -1.33103046      -0.90888467       0.19005046       0.00703203       0.25168735
12
Lattice="20.0 0.0 0.0 0.0 20.0 0.0 0.0 0.0 20.0" Properties=species:S:1:pos:R:3:REF_forces:R:3 REF_energy=-8332.37351669399 pbc="F F F"
C        0.00744650       0.02817947      -0.00000003       0.18049134      -0.02980497      -0.00000007
O        1.28511634      -0.12076688       0.00000005      -0.11753010       0.02099486      -0.00000024
O        2.11646883       0.94007570       0.00000001      -0.06853049      -0.01953775       0.00000011
C       -0.68992840       1.28922223      -0.00000025       0.01021641       0.08542515       0.00000244
C       -0.14274259       2.52739186       0.00000023      -0.50614572      -0.05929525      -0.00000308
C       -0.74211867      -1.27339859       0.00000002      -0.05454205       0.04784789       0.00000017
H       -1.77584243       1.18624151       0.00000089       0.02593705       0.00284414      -0.00000111
H        0.89420326       2.65784162      -0.00000035       0.40182554       0.05368762       0.00000022
H       -0.80400988       3.40955679      -0.00000134       0.08224709      -0.12599678       0.00000168
H       -0.06785140      -2.13240936       0.00000008       0.01522796       0.03368254       0.00000008
H       -1.39451138      -1.32900187       0.88081804       0.01570951      -0.00758219      -0.00592315
H       -1.39451145      -1.32900219      -0.88081792       0.01570955      -0.00758186       0.00592309
12
Lattice="20.0 0.0 0.0 0.0 20.0 0.0 0.0 0.0 20.0" Properties=species:S:1:pos:R:3:REF_forces:R:3 REF_energy=-8332.339098328499 pbc="F F F"
C        0.00527257       0.03385622       0.00000086       0.00000000       0.00000000       0.00000000
O        1.30270568      -0.12650036       0.00000007       0.00000000       0.00000000       0.00000000
O        2.11517798       0.94060224       0.00000005       0.00000000       0.00000000       0.00000000
C       -0.70794361       1.29411152       0.00000022       0.00000000       0.00000000       0.00000000
C       -0.13494405       2.51716719      -0.00000030       0.00000000       0.00000000       0.00000000
C       -0.75135309      -1.26978034      -0.00000121       0.00000000       0.00000000       0.00000000
H       -1.79652140       1.24210411      -0.00000576       0.00000000       0.00000000       0.00000000
H        0.92448390       2.72940129      -0.00000065       0.00000000       0.00000000       0.00000000
H       -0.83542656       3.35195790       0.00000253       0.00000000       0.00000000       0.00000000
H       -0.04552964      -2.10369908       0.00000370       0.00000000       0.00000000       0.00000000
H       -1.39526825      -1.36053144       0.88408661       0.00000000       0.00000000       0.00000000
H       -1.39527465      -1.36054102      -0.88408321       0.00000000       0.00000000       0.00000000
12
Lattice="20.0 0.0 0.0 0.0 20.0 0.0 0.0 0.0 20.0" Properties=species:S:1:pos:R:3:REF_forces:R:3 REF_energy=-8332.356786037799 pbc="F F F"
C        0.00475169       0.02928901      -0.05449400       0.22627578      -0.05269236       0.12039300
O        1.28414818      -0.12777159       0.03177482      -0.12679819       0.15356140      -0.09757563
O        2.12046044       0.94586659      -0.00370243      -0.13467026      -0.12129147       0.01329749
C       -0.68910120       1.28848411      -0.01167423      -0.03956407       0.07768791       0.02705073
C       -0.14593546       2.52636191       0.00710736       0.00246424       0.00259427      -0.00893441
C       -0.74614992      -1.26962700       0.00367107      -0.01348266       0.00734914      -0.00784671
H       -1.77306019       1.18612461       0.10506322       0.06242561      -0.00350716      -0.02125437
H        0.92470893       2.66386108      -0.13824920      -0.09058994      -0.00150152       0.03514474
H       -0.80060280       3.39484027       0.17288101       0.07992014      -0.09544765      -0.04662261
H       -0.04815587      -2.10926621       0.02343266      -0.00175151       0.01007266      -0.00408721
H       -1.36777609      -1.30722158       0.90893886       0.01452702       0.00574447      -0.02075478
H       -1.41728771      -1.38294120      -0.85761256       0.02144128       0.01769565       0.01139411
12
Lattice="20.0 0.0 0.0 0.0 20.0 0.0 0.0 0.0 20.0" Properties=species:S:1:pos:R:3:REF_forces:R:3 REF_energy=-8332.35735726845 pbc="F F F"
C        0.00033015       0.02340898       0.00000000       0.27974601       0.03873476      -0.00000000
O        1.27414234      -0.13925896      -0.00000000       0.06868052       0.33287997      -0.00000000
O        2.12763797       0.95508111       0.00000000      -0.24217455      -0.26868252       0.00000000
C       -0.69467863       1.29130459      -0.00000000       0.08634176       0.04481307       0.00000000
C       -0.14166593       2.52560653       0.00000000      -0.08549497      -0.06803783       0.00000000
C       -0.73301929      -1.27001823      -0.00000000      -0.19497687       0.00561301       0.00000000
H       -1.78127669       1.21613644      -0.00000000       0.01681113      -0.03598807      -0.00000000
H        0.92514002       2.69099847      -0.00000000       0.00301900      -0.03673133      -0.00000000
H       -0.81839835       3.37808090      -0.00000000       0.02298480       0.00889907      -0.00000000
H       -0.06927880      -2.13684391       0.00000000       0.01905227       0.04535714      -0.00000000
H       -1.39083089      -1.30838787       0.87833717       0.01315186      -0.03329784      -0.00484642
H       -1.39083089      -1.30838787      -0.87833717       0.01315186      -0.03329784       0.00484642
12
Lattice="20.0 0.0 0.0 0.0 20.0 0.0 0.0 0.0 20.0" Properties=species:S:1:pos:R:3:REF_forces:R:3 REF_energy=-8332.269683511651 pbc="F F F"
C        0.00475182       0.02928708      -0.06782020       0.00000000       0.00000000       0.00000000
O        1.28414759      -0.12777122      -0.13664343       0.00000000       0.00000000       0.00000000
O        2.12045411       0.94587144       0.11304529       0.00000000       0.00000000       0.00000000
C       -0.68909697       1.28848378       0.01496001       0.00000000       0.00000000       0.00000000
C       -0.14593230       2.52636037      -0.01010768       0.00000000       0.00000000       0.00000000
C       -0.74614921      -1.26962933       0.06300857       0.00000000       0.00000000       0.00000000
H       -1.77305548       1.18612640       0.07145681       0.00000000       0.00000000       0.00000000
H        0.92471019       2.66386171      -0.04312400       0.00000000       0.00000000       0.00000000
H       -0.80060097       3.39483637      -0.00390524       0.00000000       0.00000000       0.00000000
H       -0.04815446      -2.10926749       0.21002648       0.00000000       0.00000000       0.00000000
H       -1.40025621      -1.20265402       0.95309208       0.00000000       0.00000000       0.00000000
H       -1.38480507      -1.48751571      -0.81345844       0.00000000       0.00000000       0.00000000
12
Lattice="20.0 0.0 0.0 0.0 20.0 0.0 0.0 0.0 20.0" Properties=species:S:1:pos:R:3:REF_forces:R:3 REF_energy=-8332.275160472696 pbc="F F F"
C        0.01813887       0.02687347      -0.00000282       0.00000000       0.00000000       0.00000000
O        1.30886345      -0.15702319       0.00000119       0.00000000       0.00000000       0.00000000
O        2.11885333       0.95842503       0.00000026       0.00000000       0.00000000       0.00000000
C       -0.72137332       1.31265262       0.00000018       0.00000000       0.00000000       0.00000000
C       -0.15355999       2.54857275       0.00000023       0.00000000       0.00000000       0.00000000
C       -0.75160340      -1.28715789       0.00000061       0.00000000       0.00000000       0.00000000
H       -1.80439178       1.18735207      -0.00000162       0.00000000       0.00000000       0.00000000
H        0.93326512       2.57347023       0.00000639       0.00000000       0.00000000       0.00000000
H       -0.72269279       3.48152130      -0.00000988       0.00000000       0.00000000       0.00000000
H       -0.07189202      -2.14242412       0.00000267       0.00000000       0.00000000       0.00000000
H       -1.40118776      -1.35226648       0.88215712       0.00000000       0.00000000       0.00000000
H       -1.40118670      -1.35227078      -0.88215628       0.00000000       0.00000000       0.00000000
12
Lattice="20.0 0.0 0.0 0.0 20.0 0.0 0.0 0.0 20.0" Properties=species:S:1:pos:R:3:REF_forces:R:3 REF_energy=-8332.35037496235 pbc="F F F"
C        0.01068360       0.03717804      -0.00001786       0.00000000       0.00000000       0.00000000
O        1.29757309      -0.11235937       0.00000087       0.00000000       0.00000000       0.00000000
O        2.11083052       0.93350369       0.00000065       0.00000000       0.00000000       0.00000000
C       -0.68161893       1.28469998       0.00000284       0.00000000       0.00000000       0.00000000
C       -0.15166307       2.52737485       0.00000055       0.00000000       0.00000000       0.00000000
C       -0.76376658      -1.26910189       0.00001978       0.00000000       0.00000000       0.00000000
H       -1.76203759       1.14586171       0.00000745       0.00000000       0.00000000       0.00000000
H        0.92413067       2.62745582       0.00000854       0.00000000       0.00000000       0.00000000
H       -0.77672967       3.41732295      -0.00001580       0.00000000       0.00000000       0.00000000
H       -0.01981588      -2.07226639      -0.00004092       0.00000000       0.00000000       0.00000000
H       -1.39486296      -1.39437501       0.88987826       0.00000000       0.00000000       0.00000000
H       -1.39476540      -1.39424743      -0.88992494       0.00000000       0.00000000       0.00000000
12
Lattice="20.0 0.0 0.0 0.0 20.0 0.0 0.0 0.0 20.0" Properties=species:S:1:pos:R:3:REF_forces:R:3 REF_energy=-8332.398578222972 pbc="F F F"
C        0.00743947       0.02815931      -0.00000380       0.18156477      -0.02690308       0.00084632
O        1.28513072      -0.12076902      -0.00000292      -0.12033408       0.02109794       0.00039373
O        2.11642056       0.94009711      -0.00000137      -0.05992195      -0.02295806       0.00019904
C       -0.69004154       1.28930715       0.00000217       0.02433737       0.07299275      -0.00025799
C       -0.14597012       2.52773035       0.00000090      -0.02555404      -0.09655193      -0.00006912
C       -0.74212165      -1.27339939      -0.00125641      -0.05034116       0.04826015       0.15083566
H       -1.77407150       1.18650155      -0.00001424       0.00578449      -0.00022873       0.00013627
H        0.92507047       2.66244803      -0.00000607       0.00674270      -0.00378036       0.00008244
H       -0.79620570       3.39959670       0.00000054      -0.00489799      -0.01525212      -0.00000593
H       -0.06785019      -2.13241505      -0.00024406       0.01511069       0.03368883       0.00208480
H       -1.40030113      -1.32960173       0.88846231       0.07259711      -0.00280253      -0.08060714
H       -1.38869915      -1.32840443      -0.87314980      -0.04523067      -0.01246951      -0.07374975
12
Lattice="20.0 0.0 0.0 0.0 20.0 0.0 0.0 0.0 20.0" Properties=species:S:1:pos:R:3:REF_forces:R:3 REF_energy=-8332.38794682171 pbc="F F F"
C        0.01208025       0.03955988      -0.00000015       0.00000000       0.00000000       0.00000000
O        1.28581157      -0.14008939      -0.00000001       0.00000000       0.00000000       0.00000000
O        2.10079333       0.93824911      -0.00000018       0.00000000       0.00000000       0.00000000
C       -0.69715870       1.28372287       0.00000066       0.00000000       0.00000000       0.00000000
C       -0.14682811       2.51508279      -0.00000007       0.00000000       0.00000000       0.00000000
C       -0.72650688      -1.24029141      -0.00000005       0.00000000       0.00000000       0.00000000
H       -1.77965784       1.16859956      -0.00000025       0.00000000       0.00000000       0.00000000
H        0.92670583       2.62818482      -0.00000029       0.00000000       0.00000000       0.00000000
H       -0.78534154       3.39529073      -0.00000100       0.00000000       0.00000000       0.00000000
H       -0.02643740      -2.07778265       0.00000016       0.00000000       0.00000000       0.00000000
H       -1.37321055      -1.31664278       0.88298315       0.00000000       0.00000000       0.00000000
H       -1.37321032      -1.31664326      -0.88298341       0.00000000       0.00000000       0.00000000
12
Lattice="20.0 0.0 0.0 0.0 20.0 0.0 0.0 0.0 20.0" Properties=species:S:1:pos:R:3:REF_forces:R:3 REF_energy=-8331.870521733197 pbc="F F F"
C        0.00805336       0.03438047       0.03228044       0.56767623      -0.36517027      -0.17605530
O        1.30963279      -0.12152169       0.00614323      -0.36808065       0.27892543       0.02673627
O        2.14842041       0.97846598      -0.00051788      -0.23963702      -0.25795336      -0.00128702
C       -0.69398430       1.28033394      -0.00049548      -0.59458653      -0.56813206       0.29116997
C       -0.15693810       2.48477827      -0.04402697      -0.22819058       0.77285955      -0.18037435
C       -0.78095607      -1.28788008       0.01766112      -0.10955330       0.49206193      -0.40281722
H       -1.81984221       1.06620104       0.16304269       0.48945921       0.26320544      -0.16087852
H        0.89688377       2.67862688      -0.14443832       0.04974018      -0.08073944       0.02130511
H       -0.84429711       3.37701945      -0.10861445       0.20144186      -0.26955935       0.08352128
H       -0.05814794      -2.14069559      -0.01141492      -0.28610999       0.13787995       0.09645726
H       -1.46618070      -1.15327550       0.88661095       0.12107018      -0.29701411      -0.09124906
H       -1.47420871      -1.24952278      -0.93902863       0.39582069      -0.10650667       0.49314538
12
Lattice="20.0 0.0 0.0 0.0 20.0 0.0 0.0 0.0 20.0" Properties=species:S:1:pos:R:3:REF_forces:R:3 REF_energy=-8332.275369655756 pbc="F F F"
C        0.01843775       0.07266839       0.00000000      -0.02068291      -0.88274546       0.00000000
O        1.27529443      -0.13680892      -0.00000000       0.13650435       0.37454900       0.00000000
O        2.11979253       0.94874022       0.00000000      -0.10374981      -0.18829355      -0.00000000
C       -0.68693650       1.29387438       0.00000000      -0.06567773      -0.01415676      -0.00000000
C       -0.14126644       2.51706268      -0.00000000      -0.12255440       0.12072999      -0.00000000
C       -0.74740726      -1.28572768       0.00000000      -0.00183139       0.27966353      -0.00000000
H       -1.76268064       1.12098944       0.00000000       0.00157824       0.11189280       0.00000000
H        0.92831755       2.65971339       0.00000000       0.00160371       0.00190697       0.00000000
H       -0.83531145       3.35436367       0.00000000       0.06293828       0.05466293       0.00000000
H       -0.08256439      -2.15326447      -0.00000000       0.05394859       0.07990402       0.00000000
H       -1.40416822      -1.35852586       0.87652495       0.02941990       0.03100760       0.00624599
H       -1.40416822      -1.35852586      -0.87652495       0.02941989       0.03100760      -0.00624599
12
Lattice="20.0 0.0 0.0 0.0 20.0 0.0 0.0 0.0 20.0" Properties=species:S:1:pos:R:3:REF_forces:R:3 REF_energy=-8332.38218028844 pbc="F F F"
C        0.00748903       0.02820271      -0.00000003       0.17639661      -0.03387970      -0.00000004
O        1.28510566      -0.12076989       0.00000005      -0.11621101       0.02159166      -0.00000026
O        2.11642334       0.94009937       0.00000001      -0.06067211      -0.02333475       0.00000012
C       -0.68821372       1.28942661      -0.00000025      -0.19002742       0.06033657       0.00000258
C       -0.14626944       2.52871625       0.00000023       0.01558781      -0.22556191      -0.00000291
C       -0.74088912      -1.27435743       0.00000002      -0.21168067       0.17883944       0.00000016
H       -1.79591893       1.18461023       0.00000089       0.22024241       0.01806509      -0.00000128
H        0.92029365       2.66193097      -0.00000035       0.05720113       0.00156220       0.00000040
H       -0.78777974       3.38851375      -0.00000134      -0.09688278       0.10668492       0.00000133
H       -0.07793252      -2.12033382       0.00000008       0.12366792      -0.10226478       0.00000009
H       -1.39692905      -1.32944528       0.88449208       0.04114144      -0.00337300      -0.04408582
H       -1.39692912      -1.32944560      -0.88449196       0.04114149      -0.00337266       0.04408576
12
Lattice="20.0 0.0 0.0 0.0 20.0 0.0 0.0 0.0 20.0" Properties=species:S:1:pos:R:3:REF_forces:R:3 REF_energy=-8332.386298963149 pbc="F F F"
C        0.00809849       0.02868513      -0.00000071       0.00000000       0.00000000       0.00000000
O        1.29032700      -0.13508449       0.00000030       0.00000000       0.00000000       0.00000000
O        2.12005866       0.94900620       0.00000007       0.00000000       0.00000000       0.00000000
C       -0.69716923       1.29452624       0.00000004       0.00000000       0.00000000       0.00000000
C       -0.14784159       2.53191462       0.00000006       0.00000000       0.00000000       0.00000000
C       -0.74751329      -1.27400972       0.00000015       0.00000000       0.00000000       0.00000000
H       -1.78089309       1.18643147      -0.00000040       0.00000000       0.00000000       0.00000000
H        0.92684797       2.64126337       0.00000160       0.00000000       0.00000000       0.00000000
H       -0.78112530       3.41651053      -0.00000247       0.00000000       0.00000000       0.00000000
H       -0.05408991      -2.11755569       0.00000067       0.00000000       0.00000000       0.00000000
H       -1.39469587      -1.34687766       0.88299606       0.00000000       0.00000000       0.00000000
H       -1.39469560      -1.34687874      -0.88299585       0.00000000       0.00000000       0.00000000
12
Lattice="20.0 0.0 0.0 0.0 20.0 0.0 0.0 0.0 20.0" Properties=species:S:1:pos:R:3:REF_forces:R:3 REF_energy=-8332.34290139844 pbc="F F F"
C        0.00474974       0.02929044      -0.01353257       0.00000000       0.00000000       0.00000000
O        1.28414636      -0.12777319      -0.00524009       0.00000000       0.00000000       0.00000000
O        2.12046209       0.94586212       0.01962232       0.00000000       0.00000000       0.00000000
C       -0.68910086       1.28848685      -0.02350866       0.00000000       0.00000000       0.00000000
C       -0.14593105       2.52636244       0.00125396       0.00000000       0.00000000       0.00000000
C       -0.74615287      -1.26962462       0.01266473       0.00000000       0.00000000       0.00000000
H       -1.77305966       1.18612970      -0.05611792       0.00000000       0.00000000       0.00000000
H        0.92471372       2.66385708       0.03916944       0.00000000       0.00000000       0.00000000
H       -0.80059491       3.39484330      -0.01714911       0.00000000       0.00000000       0.00000000
H       -0.04815940      -2.10926395      -0.22893538       0.00000000       0.00000000       0.00000000
H       -1.18931508      -1.44157126       1.03841635       0.00000000       0.00000000       0.00000000
H       -1.59575380      -1.24858570      -0.72813470       0.00000000       0.00000000       0.00000000
12
Lattice="20.0 0.0 0.0 0.0 20.0 0.0 0.0 0.0 20.0" Properties=species:S:1:pos:R:3:REF_forces:R:3 REF_energy=-8332.265475136048 pbc="F F F"
C        0.00475169       0.02928901       0.00002252       0.21335657      -0.04312215      -0.00327470
O        1.28414818      -0.12777159       0.00001771      -0.10346059       0.13749853      -0.00233686
O        2.12046044       0.94586659       0.00000822      -0.12655891      -0.11840897      -0.00124938
C       -0.68910120       1.28848411      -0.00001446       0.01160077       0.08171458       0.00119246
C       -0.14593546       2.52636191      -0.00000398      -0.02522437      -0.08025197       0.00046067
C       -0.74614992      -1.26962700       0.00749189       0.13332308       0.02368732      -0.92495125
H       -1.77306019       1.18612461       0.00009019       0.00526751      -0.00016867      -0.00091469
H        0.92470893       2.66386108       0.00003409       0.00637113      -0.00517737      -0.00034080
H       -0.80060280       3.39484027      -0.00001118      -0.00044365      -0.00938503       0.00012960
H       -0.04815587      -2.10926621       0.00145581      -0.00250035       0.00881055      -0.01404713
H       -1.35794125      -1.34151081       0.83762302      -0.41304162      -0.03527103       0.55174160
H       -1.42712255      -1.34865198      -0.92892840       0.30195892       0.04036976       0.39354102
12
Lattice="20.0 0.0 0.0 0.0 20.0 0.0 0.0 0.0 20.0" Properties=species:S:1:pos:R:3:REF_forces:R:3 REF_energy=-8332.333860759993 pbc="F F F"
C        0.00468995       0.02557645       0.00000025       0.00000000       0.00000000       0.00000000
O        1.28241124      -0.12751190      -0.00000002       0.00000000       0.00000000       0.00000000
O        2.12128427       0.94627028       0.00000015       0.00000000       0.00000000       0.00000000
C       -0.70072783       1.28137272      -0.00000023       0.00000000       0.00000000       0.00000000
C       -0.13538577       2.53344076      -0.00000024       0.00000000       0.00000000       0.00000000
C       -0.74635351      -1.26744179      -0.00000026       0.00000000       0.00000000       0.00000000
H       -1.77879221       1.10226823      -0.00000042       0.00000000       0.00000000       0.00000000
H        0.92782092       2.73198932       0.00000105       0.00000000       0.00000000       0.00000000
H       -0.77392696       3.41666560       0.00000017       0.00000000       0.00000000       0.00000000
H       -0.04740227      -2.10621818       0.00000190       0.00000000       0.00000000       0.00000000
H       -1.38969129      -1.34562415       0.88523706       0.00000000       0.00000000       0.00000000
H       -1.38969313      -1.34562541      -0.88523606       0.00000000       0.00000000       0.00000000
12
Lattice="20.0 0.0 0.0 0.0 20.0 0.0 0.0 0.0 20.0" Properties=species:S:1:pos:R:3:REF_forces:R:3 REF_energy=-8332.382144848976 pbc="F F F"
C       -0.00194190       0.03049678       0.00000141       0.00000000       0.00000000       0.00000000
O        1.27179054      -0.11314579      -0.00000059       0.00000000       0.00000000       0.00000000
O        2.12126400       0.93958736      -0.00000013       0.00000000       0.00000000       0.00000000
C       -0.67296514       1.27639986      -0.00000009       0.00000000       0.00000000       0.00000000
C       -0.14212319       2.51525650      -0.00000012       0.00000000       0.00000000       0.00000000
C       -0.74342317      -1.26086155      -0.00000031       0.00000000       0.00000000       0.00000000
H       -1.75739440       1.18551088       0.00000081       0.00000000       0.00000000       0.00000000
H        0.92043083       2.70905651      -0.00000320       0.00000000       0.00000000       0.00000000
H       -0.83955780       3.35149975       0.00000494       0.00000000       0.00000000       0.00000000
H       -0.03628779      -2.09268726      -0.00000134       0.00000000       0.00000000       0.00000000
H       -1.38820397      -1.34148885       0.88383500       0.00000000       0.00000000       0.00000000
H       -1.38820450      -1.34148670      -0.88383542       0.00000000       0.00000000       0.00000000
12
Lattice="20.0 0.0 0.0 0.0 20.0 0.0 0.0 0.0 20.0" Properties=species:S:1:pos:R:3:REF_forces:R:3 REF_energy=-8332.364784675492 pbc="F F F"
C        0.00475169       0.02928901       0.00045000       0.21653481      -0.04131916      -0.00460374
O        1.28414818      -0.12777159      -0.00142449      -0.10342907       0.13610796       0.02307990
O        2.12046044       0.94586659       0.00052831      -0.12640544      -0.11714707      -0.00873768
C       -0.68910120       1.28848411       0.01111178      -0.03716060       0.07074140      -0.15106202
C       -0.14593546       2.52636191      -0.00143178      -0.01530428      -0.06946473       0.02045693
C       -0.74614992      -1.26962700       0.00135708      -0.00509484       0.00651482      -0.01768805
H       -1.77306019       1.18612461      -0.10356343       0.04816231       0.00480867       0.11843186
H        0.92470893       2.66386108      -0.05303715      -0.00299010      -0.00550028       0.05851566
H       -0.80060280       3.39484027       0.03881720       0.00296776      -0.01350357      -0.04387291
H       -0.04815587      -2.10926621      -0.00236010      -0.00145621       0.00817592       0.00253598
H       -1.39535102      -1.34842943       0.88201773       0.01530499       0.01429735      -0.00558874
H       -1.38971278      -1.34173335      -0.88453368       0.00934246       0.00674493       0.00844418
12
Lattice="20.0 0.0 0.0 0.0 20.0 0.0 0.0 0.0 20.0" Properties=species:S:1:pos:R:3:REF_forces:R:3 REF_energy=-8331.857352848467 pbc="F F F"
C        0.04027931       0.01790298       0.07122307       0.32688059      -0.32822231      -0.23161152
O        1.33599932      -0.10284236       0.01766478      -0.29286661       0.22954989       0.05050900
O        2.18620523       1.02239281      -0.00152951      -0.36275638      -0.34093678      -0.00406931
C       -0.72245705       1.22777832       0.01905000       0.77531337       0.26463538       0.16879839
C       -0.18146709       2.46292261      -0.13013967      -0.11549234      -0.25599436      -0.18420022
C       -0.83603787      -1.27294286       0.03179849       0.70235022       0.58807723       0.45636673
H       -1.70885108       1.06725780       0.31823768      -0.53041993       0.04256444      -0.01011935
H        0.86117692       2.62397931      -0.35331940       0.03892461      -0.06256476       0.04099279
H       -0.85625972       3.28088622      -0.21956216      -0.13824521       0.23554668       0.07440951
H       -0.25140967      -2.17221546       0.05834507       0.04257947      -0.14950853       0.05617639
H       -1.51047557      -1.11816508       0.85680644      -0.09664872      -0.18348970       0.19476775
H       -1.41444477      -1.19218193      -0.82033686      -0.34960651      -0.03935638      -0.61160512
12
Lattice="20.0 0.0 0.0 0.0 20.0 0.0 0.0 0.0 20.0" Properties=species:S:1:pos:R:3:REF_forces:R:3 REF_energy=-8332.40062204345 pbc="F F F"
C        0.00743947       0.02815931       0.00000249       0.18159577      -0.02688259      -0.00056455
O        1.28513072      -0.12076902       0.00000202      -0.12034715       0.02109796      -0.00026287
O        2.11642056       0.94009711       0.00000093      -0.05991475      -0.02294997      -0.00013249
C       -0.69004154       1.28930715      -0.00000187       0.02434064       0.07299250       0.00017603
C       -0.14597012       2.52773035      -0.00000022      -0.02555505      -0.09655124       0.00004092
C       -0.74212165      -1.27339939       0.00083764      -0.05249321       0.04807250      -0.10052063
H       -1.77407150       1.18650155       0.00001097       0.00578330      -0.00022804      -0.00009269
H        0.92507047       2.66244803       0.00000346       0.00674315      -0.00378152      -0.00005429
H       -0.79620570       3.39959670      -0.00000259      -0.00489824      -0.01525190       0.00000649
H       -0.06785019      -2.13241505       0.00016285       0.01512719       0.03367852      -0.00138997
H       -1.39063275      -1.32860372       0.87570199      -0.02452062      -0.01077398       0.04668478
H       -1.39836753      -1.32940244      -0.88591012       0.05400415      -0.00433076       0.05618628
12
Lattice="20.0 0.0 0.0 0.0 20.0 0.0 0.0 0.0 20.0" Properties=species:S:1:pos:R:3:REF_forces:R:3 REF_energy=-8332.391592873793 pbc="F F F"
C        0.00475376       0.02929156       0.00637799       0.00000000       0.00000000       0.00000000
O        1.28415192      -0.12776689      -0.00031765       0.00000000       0.00000000       0.00000000
O        2.12045756       0.94586288      -0.00023300       0.00000000       0.00000000       0.00000000
C       -0.68909844       1.28848306      -0.00111726       0.00000000       0.00000000       0.00000000
C       -0.14593765       2.52636228      -0.00015621       0.00000000       0.00000000       0.00000000
C       -0.74615533      -1.26962695      -0.00704613       0.00000000       0.00000000       0.00000000
H       -1.77305604       1.18611100      -0.00167604       0.00000000       0.00000000       0.00000000
H        0.92470854       2.66384746      -0.00273796       0.00000000       0.00000000       0.00000000
H       -0.80059443       3.39484814       0.00529111       0.00000000       0.00000000       0.00000000
H       -0.04814728      -2.10925496       0.01446322       0.00000000       0.00000000       0.00000000
H       -1.37519101      -1.32244512       0.89154624       0.00000000       0.00000000       0.00000000
H       -1.40987419      -1.36774813      -0.87500912       0.00000000       0.00000000       0.00000000
12
Lattice="20.0 0.0 0.0 0.0 20.0 0.0 0.0 0.0 20.0" Properties=species:S:1:pos:R:3:REF_forces:R:3 REF_energy=-8332.26828316963 pbc="F F F"
C       -0.00183018       0.02110387       0.00000000       0.44773995       0.23881724       0.00000000
O        1.28694103      -0.12734028       0.00000000      -0.22779749       0.11190054      -0.00000000
O        2.12070955       0.94632049      -0.00000000      -0.13626612      -0.13798255      -0.00000000
C       -0.68210319       1.31927435      -0.00000000      -0.31937862      -1.10807680      -0.00000000
C       -0.15435049       2.50246430       0.00000000       0.33443172       0.89248972      -0.00000000
C       -0.74491630      -1.26848104      -0.00000000      -0.05098006      -0.04063755      -0.00000001
H       -1.75770134       1.14306282       0.00000000      -0.02350565       0.12718927       0.00000000
H        0.90478737       2.69225378       0.00000000       0.05592460      -0.08989856       0.00000000
H       -0.76903237       3.39788423      -0.00000000      -0.08860853      -0.02559004       0.00000000
H       -0.05192949      -2.11221794      -0.00000000       0.00906189       0.01656271       0.00000000
H       -1.38798273      -1.34394526       0.88608774       0.00005669       0.00754022      -0.01529521
H       -1.38798273      -1.34394526      -0.88608774       0.00005669       0.00754022       0.01529521
12
Lattice="20.0 0.0 0.0 0.0 20.0 0.0 0.0 0.0 20.0" Properties=species:S:1:pos:R:3:REF_forces:R:3 REF_energy=-8332.345319639671 pbc="F F F"
C        0.00474115       0.02925877      -0.00000000       0.00000000       0.00000000       0.00000000
O        1.28416974      -0.12777481       0.00000000       0.00000000       0.00000000       0.00000000
O        2.12038804       0.94589871       0.00000001       0.00000000       0.00000000       0.00000000
C       -0.68927086       1.28861149      -0.00000001       0.00000000       0.00000000       0.00000000
C       -0.15077676       2.52686962      -0.00000000       0.00000000       0.00000000       0.00000000
C       -0.74615440      -1.26962820      -0.00000001       0.00000000       0.00000000       0.00000000
H       -1.77040440       1.18651464      -0.00000005       0.00000000       0.00000000       0.00000000
H        0.97100995       2.67077070       0.00000003       0.00000000       0.00000000       0.00000000
H       -0.78889679       3.37990049      -0.00000002       0.00000000       0.00000000       0.00000000
H       -0.04815396      -2.10927486       0.00000002       0.00000000       0.00000000       0.00000000
H       -1.39251505      -1.34508293       0.88325789       0.00000000       0.00000000       0.00000000
H       -1.39251495      -1.34508301      -0.88325768       0.00000000       0.00000000       0.00000000
12
Lattice="20.0 0.0 0.0 0.0 20.0 0.0 0.0 0.0 20.0" Properties=species:S:1:pos:R:3:REF_forces:R:3 REF_energy=-8332.365936446757 pbc="F F F"
C        0.00475173       0.02928877      -0.04874092       0.00000000       0.00000000       0.00000000
O        1.28414858      -0.12777112       0.02842026       0.00000000       0.00000000       0.00000000
O        2.12046052       0.94586789      -0.00331155       0.00000000       0.00000000       0.00000000
C       -0.68910168       1.28848282      -0.01044177       0.00000000       0.00000000       0.00000000
C       -0.14593401       2.52636040       0.00635701       0.00000000       0.00000000       0.00000000
C       -0.74615132      -1.26962617       0.00328353       0.00000000       0.00000000       0.00000000
H       -1.77306098       1.18612361       0.09397136       0.00000000       0.00000000       0.00000000
H        0.92471088       2.66385737      -0.12365380       0.00000000       0.00000000       0.00000000
H       -0.80060002       3.39484012       0.15462947       0.00000000       0.00000000       0.00000000
H       -0.04815910      -2.10926712       0.02095880       0.00000000       0.00000000       0.00000000
H       -1.37039138      -1.31121644       0.90622956       0.00000000       0.00000000       0.00000000
H       -1.41467597      -1.37894212      -0.86032186       0.00000000       0.00000000       0.00000000
12
Lattice="20.0 0.0 0.0 0.0 20.0 0.0 0.0 0.0 20.0" Properties=species:S:1:pos:R:3:REF_forces:R:3 REF_energy=-8331.970838358504 pbc="F F F"
C        0.00464319       0.02957605      -0.00000000       0.22682140      -0.07761423      -0.00000000
O        1.28418519      -0.12776706      -0.00000000      -0.11067738       0.13747027       0.00000000
O        2.12038315       0.94588055       0.00000000      -0.11234817      -0.12002919       0.00000000
C       -0.68132312       1.29005881       0.00000000      -0.76417081      -0.10851079      -0.00000000
C       -0.14497030       2.51639776      -0.00000000       0.00983474       0.86955076       0.00000000
C       -0.74587926      -1.26975836      -0.00000000      -0.03944479       0.02377365       0.00000000
H       -1.85838811       1.17845256      -0.00000000       0.70086404       0.06181463      -0.00000000
H        0.98165547       2.67075713      -0.00000000      -0.50684356      -0.07342609      -0.00000000
H       -0.87440924       3.49264869      -0.00000000       0.53928204      -0.73402433      -0.00000000
H       -0.04958162      -2.10788274       0.00000000       0.01378907      -0.00679350      -0.00000000
H       -1.39346554      -1.34537769       0.88465930       0.02209640       0.01371422      -0.02133636
H       -1.39346554      -1.34537769      -0.88465930       0.02209640       0.01371422       0.02133636
12
Lattice="20.0 0.0 0.0 0.0 20.0 0.0 0.0 0.0 20.0" Properties=species:S:1:pos:R:3:REF_forces:R:3 REF_energy=-8332.306695979434 pbc="F F F"
C        0.01266090       0.03980772      -0.00002381       0.00000000       0.00000000       0.00000000
O        1.30204807      -0.10722197       0.00000116       0.00000000       0.00000000       0.00000000
O        2.10762055       0.92938273       0.00000087       0.00000000       0.00000000       0.00000000
C       -0.67912484       1.28343860       0.00000379       0.00000000       0.00000000       0.00000000
C       -0.15357227       2.52771250       0.00000074       0.00000000       0.00000000       0.00000000
C       -0.76963880      -1.26892685       0.00002637       0.00000000       0.00000000       0.00000000
H       -1.75836339       1.13244074       0.00000994       0.00000000       0.00000000       0.00000000
H        0.92393792       2.61532073       0.00001138       0.00000000       0.00000000       0.00000000
H       -0.76877196       3.42481718      -0.00002107       0.00000000       0.00000000       0.00000000
H       -0.01036921      -2.05993312      -0.00005456       0.00000000       0.00000000       0.00000000
H       -1.39563998      -1.41080622       0.89207911       0.00000000       0.00000000       0.00000000
H       -1.39550989      -1.41063611      -0.89214135       0.00000000       0.00000000       0.00000000
12
Lattice="20.0 0.0 0.0 0.0 20.0 0.0 0.0 0.0 20.0" Properties=species:S:1:pos:R:3:REF_forces:R:3 REF_energy=-8332.387054358187 pbc="F F F"
C        0.00745766       0.02811117      -0.00000003       0.17924483      -0.02101228      -0.00000005
O        1.28512451      -0.12076978       0.00000005      -0.11933055       0.02140111      -0.00000026
O        2.11643353       0.94009477       0.00000001      -0.06210802      -0.02261331       0.00000012
C       -0.69134597       1.28904307      -0.00000025       0.19698646       0.10864614       0.00000231
C       -0.14613198       2.52940139       0.00000023      -0.00012729      -0.32085968      -0.00000282
C       -0.74216704      -1.27337736       0.00000002      -0.04853410       0.04496648       0.00000017
H       -1.75976157       1.18778819       0.00000089      -0.15327256      -0.01470630      -0.00000097
H        0.91552025       2.66129153      -0.00000035       0.11058424       0.00835612       0.00000037
H       -0.78382799       3.38319373      -0.00000134      -0.14395222       0.17066305       0.00000124
H       -0.06761108      -2.13264707       0.00000008       0.01263721       0.03618564       0.00000008
H       -1.39434353      -1.32895323       0.88057408       0.01393780      -0.00796111      -0.00338639
H       -1.39434360      -1.32895355      -0.88057396       0.01393785      -0.00796077       0.00338633
12
Lattice="20.0 0.0 0.0 0.0 20.0 0.0 0.0 0.0 20.0" Properties=species:S:1:pos:R:3:REF_forces:R:3 REF_energy=-8332.366554926803 pbc="F F F"
C        0.01281502       0.02589990      -0.00000008       0.00000000       0.00000000       0.00000000
O        1.28709580      -0.10676390       0.00000014       0.00000000       0.00000000       0.00000000
O        2.10834081       0.92855815       0.00000004       0.00000000       0.00000000       0.00000000
C       -0.69192222       1.29095323      -0.00000075       0.00000000       0.00000000       0.00000000
C       -0.14603943       2.53046722       0.00000069       0.00000000       0.00000000       0.00000000
C       -0.73406512      -1.28094418       0.00000006       0.00000000       0.00000000       0.00000000
H       -1.77609413       1.18725542       0.00000267       0.00000000       0.00000000       0.00000000
H        0.92579357       2.65962193      -0.00000106       0.00000000       0.00000000       0.00000000
H       -0.78741152       3.40910957      -0.00000402       0.00000000       0.00000000       0.00000000
H       -0.10723882      -2.17871274       0.00000025       0.00000000       0.00000000       0.00000000
H       -1.39843651      -1.29684598       0.87586693       0.00000000       0.00000000       0.00000000
H       -1.39843674      -1.29684693      -0.87586656       0.00000000       0.00000000       0.00000000
12
Lattice="20.0 0.0 0.0 0.0 20.0 0.0 0.0 0.0 20.0" Properties=species:S:1:pos:R:3:REF_forces:R:3 REF_energy=-8332.267557737761 pbc="F F F"
C        0.00475169       0.02928901      -0.00295632       0.21356307      -0.04459281       0.08587267
O        1.28414818      -0.12777159       0.00002267      -0.10264524       0.13742064      -0.00227413
O        2.12046044       0.94586659      -0.00001072      -0.12620672      -0.11771755       0.00034984
C       -0.68910120       1.28848411       0.00065478       0.01222396       0.08353863      -0.01820678
C       -0.14593546       2.52636191       0.00007008      -0.02564017      -0.08042247      -0.00194645
C       -0.74614992      -1.26962700      -0.00956341       0.01224957      -0.02716467       0.27010976
H       -1.77306019       1.18612461      -0.00098970       0.00512987       0.00012953       0.00266247
H        0.92470893       2.66386108       0.00003178       0.00641147      -0.00527945      -0.00015084
H       -0.80060280       3.39484027      -0.00141673      -0.00046993      -0.00933843       0.00333312
H       -0.04815587      -2.10926621       0.12517871      -0.01598664       0.03490283      -0.29620192
H       -1.36316315      -1.42317166       0.89205490      -0.05768682       0.19972166      -0.04001365
H       -1.42190065      -1.26699113      -0.87449652       0.07977664      -0.17049671      -0.00346188
12
Lattice="20.0 0.0 0.0 0.0 20.0 0.0 0.0 0.0 20.0" Properties=species:S:1:pos:R:3:REF_forces:R:3 REF_energy=-8332.288778715341 pbc="F F F"
C        0.00475125       0.02928881      -0.00080500       0.00000000       0.00000000       0.00000000
O        1.28414838      -0.12777210       0.00254822       0.00000000       0.00000000       0.00000000
O        2.12046071       0.94586695      -0.00094507       0.00000000       0.00000000       0.00000000
C       -0.68910181       1.28848438      -0.01987735       0.00000000       0.00000000       0.00000000
C       -0.14593481       2.52636083       0.00256123       0.00000000       0.00000000       0.00000000
C       -0.74614997      -1.26962629      -0.00242760       0.00000000       0.00000000       0.00000000
H       -1.77306106       1.18612841       0.18525989       0.00000000       0.00000000       0.00000000
H        0.92470865       2.66386593       0.09487584       0.00000000       0.00000000       0.00000000
H       -0.80060636       3.39483593      -0.06943827       0.00000000       0.00000000       0.00000000
H       -0.04815395      -2.10926412       0.00422183       0.00000000       0.00000000       0.00000000
H       -1.38748854      -1.33909247       0.88552641       0.00000000       0.00000000       0.00000000
H       -1.39757445      -1.35107065      -0.88102579       0.00000000       0.00000000       0.00000000
12
Lattice="20.0 0.0 0.0 0.0 20.0 0.0 0.0 0.0 20.0" Properties=species:S:1:pos:R:3:REF_forces:R:3 REF_energy=-8332.388103410047 pbc="F F F"
C        0.00344875       0.02910895       0.00000001       0.00000000       0.00000000       0.00000000
O        1.28434550      -0.12793550      -0.00000002       0.00000000       0.00000000       0.00000000
O        2.12070445       0.94606710      -0.00000000       0.00000000       0.00000000       0.00000000
C       -0.68851796       1.28738099       0.00000001       0.00000000       0.00000000       0.00000000
C       -0.14655249       2.52625884       0.00000000       0.00000000       0.00000000       0.00000000
C       -0.74307047      -1.26531857      -0.00000004       0.00000000       0.00000000       0.00000000
H       -1.77281277       1.18974116       0.00000018       0.00000000       0.00000000       0.00000000
H        0.92368960       2.66634959       0.00000003       0.00000000       0.00000000       0.00000000
H       -0.79596066       3.39876356      -0.00000003       0.00000000       0.00000000       0.00000000
H       -0.06410679      -2.12091951       0.00000034       0.00000000       0.00000000       0.00000000
H       -1.40037743      -1.36197050       0.87414568       0.00000000       0.00000000       0.00000000
H       -1.40037764      -1.36196991      -0.87414564       0.00000000       0.00000000       0.00000000
12
Lattice="20.0 0.0 0.0 0.0 20.0 0.0 0.0 0.0 20.0" Properties=species:S:1:pos:R:3:REF_forces:R:3 REF_energy=-8332.363528311693 pbc="F F F"
C        0.00475169       0.02928901      -0.00048370       0.21345761      -0.04251953       0.00672037
O        1.28414818      -0.12777159      -0.00005341      -0.10187309       0.13946070       0.00012156
O        2.12046044       0.94586659       0.00014879      -0.12724957      -0.12014306      -0.00221268
C       -0.68910120       1.28848411       0.00612588       0.01092592       0.07848536      -0.08023907
C       -0.14593546       2.52636191      -0.01918854      -0.00301603      -0.03904285       0.25521448
C       -0.74614992      -1.26962700       0.00022835      -0.00513234       0.00651809      -0.00279345
H       -1.77306019       1.18612461      -0.00071046       0.00485007      -0.00096402       0.00139886
H        0.92470893       2.66386108       0.08065230      -0.02963986      -0.01299905      -0.09033708
H       -0.80060280       3.39484027       0.07851087       0.01469431      -0.03721385      -0.08909554
H       -0.04815587      -2.10926621      -0.00053611      -0.00155629       0.00809924       0.00049320
H       -1.39318761      -1.34634425       0.88291169       0.01300272       0.01174275      -0.00648323
H       -1.39187619      -1.34381854      -0.88363973       0.01169238       0.00906310       0.00723740
12
Lattice="20.0 0.0 0.0 0.0 20.0 0.0 0.0 0.0 20.0" Properties=species:S:1:pos:R:3:REF_forces:R:3 REF_energy=-8332.019123418579 pbc="F F F"
C        0.05136543       0.00963868       0.07736898       0.14169703      -0.24654722      -0.19800773
O        1.33969245      -0.09704014       0.02076593      -0.19345877       0.16973695       0.04984358
O        2.19286299       1.03043141      -0.00182201      -0.38248177      -0.33718237      -0.00701855
C       -0.72149612       1.21424194       0.02647006       0.32062485       0.42377069       0.26244192
C       -0.18647619       2.45807220      -0.15309317      -0.42516905      -0.15621971      -0.15049972
C       -0.84241723      -1.25961854       0.03982281       0.47211919       0.22828841       0.02530614
H       -1.75420862       1.08317795       0.34889901      -0.01473118       0.04640464      -0.13957370
H        0.84970262       2.59660706      -0.39495815       0.09613091      -0.01490083       0.02473076
H       -0.88774368       3.30246323      -0.23471521       0.11075345      -0.05596768       0.08592798
H       -0.29583254      -2.20878023       0.08846019      -0.01263322       0.07234140      -0.00201275
H       -1.52477155      -1.15359573       0.86855809      -0.09310422      -0.07693736       0.14083525
H       -1.43958415      -1.19120332      -0.86441251      -0.01956510      -0.05279736      -0.09148177
12
Lattice="20.0 0.0 0.0 0.0 20.0 0.0 0.0 0.0 20.0" Properties=species:S:1:pos:R:3:REF_forces:R:3 REF_energy=-8332.401382517528 pbc="F F F"
C        0.00743689       0.02816202      -0.00000003       0.18176488      -0.02789138      -0.00000005
O        1.28513856      -0.12076815       0.00000005      -0.12138589       0.02101998      -0.00000026
O        2.11641910       0.94009549       0.00000001      -0.05969238      -0.02269997       0.00000012
C       -0.69002925       1.28931559      -0.00000025       0.02285840       0.07212845       0.00000242
C       -0.14597077       2.52772602       0.00000023      -0.02548825      -0.09611089      -0.00000310
C       -0.74254027      -1.27368448       0.00000002      -0.00349897       0.08067283       0.00000017
H       -1.77424292       1.18647730       0.00000089       0.00749056       0.00002976      -0.00000110
H        0.92506825       2.66245553      -0.00000035       0.00676426      -0.00385462       0.00000041
H       -0.79620118       3.39958622      -0.00000134      -0.00494982      -0.01515933       0.00000151
H       -0.07010571      -2.12980031       0.00000008       0.03655479       0.00762066       0.00000008
H       -1.39089827      -1.32863280       0.87567968      -0.02028736      -0.01036077       0.04472097
H       -1.39089835      -1.32863312      -0.87567955      -0.02028733      -0.01036045      -0.04472103
12
Lattice="20.0 0.0 0.0 0.0 20.0 0.0 0.0 0.0 20.0" Properties=species:S:1:pos:R:3:REF_forces:R:3 REF_energy=-8332.252570858362 pbc="F F F"
C        0.00480594       0.02914550       0.00000000       0.20788462      -0.02423992       0.00000000
O        1.28412967      -0.12777385       0.00000000      -0.10136136       0.13865357      -0.00000000
O        2.12049909       0.94585960      -0.00000000      -0.13283366      -0.11661268      -0.00000000
C       -0.69299025       1.28769676      -0.00000000       0.57411716       0.19242165       0.00000000
C       -0.14641804       2.53134399       0.00000000       0.09314131      -0.82564346      -0.00000000
C       -0.74628525      -1.26956132       0.00000000       0.01187809      -0.00175285       0.00000000
H       -1.73039623       1.18996063       0.00000000      -0.51517554      -0.04741597       0.00000000
H        0.89623565       2.66041306       0.00000000       0.33298814       0.03340876       0.00000000
H       -0.76369958       3.34593606       0.00000000      -0.47585837       0.61825233       0.00000000
H       -0.04744300      -2.10995795      -0.00000000      -0.00901149       0.01559166      -0.00000000
H       -1.39206508      -1.34493324       0.88258391       0.00741002       0.00886379       0.00039382
H       -1.39206508      -1.34493324      -0.88258391       0.00741002       0.00886379      -0.00039383
12
Lattice="20.0 0.0 0.0 0.0 20.0 0.0 0.0 0.0 20.0" Properties=species:S:1:pos:R:3:REF_forces:R:3 REF_energy=-8332.35402809992 pbc="F F F"
C        0.01223506       0.02793867       0.00000000       0.15753572      -0.04212842      -0.00000000
O        1.29796443      -0.14412440      -0.00000000      -0.25883945       0.31747547       0.00000000
O        2.11956222       0.95288769       0.00000000      -0.11008718      -0.19479058       0.00000000
C       -0.70714221       1.30199453       0.00000000       0.15506356      -0.01868362      -0.00000000
C       -0.15019779       2.53877785      -0.00000000       0.01542287      -0.17024693       0.00000000
C       -0.74919814      -1.27942666       0.00000000       0.01983314       0.08613509       0.00000000
H       -1.79057564       1.18681178       0.00000000       0.01775237      -0.00073018      -0.00000000
H        0.92949206       2.61333000       0.00000000      -0.01267525       0.02991388      -0.00000000
H       -0.75705000       3.44329612      -0.00000000      -0.02274941      -0.05442884      -0.00000000
H       -0.06142320      -2.12780075      -0.00000000       0.00759184       0.02143403      -0.00000000
H       -1.39737015      -1.34909946       0.88265011       0.01551332       0.01328236      -0.00634521
H       -1.39737015      -1.34909946      -0.88265011       0.01551332       0.01328236       0.00634521
12
Lattice="20.0 0.0 0.0 0.0 20.0 0.0 0.0 0.0 20.0" Properties=species:S:1:pos:R:3:REF_forces:R:3 REF_energy=-8332.343709411765 pbc="F F F"
C        0.01386543       0.03753529       0.00000001       0.00000000       0.00000000       0.00000000
O        1.27913440      -0.12923291      -0.00000002       0.00000000       0.00000000       0.00000000
O        2.12044425       0.94666217      -0.00000003       0.00000000       0.00000000       0.00000000
C       -0.68658192       1.28082686       0.00000003       0.00000000       0.00000000       0.00000000
C       -0.15260839       2.51857269       0.00000004       0.00000000       0.00000000       0.00000000
C       -0.74963502      -1.27321060       0.00000019       0.00000000       0.00000000       0.00000000
H       -1.77471293       1.23484872       0.00000041       0.00000000       0.00000000       0.00000000
H        0.90960010       2.70983851      -0.00000028       0.00000000       0.00000000       0.00000000
H       -0.74387474       3.43586070      -0.00000011       0.00000000       0.00000000       0.00000000
H       -0.04746900      -2.10987038      -0.00000211       0.00000000       0.00000000       0.00000000
H       -1.38172709      -1.34310395       0.89345931       0.00000000       0.00000000       0.00000000
H       -1.38172607      -1.34310544      -0.89345968       0.00000000       0.00000000       0.00000000
12
Lattice="20.0 0.0 0.0 0.0 20.0 0.0 0.0 0.0 20.0" Properties=species:S:1:pos:R:3:REF_forces:R:3 REF_energy=-8332.37503093798 pbc="F F F"
C        0.02820111       0.00726678       0.00000138       0.00000000       0.00000000       0.00000000
O        1.30717861      -0.14270723       0.00000112       0.00000000       0.00000000       0.00000000
O        2.08628438       0.97997503      -0.00000086       0.00000000       0.00000000       0.00000000
C       -0.65223130       1.27040470       0.00000049       0.00000000       0.00000000       0.00000000
C       -0.14261346       2.52350286      -0.00000091       0.00000000       0.00000000       0.00000000
C       -0.78061536      -1.25757478      -0.00000054       0.00000000       0.00000000       0.00000000
H       -1.73565430       1.16050822      -0.00000350       0.00000000       0.00000000       0.00000000
H        0.92010803       2.70855128       0.00000272       0.00000000       0.00000000       0.00000000
H       -0.83376127       3.36516175      -0.00000588       0.00000000       0.00000000       0.00000000
H       -0.13711520      -2.14249343      -0.00000556       0.00000000       0.00000000       0.00000000
H       -1.43325068      -1.29117416       0.88238761       0.00000000       0.00000000       0.00000000
H       -1.43325693      -1.29116863      -0.88238451       0.00000000       0.00000000       0.00000000
12
Lattice="20.0 0.0 0.0 0.0 20.0 0.0 0.0 0.0 20.0" Properties=species:S:1:pos:R:3:REF_forces:R:3 REF_energy=-8332.37434037181 pbc="F F F"
C        0.00744976       0.02814846      -0.00000003       0.18076951      -0.02284133      -0.00000004
O        1.28509934      -0.12077252       0.00000005      -0.11614324       0.02137923      -0.00000026
O        2.11642644       0.94010359       0.00000001      -0.06083629      -0.02398096       0.00000012
C       -0.69009073       1.28927339      -0.00000025       0.03025991       0.07644471       0.00000241
C       -0.14596751       2.52774765       0.00000023      -0.02581666      -0.09832187      -0.00000310
C       -0.74044720      -1.27225904       0.00000002      -0.23545690      -0.07693891       0.00000017
H       -1.77338584       1.18659855       0.00000089      -0.00105599      -0.00126609      -0.00000110
H        0.92507936       2.66241801      -0.00000035       0.00665489      -0.00348198       0.00000041
H       -0.79622380       3.39963864      -0.00000134      -0.00469027      -0.01562498       0.00000151
H       -0.05882810      -2.14287402       0.00000008      -0.06673034       0.13332330       0.00000007
H       -1.40890744      -1.33048339       0.90131188       0.14646271       0.00331413      -0.19023105
H       -1.40890751      -1.33048371      -0.90131176       0.14646277       0.00331451       0.19023100
12
Lattice="20.0 0.0 0.0 0.0 20.0 0.0 0.0 0.0 20.0" Properties=species:S:1:pos:R:3:REF_forces:R:3 REF_energy=-8331.81303081473 pbc="F F F"
C       -0.00841205       0.01291873       0.00000000       0.69193619       0.49568760      -0.00000000
O        1.28973389      -0.12690897       0.00000000      -0.33943722       0.08246703       0.00000000
O        2.12095866       0.94677440      -0.00000000      -0.14686956      -0.15538945      -0.00000000
C       -0.67510517       1.35006459      -0.00000000      -0.85562265      -2.58938598       0.00000000
C       -0.16276551       2.47856669       0.00000000       0.85926271       2.19759180      -0.00000000
C       -0.74368268      -1.26733508      -0.00000000      -0.09953503      -0.09583155       0.00000000
H       -1.74234249       1.10000102       0.00000000      -0.02521824       0.26078799      -0.00000000
H        0.88486581       2.72064647       0.00000000       0.09406806      -0.17923579      -0.00000000
H       -0.73746194       3.40092819      -0.00000000      -0.17323820      -0.05026755      -0.00000000
H       -0.05570312      -2.11516966      -0.00000000       0.01953416       0.02463735      -0.00000000
H       -1.38343356      -1.34280913       0.88889976      -0.01232268       0.00430944      -0.02352145
H       -1.38343356      -1.34280913      -0.88889976      -0.01232268       0.00430944       0.02352145
12
Lattice="20.0 0.0 0.0 0.0 20.0 0.0 0.0 0.0 20.0" Properties=species:S:1:pos:R:3:REF_forces:R:3 REF_energy=-8332.372082979346 pbc="F F F"
C        0.00475200       0.02928911      -0.00132211       0.00000000       0.00000000       0.00000000
O        1.28414796      -0.12777158       0.00001014       0.00000000       0.00000000       0.00000000
O        2.12046043       0.94586658      -0.00000480       0.00000000       0.00000000       0.00000000
C       -0.68910119       1.28848396       0.00029283       0.00000000       0.00000000       0.00000000
C       -0.14593548       2.52636201       0.00003134       0.00000000       0.00000000       0.00000000
C       -0.74615026      -1.26962688      -0.00427689       0.00000000       0.00000000       0.00000000
H       -1.77306042       1.18612573      -0.00044261       0.00000000       0.00000000       0.00000000
H        0.92470908       2.66386050       0.00001421       0.00000000       0.00000000       0.00000000
H       -0.80060318       3.39484016      -0.00063359       0.00000000       0.00000000       0.00000000
H       -0.04815764      -2.10926750       0.05598162       0.00000000       0.00000000       0.00000000
H       -1.37939460      -1.38000497       0.88720440       0.00000000       0.00000000       0.00000000
H       -1.40566281      -1.31015891      -0.87935205       0.00000000       0.00000000       0.00000000
12
Lattice="20.0 0.0 0.0 0.0 20.0 0.0 0.0 0.0 20.0" Properties=species:S:1:pos:R:3:REF_forces:R:3 REF_energy=-8332.365263449256 pbc="F F F"
C       -0.01869773       0.05131125      -0.00000138       0.00000000       0.00000000       0.00000000
O        1.26111775      -0.11283594      -0.00000112       0.00000000       0.00000000       0.00000000
O        2.15463651       0.91175814       0.00000086       0.00000000       0.00000000       0.00000000
C       -0.72597110       1.30656352      -0.00000049       0.00000000       0.00000000       0.00000000
C       -0.14925746       2.52922097       0.00000091       0.00000000       0.00000000       0.00000000
C       -0.71168448      -1.28167922       0.00000054       0.00000000       0.00000000       0.00000000
H       -1.81046608       1.21174100       0.00000350       0.00000000       0.00000000       0.00000000
H        0.92930982       2.61917089      -0.00000272       0.00000000       0.00000000       0.00000000
H       -0.76744432       3.42451878       0.00000588       0.00000000       0.00000000       0.00000000
H        0.04080346      -2.07603899       0.00000556       0.00000000       0.00000000       0.00000000
H       -1.35181312      -1.39898862       0.88416380       0.00000000       0.00000000       0.00000000
H       -1.35180687      -1.39899415      -0.88416691       0.00000000       0.00000000       0.00000000
12
Lattice="20.0 0.0 0.0 0.0 20.0 0.0 0.0 0.0 20.0" Properties=species:S:1:pos:R:3:REF_forces:R:3 REF_energy=-8332.392030874458 pbc="F F F"
C        0.00745275       0.02814472      -0.00000003       0.17992782      -0.02567834      -0.00000006
O        1.28514189      -0.12076353       0.00000005      -0.12187293       0.02039790      -0.00000026
O        2.11641378       0.94009390       0.00000001      -0.05879960      -0.02239152       0.00000012
C       -0.69091285       1.28924636      -0.00000025       0.13726868       0.08048320       0.00000232
C       -0.14583394       2.52730624       0.00000023      -0.04216312      -0.04438846      -0.00000318
C       -0.74078981      -1.27447338       0.00000002      -0.22492666       0.19503699       0.00000017
H       -1.76369938       1.18744532       0.00000089      -0.10680444      -0.01043883      -0.00000100
H        0.92713393       2.66266191      -0.00000035      -0.01462697      -0.00596823       0.00000041
H       -0.79990074       3.40445204      -0.00000134       0.03300678      -0.06534676       0.00000159
H       -0.07908261      -2.11889428       0.00000008       0.13663925      -0.11906010       0.00000009
H       -1.39692346      -1.32941282       0.88450744       0.04116069      -0.00379337      -0.04429186
H       -1.39692353      -1.32941314      -0.88450731       0.04116074      -0.00379303       0.04429180
12
Lattice="20.0 0.0 0.0 0.0 20.0 0.0 0.0 0.0 20.0" Properties=species:S:1:pos:R:3:REF_forces:R:3 REF_energy=-8332.039425784564 pbc="F F F"
C        0.00477527       0.02935663       0.00000000       0.21171405      -0.05190493       0.00000000
O        1.28409995      -0.12776439      -0.00000000      -0.09488991       0.13789511       0.00000000
O        2.12062234       0.94579478       0.00000000      -0.15490732      -0.10667787       0.00000000
C       -0.68872170       1.28819929      -0.00000000      -0.03152407       0.12788528      -0.00000000
C       -0.13510999       2.52522659       0.00000000      -1.98552964      -0.04951994       0.00000000
C       -0.74613991      -1.26962430      -0.00000000      -0.00647364       0.00662170      -0.00000000
H       -1.77900005       1.18525242      -0.00000000       0.07185605       0.01012007       0.00000000
H        0.82117714       2.64841072      -0.00000000       1.69685932       0.23991543       0.00000000
H       -0.82677881       3.42824740      -0.00000000       0.27015429      -0.34334932       0.00000000
H       -0.04815993      -2.10924712       0.00000000      -0.00150360       0.00791062       0.00000000
H       -1.39256971      -1.34507788       0.88331571       0.01270086       0.01032756      -0.00727709
H       -1.39256971      -1.34507788      -0.88331571       0.01270086       0.01032756       0.00727709
12
Lattice="20.0 0.0 0.0 0.0 20.0 0.0 0.0 0.0 20.0" Properties=species:S:1:pos:R:3:REF_forces:R:3 REF_energy=-8331.883509917661 pbc="F F F"
C        0.03752604       0.07522200       0.00000000       0.19454780      -0.11694453       0.00000000
O        1.29158653      -0.18285738       0.00000000      -0.20471657       0.49733617       0.00000000
O        2.03250658       0.91179955       0.00000000       0.59102971       0.19699705      -0.00000000
C       -0.72513388       1.26719119       0.00000000       0.15891910       0.21098358      -0.00000000
C       -0.14992735       2.47591784       0.00000000       0.01864452       0.22379438      -0.00000000
C       -0.65830460      -1.13843278      -0.00000000      -0.62614504      -0.92666988      -0.00000001
H       -1.80256245       1.10775050      -0.00000000       0.03087062       0.03482225       0.00000000
H        0.93363791       2.50431233       0.00000000      -0.04714188       0.06389406       0.00000000
H       -0.73235292       3.39685039      -0.00000000      -0.00929925      -0.03786585       0.00000000
H        0.04897011      -1.96846617       0.00000000      -0.05362223      -0.05569983       0.00000000
H       -1.30612414      -1.21790014       0.88196754      -0.02598263      -0.04562094      -0.00713252
H       -1.30612414      -1.21790014      -0.88196754      -0.02598264      -0.04562094       0.00713252
12
Lattice="20.0 0.0 0.0 0.0 20.0 0.0 0.0 0.0 20.0" Properties=species:S:1:pos:R:3:REF_forces:R:3 REF_energy=-8332.074657703408 pbc="F F F"
C        0.08340339      -0.04457396       0.00000000       0.03123468      -0.01582300       0.00000000
O        1.36139573      -0.17786512      -0.00000000      -0.19150046       0.36446171       0.00000000
O        2.00584058       1.06026647      -0.00000000       0.09924521      -0.44391832      -0.00000000
C       -0.56544237       1.22784294       0.00000000      -0.17205299       0.24341992       0.00000000
C       -0.13479451       2.51676848      -0.00000000      -0.02591727      -0.06043873      -0.00000000
C       -0.86175553      -1.22919816      -0.00000000       0.16440830      -0.19748812       0.00000000
H       -1.64760327       1.10020117      -0.00000000      -0.01173271       0.02614292       0.00000000
H        0.90927740       2.81374569       0.00000000      -0.09667260      -0.03960983      -0.00000000
H       -0.91181677       3.29529482      -0.00000000       0.08617951      -0.06142948      -0.00000000
H       -0.34654503      -2.22071421      -0.00000000      -0.08205951       0.22422484      -0.00000000
H       -1.52912276      -1.16425326       0.88029202       0.10012420      -0.01999038      -0.05406059
H       -1.52912276      -1.16425326      -0.88029202       0.10012420      -0.01999038       0.05406059
12
Lattice="20.0 0.0 0.0 0.0 20.0 0.0 0.0 0.0 20.0" Properties=species:S:1:pos:R:3:REF_forces:R:3 REF_energy=-8332.242503218109 pbc="F F F"
C       -0.02172694       0.03924512       0.00000000       0.93957468      -0.35348706      -0.00000000
O        1.29596208      -0.13068550      -0.00000000      -0.50044862       0.25159986       0.00000000
O        2.12097585       0.94631947       0.00000000      -0.14648287      -0.13737291       0.00000000
C       -0.68391788       1.28085941      -0.00000000      -0.15421994       0.33175621      -0.00000000
C       -0.14681377       2.52898787       0.00000000       0.00401359      -0.15940605       0.00000000
C       -0.74766921      -1.26758457       0.00000000       0.02775367      -0.06299272      -0.00000000
H       -1.76806981       1.18031173      -0.00000000      -0.00708058       0.01440350      -0.00000000
H        0.92514398       2.65848133      -0.00000000       0.00531518       0.00799380      -0.00000000
H       -0.79810666       3.39966373      -0.00000000      -0.00704106      -0.02038770      -0.00000000
H       -0.09757248      -2.14836949      -0.00000000       0.11436049       0.10790000       0.00000000
H       -1.32846888      -1.34451939       0.92944517      -0.13786208       0.00971221      -0.12464341
H       -1.32846888      -1.34451939      -0.92944517      -0.13786207       0.00971221       0.12464342
12
Lattice="20.0 0.0 0.0 0.0 20.0 0.0 0.0 0.0 20.0" Properties=species:S:1:pos:R:3:REF_forces:R:3 REF_energy=-8332.098572887588 pbc="F F F"
C       -0.01562902       0.01085107       0.00000000       0.75657359       0.47895092      -0.00000000
O        1.29536060      -0.12450395      -0.00000000      -0.47599367       0.00089027       0.00000000
O        2.12049652       0.94408750      -0.00000000      -0.12245282      -0.04575875       0.00000000
C       -0.69473466       1.30560516      -0.00000000       0.10991364      -0.38616112      -0.00000000
C       -0.13101409       2.54377917       0.00000000      -0.44155472      -0.43789609       0.00000000
C       -0.73835662      -1.26161543      -0.00000000      -0.23545325      -0.24442212       0.00000001
H       -1.76936487       1.07717106      -0.00000000       0.02817418       0.25178818      -0.00000000
H        0.95849308       2.56105600      -0.00000000      -0.08089438       0.19566309      -0.00000000
H       -0.92744838       3.30311750      -0.00000000       0.31968818       0.13681949      -0.00000000
H       -0.04968478      -2.10791092      -0.00000000       0.00157114       0.00594432      -0.00000000
H       -1.41669884      -1.34949572       0.86050064       0.07028675       0.02195076       0.04126850
H       -1.41669884      -1.34949572      -0.86050064       0.07028676       0.02195076      -0.04126850
12
Lattice="20.0 0.0 0.0 0.0 20.0 0.0 0.0 0.0 20.0" Properties=species:S:1:pos:R:3:REF_forces:R:3 REF_energy=-8332.383009759727 pbc="F F F"
C        0.00741824       0.02821547      -0.00000003       0.18421916      -0.03372880      -0.00000006
O        1.28513796      -0.12076814       0.00000005      -0.12158643       0.02084146      -0.00000026
O        2.11640544       0.94009984       0.00000001      -0.05739587      -0.02327137       0.00000012
C       -0.68851971       1.28961525      -0.00000025      -0.15951890       0.03301275       0.00000251
C       -0.14578128       2.52578080       0.00000023      -0.04094033       0.13709447      -0.00000337
C       -0.74206870      -1.27342509       0.00000002      -0.06085200       0.05137509       0.00000017
H       -1.79076642       1.18500046       0.00000089       0.17386496       0.01500267      -0.00000123
H        0.93621240       2.66379728      -0.00000035      -0.10755613      -0.01748668       0.00000045
H       -0.81064637       3.41873350      -0.00000134       0.13620705      -0.20458720       0.00000177
H       -0.06812914      -2.13214437       0.00000008       0.01807526       0.03073347       0.00000008
H       -1.39468278      -1.32906089       0.88107683       0.01751362      -0.00692039      -0.00863549
H       -1.39468285      -1.32906121      -0.88107670       0.01751366      -0.00692005       0.00863542
12
Lattice="20.0 0.0 0.0 0.0 20.0 0.0 0.0 0.0 20.0" Properties=species:S:1:pos:R:3:REF_forces:R:3 REF_energy=-8332.112951859493 pbc="F F F"
C        0.01801631       0.04692912      -0.00000000       0.05104862      -0.28940649      -0.00000000
O        1.31416567      -0.09330948       0.00000000      -0.77202611      -0.67805079      -0.00000000
O        2.09892786       0.91822301      -0.00000000       0.41326826       0.57601837       0.00000000
C       -0.67236893       1.28002269       0.00000000      -0.26477280       0.21947944       0.00000000
C       -0.15874404       2.52862807      -0.00000000       0.16854475      -0.09660762       0.00000000
C       -0.78554181      -1.26845332       0.00000000       0.50601021      -0.07880695       0.00000000
H       -1.74841069       1.09608913       0.00000000      -0.00144747       0.11201175      -0.00000000
H        0.92341565       2.58244892       0.00000000      -0.01973635       0.09805463      -0.00000000
H       -0.74721612       3.44511837       0.00000000      -0.04592649      -0.08512151      -0.00000000
H        0.01521292      -2.02653311      -0.00000000      -0.12066749      -0.05705207      -0.00000000
H       -1.39763493      -1.45516195       0.89809134       0.04291272       0.14014584      -0.05432198
H       -1.39763493      -1.45516195      -0.89809134       0.04291273       0.14014584       0.05432198
12
Lattice="20.0 0.0 0.0 0.0 20.0 0.0 0.0 0.0 20.0" Properties=species:S:1:pos:R:3:REF_forces:R:3 REF_energy=-8332.369352449357 pbc="F F F"
C        0.00520539       0.03045944       0.00000160       0.00000000       0.00000000       0.00000000
O        1.28814164      -0.10663257      -0.00000134       0.00000000       0.00000000       0.00000000
O        2.14689854       0.96231153       0.00000053       0.00000000       0.00000000       0.00000000
C       -0.71571479       1.26832593       0.00000026       0.00000000       0.00000000       0.00000000
C       -0.13591677       2.48625704      -0.00000056       0.00000000       0.00000000       0.00000000
C       -0.76586571      -1.25543717       0.00000036       0.00000000       0.00000000       0.00000000
H       -1.79926461       1.16650861      -0.00000324       0.00000000       0.00000000       0.00000000
H        0.94285546       2.56426410       0.00000327       0.00000000       0.00000000       0.00000000
H       -0.75013225       3.38452713      -0.00000590       0.00000000       0.00000000       0.00000000
H       -0.09816295      -2.11985848       0.00000093       0.00000000       0.00000000       0.00000000
H       -1.41661327      -1.30576784       0.88241961       0.00000000       0.00000000       0.00000000
H       -1.41660974      -1.30576666      -0.88242163       0.00000000       0.00000000       0.00000000
12
Lattice="20.0 0.0 0.0 0.0 20.0 0.0 0.0 0.0 20.0" Properties=species:S:1:pos:R:3:REF_forces:R:3 REF_energy=-8332.371198049255 pbc="F F F"
C        0.00475122       0.02928919      -0.02461423       0.00000000       0.00000000       0.00000000
O        1.28414720      -0.12777056       0.01057266       0.00000000       0.00000000       0.00000000
O        2.12046090       0.94586627      -0.00428914       0.00000000       0.00000000       0.00000000
C       -0.68910019       1.28848334       0.02413597       0.00000000       0.00000000       0.00000000
C       -0.14593547       2.52636152      -0.00199007       0.00000000       0.00000000       0.00000000
C       -0.74614975      -1.26962688      -0.00420421       0.00000000       0.00000000       0.00000000
H       -1.77305937       1.18612416      -0.02750357       0.00000000       0.00000000       0.00000000
H        0.92470859       2.66386259       0.04455770       0.00000000       0.00000000       0.00000000
H       -0.80060445       3.39483859      -0.07422593       0.00000000       0.00000000       0.00000000
H       -0.04815510      -2.10926546       0.01471246       0.00000000       0.00000000       0.00000000
H       -1.37572578      -1.31501889       0.89439254       0.00000000       0.00000000       0.00000000
H       -1.40933759      -1.37514486      -0.87215875       0.00000000       0.00000000       0.00000000
12
Lattice="20.0 0.0 0.0 0.0 20.0 0.0 0.0 0.0 20.0" Properties=species:S:1:pos:R:3:REF_forces:R:3 REF_energy=-8332.136539126044 pbc="F F F"
C        0.00478622       0.02925263       0.00000000       0.21391173      -0.02947121      -0.00000000
O        1.28404293      -0.12778331       0.00000000      -0.08889826       0.13887715       0.00000000
O        2.12048013       0.94588834      -0.00000000      -0.12940032      -0.12172580       0.00000000
C       -0.68926618       1.28837086      -0.00000000       0.03146849       0.09282901       0.00000000
C       -0.14592672       2.52641994       0.00000000      -0.02614830      -0.08629376       0.00000000
C       -0.74053364      -1.26580213      -0.00000000      -0.49277993      -0.38554250       0.00000000
H       -1.77076041       1.18644996      -0.00000000      -0.01791751      -0.00358667      -0.00000000
H        0.92473874       2.66376041       0.00000000       0.00606264      -0.00420030      -0.00000000
H       -0.80066349       3.39498091       0.00000000       0.00015286      -0.01071565      -0.00000000
H       -0.01789485      -2.14434666      -0.00000000      -0.26011009       0.30981691      -0.00000000
H       -1.44085557      -1.35004704       0.95205413       0.38219219       0.05016730      -0.53242751
H       -1.44085557      -1.35004704      -0.95205413       0.38219220       0.05016730       0.53242751
12
Lattice="20.0 0.0 0.0 0.0 20.0 0.0 0.0 0.0 20.0" Properties=species:S:1:pos:R:3:REF_forces:R:3 REF_energy=-8332.383351568167 pbc="F F F"
C        0.00108741       0.02415358       0.00000008       0.00000000       0.00000000       0.00000000
O        1.28331648      -0.12161269       0.00000001       0.00000000       0.00000000       0.00000000
O        2.13029400       0.94967532       0.00000009       0.00000000       0.00000000       0.00000000
C       -0.68507245       1.29086473      -0.00000033       0.00000000       0.00000000       0.00000000
C       -0.14548913       2.53200147       0.00000003       0.00000000       0.00000000       0.00000000
C       -0.75597144      -1.28429480       0.00000003       0.00000000       0.00000000       0.00000000
H       -1.76976136       1.19488713       0.00000013       0.00000000       0.00000000       0.00000000
H        0.92371047       2.68169922       0.00000015       0.00000000       0.00000000       0.00000000
H       -0.80823342       3.39461503       0.00000050       0.00000000       0.00000000       0.00000000
H       -0.05901510      -2.12500799      -0.00000008       0.00000000       0.00000000       0.00000000
H       -1.40219258      -1.35930070       0.88342199       0.00000000       0.00000000       0.00000000
H       -1.40219269      -1.35930046      -0.88342186       0.00000000       0.00000000       0.00000000
12
Lattice="20.0 0.0 0.0 0.0 20.0 0.0 0.0 0.0 20.0" Properties=species:S:1:pos:R:3:REF_forces:R:3 REF_energy=-8332.377268038405 pbc="F F F"
C        0.00743225       0.02813860      -0.00000003       0.18278989      -0.02382524      -0.00000003
O        1.28514548      -0.12077123       0.00000005      -0.12332311       0.02132519      -0.00000028
O        2.11637099       0.94011909       0.00000001      -0.05122764      -0.02626485       0.00000013
C       -0.69015774       1.28939436      -0.00000025       0.03972065       0.06108203       0.00000240
C       -0.14928473       2.52807797       0.00000023       0.40075381      -0.15634474      -0.00000305
C       -0.74212472      -1.27340022       0.00000002      -0.05386595       0.04800507       0.00000017
H       -1.77225280       1.18676860       0.00000089      -0.01517446      -0.00339681      -0.00000109
H        0.95677048       2.66717872      -0.00000035      -0.32588956      -0.05302179       0.00000056
H       -0.78819097       3.38936790      -0.00000134      -0.10123091       0.10947628       0.00000132
H       -0.06784894      -2.13242090       0.00000008       0.01505338       0.03366023       0.00000008
H       -1.39448853      -1.32900400       0.88079387       0.01546648      -0.00738031      -0.00569059
H       -1.39448860      -1.32900431      -0.88079375       0.01546652      -0.00737997       0.00569053
12
Lattice="20.0 0.0 0.0 0.0 20.0 0.0 0.0 0.0 20.0" Properties=species:S:1:pos:R:3:REF_forces:R:3 REF_energy=-8331.85021506931 pbc="F F F"
C        0.00475169       0.02928901      -0.00004504       0.20707262      -0.04726409       0.00578829
O        1.28414818      -0.12777159      -0.00003542      -0.10107479       0.13740301       0.00467028
O        2.12046044       0.94586659      -0.00001644      -0.12789724      -0.11990781       0.00254233
C       -0.68910120       1.28848411       0.00002891       0.01098771       0.08181650      -0.00234288
C       -0.14593546       2.52636191       0.00000796      -0.02506868      -0.08043847      -0.00089741
C       -0.74614992      -1.26962700      -0.01498378       0.56497678       0.07664629       1.97097351
H       -1.77306019       1.18612461      -0.00018039       0.00553675      -0.00028396       0.00180830
H        0.92470893       2.66386108      -0.00006818       0.00628577      -0.00495648       0.00067542
H       -0.80060280       3.39484027       0.00002235      -0.00039281      -0.00944094      -0.00026029
H       -0.04815587      -2.10926621      -0.00291162      -0.00558039       0.01086186       0.02730984
H       -1.46171320      -1.35222256       0.97458109       0.49565602       0.05945332      -0.65833104
H       -1.32335060      -1.33794022      -0.79197033      -1.02986022      -0.10357737      -1.35180252
12
Lattice="20.0 0.0 0.0 0.0 20.0 0.0 0.0 0.0 20.0" Properties=species:S:1:pos:R:3:REF_forces:R:3 REF_energy=-8331.75983501203 pbc="F F F"
C        0.08285578      -0.04070706       0.11207319       0.14121343       0.63221755      -0.00310148
O        1.37980434      -0.06168445       0.05211145      -0.31572941      -0.23507040       0.03777027
O        2.20820092       1.06863237      -0.00638163      -0.40326103      -0.26337379      -0.00214321
C       -0.68910089       1.20029271       0.11835756      -0.06582814       0.00346627      -0.15063300
C       -0.27310538       2.37622476      -0.35572883      -0.01323057       0.26280326       0.21730848
C       -0.86947312      -1.20073235       0.09913638       0.52273969      -0.42685093       0.00417459
H       -1.75209093       1.09773146       0.33250891       0.03501422      -0.04046170       0.10643621
H        0.73945557       2.46408244      -0.66912998       0.20330409       0.06126305      -0.06768084
H       -0.88303904       3.29359898      -0.28348809       0.01503246      -0.18579732      -0.09823387
H       -0.44487970      -2.19927790       0.16408492       0.16288858      -0.01985508       0.01935511
H       -1.60688961      -1.16156991       0.87206284      -0.12397209       0.14488649       0.21349717
H       -1.39197295      -1.19250833      -0.82972157      -0.15769797       0.06672466      -0.27668984
12
Lattice="20.0 0.0 0.0 0.0 20.0 0.0 0.0 0.0 20.0" Properties=species:S:1:pos:R:3:REF_forces:R:3 REF_energy=-8332.374183030195 pbc="F F F"
C        0.01087234       0.04868900      -0.00000012       0.00000000       0.00000000       0.00000000
O        1.28018879      -0.13181300      -0.00000004       0.00000000       0.00000000       0.00000000
O        2.12016160       0.94715159      -0.00000005       0.00000000       0.00000000       0.00000000
C       -0.68813296       1.29089474       0.00000011       0.00000000       0.00000000       0.00000000
C       -0.14384759       2.52220297       0.00000010       0.00000000       0.00000000       0.00000000
C       -0.74671208      -1.27682745       0.00000016       0.00000000       0.00000000       0.00000000
H       -1.76841826       1.15699736       0.00000089       0.00000000       0.00000000       0.00000000
H        0.92632271       2.66200493      -0.00000041       0.00000000       0.00000000       0.00000000
H       -0.81612574       3.37673790      -0.00000042       0.00000000       0.00000000       0.00000000
H       -0.06354421      -2.12894333      -0.00000100       0.00000000       0.00000000       0.00000000
H       -1.39773673      -1.35109486       0.88025596       0.00000000       0.00000000       0.00000000
H       -1.39773575      -1.35109345      -0.88025655       0.00000000       0.00000000       0.00000000
12
Lattice="20.0 0.0 0.0 0.0 20.0 0.0 0.0 0.0 20.0" Properties=species:S:1:pos:R:3:REF_forces:R:3 REF_energy=-8331.997655664081 pbc="F F F"
C        0.05578988       0.00600923       0.07958281       0.06574434      -0.20475979      -0.18223832
O        1.34107111      -0.09464134       0.02205594      -0.15058028       0.14244971       0.04892060
O        2.19525998       1.03341824      -0.00195088      -0.38867064      -0.33450605      -0.00807733
C       -0.72054458       1.20922939       0.02979326       0.14711237       0.48718233       0.29213257
C       -0.18896388       2.45599276      -0.16253905      -0.50818659      -0.12545079      -0.13349896
C       -0.84425585      -1.25386528       0.04320171       0.35342789       0.07359417      -0.11133561
H       -1.77452812       1.09030753       0.35938165       0.17616614       0.03844838      -0.18613459
H        0.84638614       2.58528540      -0.41126751       0.10142898       0.00182992       0.02133933
H       -0.89938365       3.31132142      -0.23949464       0.19288097      -0.15351374       0.08541962
H       -0.31372361      -2.22319684       0.10073476      -0.02536624       0.16001540      -0.02820757
H       -1.53229957      -1.16952133       0.87593957      -0.06757289      -0.03311845       0.09012984
H       -1.45133632      -1.19180015      -0.88558314       0.10421667      -0.05243126       0.11198741
12
Lattice="20.0 0.0 0.0 0.0 20.0 0.0 0.0 0.0 20.0" Properties=species:S:1:pos:R:3:REF_forces:R:3 REF_energy=-8332.339458452425 pbc="F F F"
C        0.00483665       0.02936343       0.00000001       0.00000000       0.00000000       0.00000000
O        1.28410521      -0.12777308       0.00000000       0.00000000       0.00000000       0.00000000
O        2.12046522       0.94587046       0.00000000       0.00000000       0.00000000       0.00000000
C       -0.68596729       1.28868895      -0.00000002       0.00000000       0.00000000       0.00000000
C       -0.14644865       2.52805229      -0.00000001       0.00000000       0.00000000       0.00000000
C       -0.74403777      -1.27126870       0.00000012       0.00000000       0.00000000       0.00000000
H       -1.81051890       1.18288180       0.00000000       0.00000000       0.00000000       0.00000000
H        0.91651867       2.66297452       0.00000001       0.00000000       0.00000000       0.00000000
H       -0.78615605       3.37583793       0.00000004       0.00000000       0.00000000       0.00000000
H       -0.06543308      -2.08856370      -0.00000000       0.00000000       0.00000000       0.00000000
H       -1.39669412      -1.34583948       0.88959201       0.00000000       0.00000000       0.00000000
H       -1.39669520      -1.34583960      -0.88959342       0.00000000       0.00000000       0.00000000
12
Lattice="20.0 0.0 0.0 0.0 20.0 0.0 0.0 0.0 20.0" Properties=species:S:1:pos:R:3:REF_forces:R:3 REF_energy=-8332.298301436074 pbc="F F F"
C        0.04755142       0.04188578      -0.00000337       0.00000000       0.00000000       0.00000000
O        1.32083109      -0.15179383      -0.00000311       0.00000000       0.00000000       0.00000000
O        2.20645899       0.88661380       0.00000356       0.00000000       0.00000000       0.00000000
C       -0.69961272       1.27762446      -0.00000046       0.00000000       0.00000000       0.00000000
C       -0.27083576       2.55827468      -0.00000166       0.00000000       0.00000000       0.00000000
C       -0.77475063      -1.21206547       0.00000350       0.00000000       0.00000000       0.00000000
H       -1.77625437       1.09279837       0.00000425       0.00000000       0.00000000       0.00000000
H        0.79173229       2.79150114      -0.00000725       0.00000000       0.00000000       0.00000000
H       -0.99618821       3.37260394       0.00000189       0.00000000       0.00000000       0.00000000
H       -0.14512354      -2.10783545       0.00000809       0.00000000       0.00000000       0.00000000
H       -1.42961941      -1.23437430       0.88204216       0.00000000       0.00000000       0.00000000
H       -1.42962129      -1.23438497      -0.88203268       0.00000000       0.00000000       0.00000000
12
Lattice="20.0 0.0 0.0 0.0 20.0 0.0 0.0 0.0 20.0" Properties=species:S:1:pos:R:3:REF_forces:R:3 REF_energy=-8332.338822134036 pbc="F F F"
C        0.00466673       0.02921460      -0.00000001       0.00000000       0.00000000       0.00000000
O        1.28419115      -0.12777009      -0.00000000       0.00000000       0.00000000       0.00000000
O        2.12045567       0.94586271      -0.00000000       0.00000000       0.00000000       0.00000000
C       -0.69223512       1.28827928       0.00000002       0.00000000       0.00000000       0.00000000
C       -0.14542228       2.52467153       0.00000001       0.00000000       0.00000000       0.00000000
C       -0.74826207      -1.26798530      -0.00000012       0.00000000       0.00000000       0.00000000
H       -1.73560148       1.18936742      -0.00000000       0.00000000       0.00000000       0.00000000
H        0.93289918       2.66474765      -0.00000001       0.00000000       0.00000000       0.00000000
H       -0.81504954       3.41384261      -0.00000004       0.00000000       0.00000000       0.00000000
H       -0.03087866      -2.12996873       0.00000000       0.00000000       0.00000000       0.00000000
H       -1.38836968      -1.34432330       0.87695941       0.00000000       0.00000000       0.00000000
H       -1.38836860      -1.34432318      -0.87695800       0.00000000       0.00000000       0.00000000
12
Lattice="20.0 0.0 0.0 0.0 20.0 0.0 0.0 0.0 20.0" Properties=species:S:1:pos:R:3:REF_forces:R:3 REF_energy=-8332.401851773402 pbc="F F F"
C        0.00744250       0.02815129      -0.00000003       0.18123473      -0.02588894      -0.00000005
O        1.28512968      -0.12076915       0.00000005      -0.12018518       0.02114326      -0.00000026
O        2.11642273       0.94009672       0.00000001      -0.06027188      -0.02289222       0.00000012
C       -0.69025895       1.28926314      -0.00000025       0.05211762       0.07884157       0.00000240
C       -0.14599710       2.52800886       0.00000023      -0.02215950      -0.13230940      -0.00000306
C       -0.74212922      -1.27339572       0.00000002      -0.05326683       0.04742938       0.00000017
H       -1.77168651       1.18671599       0.00000089      -0.01973097      -0.00254617      -0.00000108
H        0.92347877       2.66225528      -0.00000035       0.02366704      -0.00178543       0.00000040
H       -0.79414275       3.39686287      -0.00000134      -0.02685289       0.01414267       0.00000147
H       -0.06781034      -2.13245372       0.00000008       0.01472239       0.03408984       0.00000008
H       -1.39447401      -1.32899464       0.88076744       0.01531340      -0.00756542      -0.00540452
H       -1.39447408      -1.32899496      -0.88076732       0.01531345      -0.00756509       0.00540446
12
Lattice="20.0 0.0 0.0 0.0 20.0 0.0 0.0 0.0 20.0" Properties=species:S:1:pos:R:3:REF_forces:R:3 REF_energy=-8332.339449912526 pbc="F F F"
C        0.00475216       0.02928916      -0.00198316       0.00000000       0.00000000       0.00000000
O        1.28414785      -0.12777158       0.00001521       0.00000000       0.00000000       0.00000000
O        2.12046042       0.94586658      -0.00000719       0.00000000       0.00000000       0.00000000
C       -0.68910118       1.28848388       0.00043924       0.00000000       0.00000000       0.00000000
C       -0.14593549       2.52636205       0.00004701       0.00000000       0.00000000       0.00000000
C       -0.74615044      -1.26962682      -0.00641533       0.00000000       0.00000000       0.00000000
H       -1.77306053       1.18612630      -0.00066391       0.00000000       0.00000000       0.00000000
H        0.92470916       2.66386021       0.00002132       0.00000000       0.00000000       0.00000000
H       -0.80060337       3.39484011      -0.00095038       0.00000000       0.00000000       0.00000000
H       -0.04815852      -2.10926814       0.08397243       0.00000000       0.00000000       0.00000000
H       -1.37282595      -1.39746676       0.88916875       0.00000000       0.00000000       0.00000000
H       -1.41222827      -1.29269767      -0.87739023       0.00000000       0.00000000       0.00000000
12
Lattice="20.0 0.0 0.0 0.0 20.0 0.0 0.0 0.0 20.0" Properties=species:S:1:pos:R:3:REF_forces:R:3 REF_energy=-8332.094233468664 pbc="F F F"
C        0.00475169       0.02928901       0.04278488       0.22972336      -0.03186398      -0.60505794
O        1.28414818      -0.12777159      -0.00213085      -0.09980384       0.13813252       0.05044033
O        2.12046044       0.94586659      -0.00156300      -0.12226633      -0.11486604       0.03032939
C       -0.68910120       1.28848411      -0.00749479       0.00993538       0.08790258       0.10700592
C       -0.14593546       2.52636191      -0.00104795      -0.02781858      -0.07792622       0.01510851
C       -0.74614992      -1.26962700      -0.04726691      -0.08342614      -0.06254539       0.65826234
H       -1.77306019       1.18612461      -0.01124345       0.00510453      -0.00014783       0.01283443
H        0.92470893       2.66386108      -0.01836678       0.00530112      -0.00526496       0.02189778
H       -0.80060280       3.39484027       0.03549411       0.00212824      -0.01301503      -0.04320521
H       -0.04815587      -2.10926621       0.09702230      -0.04753231       0.05992480      -0.12103976
H       -1.27620093      -1.19313044       0.93874290      -0.08960243      -0.18683661      -0.18826862
H       -1.50886287      -1.49703234      -0.82780852       0.21864294       0.20702623       0.06123080
12
Lattice="20.0 0.0 0.0 0.0 20.0 0.0 0.0 0.0 20.0" Properties=species:S:1:pos:R:3:REF_forces:R:3 REF_energy=-8332.260290573138 pbc="F F F"
C        0.00475169       0.02928901      -0.00089999       0.21943200      -0.03982678       0.00897214
O        1.28414818      -0.12777159       0.00284899      -0.10096112       0.13196833      -0.04571563
O        2.12046044       0.94586659      -0.00105663      -0.12725711      -0.11490016       0.01747054
C       -0.68910120       1.28848411      -0.02222356      -0.16893400       0.03988206       0.32081816
C       -0.14593546       2.52636191       0.00286356       0.01367783      -0.03833973      -0.03849811
C       -0.74614992      -1.26962700      -0.00271417      -0.00494191       0.00587866       0.03537271
H       -1.77306019       1.18612461       0.20712685       0.16307299       0.01827539      -0.25776211
H        0.92470893       2.66386108       0.10607430      -0.03073815      -0.00660933      -0.11755450
H       -0.80060280       3.39484027      -0.07763439       0.01336690      -0.02569290       0.08777119
H       -0.04815587      -2.10926621       0.00472020      -0.00131577       0.00823658      -0.00511199
H       -1.38689365      -1.33838531       0.88579166       0.00642176       0.00328813      -0.01042060
H       -1.39817015      -1.35177747      -0.88075976       0.01831103       0.01840012       0.00465765
12
Lattice="20.0 0.0 0.0 0.0 20.0 0.0 0.0 0.0 20.0" Properties=species:S:1:pos:R:3:REF_forces:R:3 REF_energy=-8331.91158845138 pbc="F F F"
C        0.01420038       0.03298268       0.04674605       0.61902478      -0.42003102      -0.23164765
O        1.32019388      -0.11697604       0.00947357      -0.41777658       0.30384752       0.03969907
O        2.16162511       0.99378401      -0.00080862      -0.28331453      -0.30534188      -0.00067370
C       -0.70440825       1.26813739       0.00274544      -0.14356020      -0.47784563       0.32894105
C       -0.16558657       2.47432322      -0.06866077       0.02603494       0.48105821      -0.23253806
C       -0.80013484      -1.29153905       0.02124147       0.02024731       0.80555853      -0.12687476
H       -1.76671295       1.04360591       0.22376535       0.09903295       0.24361959      -0.15402333
H        0.89157283       2.67553434      -0.21541369      -0.04296200      -0.12257073       0.04469529
H       -0.83389105       3.32585901      -0.15249904      -0.02674352       0.04034235       0.08822383
H       -0.10811425      -2.13478386      -0.00303298      -0.14744074      -0.05532714       0.11334792
H       -1.48796210      -1.09977314       0.87558717       0.11263976      -0.36249825      -0.04103747
H       -1.45538770      -1.21717193      -0.89057491       0.18453800      -0.13080084       0.17174565
12
Lattice="20.0 0.0 0.0 0.0 20.0 0.0 0.0 0.0 20.0" Properties=species:S:1:pos:R:3:REF_forces:R:3 REF_energy=-8332.354066119504 pbc="F F F"
C        0.00744854       0.02818533      -0.00000003       0.18015963      -0.03066139      -0.00000008
O        1.28511216      -0.12076626       0.00000005      -0.11672212       0.02098201      -0.00000024
O        2.11648288       0.94006947       0.00000001      -0.07114212      -0.01845344       0.00000011
C       -0.68989547       1.28919752      -0.00000025       0.00625619       0.08920591       0.00000244
C       -0.14180339       2.52729336       0.00000023      -0.66027446      -0.05245151      -0.00000306
C       -0.74211780      -1.27339835       0.00000002      -0.05463406       0.04782756       0.00000017
H       -1.77635775       1.18616584       0.00000089       0.03175590       0.00373650      -0.00000111
H        0.88522107       2.65650118      -0.00000035       0.53193418       0.07247481       0.00000015
H       -0.80628086       3.41245512      -0.00000134       0.10644247      -0.15636668       0.00000173
H       -0.06785175      -2.13240770       0.00000008       0.01525379       0.03368593       0.00000008
H       -1.39451466      -1.32900157       0.88082151       0.01574502      -0.00760910      -0.00595655
H       -1.39451473      -1.32900189      -0.88082139       0.01574506      -0.00760876       0.00595649
12
Lattice="20.0 0.0 0.0 0.0 20.0 0.0 0.0 0.0 20.0" Properties=species:S:1:pos:R:3:REF_forces:R:3 REF_energy=-8331.766922586496 pbc="F F F"
C        0.03599761       0.02081773       0.06849652       0.39423220      -0.35295221      -0.24136731
O        1.33436238      -0.10504757       0.01647566      -0.32666924       0.24918481       0.05020074
O        2.18329529       1.01895368      -0.00142224      -0.35353412      -0.34079581      -0.00299333
C       -0.72190192       1.23345035       0.01636182       0.88560108       0.19288868       0.14724503
C       -0.17969176       2.46464097      -0.12126176       0.01280471      -0.27446611      -0.19414315
C       -0.83259257      -1.27754733       0.02911647       0.72222827       0.70651407       0.57575288
H       -1.69797774       1.06161528       0.30549210      -0.67302777       0.04143265       0.02238469
H        0.86647172       2.63406817      -0.33618700       0.00813295      -0.08132532       0.04776802
H       -0.84519556       3.27537434      -0.21235206      -0.22667513       0.33774892       0.06783651
H       -0.23323867      -2.15959554       0.04712601       0.06095569      -0.21637726       0.07399777
H       -1.50660633      -1.10680980       0.85532501      -0.07534614      -0.22441771       0.18499439
H       -1.40933597      -1.19341813      -0.81137408      -0.42868260      -0.03713386      -0.73135936
12
Lattice="20.0 0.0 0.0 0.0 20.0 0.0 0.0 0.0 20.0" Properties=species:S:1:pos:R:3:REF_forces:R:3 REF_energy=-8332.370536995404 pbc="F F F"
C        0.00475203       0.02928907      -0.00043263       0.00000000       0.00000000       0.00000000
O        1.28414814      -0.12777133      -0.00004777       0.00000000       0.00000000       0.00000000
O        2.12046025       0.94586636       0.00013308       0.00000000       0.00000000       0.00000000
C       -0.68910115       1.28848435       0.00547916       0.00000000       0.00000000       0.00000000
C       -0.14593569       2.52636190      -0.01716275       0.00000000       0.00000000       0.00000000
C       -0.74614972      -1.26962727       0.00020423       0.00000000       0.00000000       0.00000000
H       -1.77305991       1.18612441      -0.00063551       0.00000000       0.00000000       0.00000000
H        0.92470878       2.66385984       0.07213758       0.00000000       0.00000000       0.00000000
H       -0.80060208       3.39484082       0.07022229       0.00000000       0.00000000       0.00000000
H       -0.04815706      -2.10926760      -0.00047949       0.00000000       0.00000000       0.00000000
H       -1.39311848      -1.34621013       0.88294995       0.00000000       0.00000000       0.00000000
H       -1.39194555      -1.34395111      -0.88360112       0.00000000       0.00000000       0.00000000
12
Lattice="20.0 0.0 0.0 0.0 20.0 0.0 0.0 0.0 20.0" Properties=species:S:1:pos:R:3:REF_forces:R:3 REF_energy=-8332.39291104794 pbc="F F F"
C        0.00452484       0.02870380      -0.00000080       0.00000000       0.00000000       0.00000000
O        1.28215144      -0.13834110       0.00000067       0.00000000       0.00000000       0.00000000
O        2.10724139       0.93764411      -0.00000026       0.00000000       0.00000000       0.00000000
C       -0.67579441       1.29856320      -0.00000013       0.00000000       0.00000000       0.00000000
C       -0.15094481       2.54641435       0.00000028       0.00000000       0.00000000       0.00000000
C       -0.73629202      -1.27672192      -0.00000018       0.00000000       0.00000000       0.00000000
H       -1.75995798       1.19593261       0.00000162       0.00000000       0.00000000       0.00000000
H        0.91563566       2.71365957      -0.00000164       0.00000000       0.00000000       0.00000000
H       -0.82583807       3.39999684       0.00000295       0.00000000       0.00000000       0.00000000
H       -0.02315233      -2.10397008      -0.00000047       0.00000000       0.00000000       0.00000000
H       -1.38049121      -1.36473817       0.88370376       0.00000000       0.00000000       0.00000000
H       -1.38049298      -1.36473876      -0.88370275       0.00000000       0.00000000       0.00000000
12
Lattice="20.0 0.0 0.0 0.0 20.0 0.0 0.0 0.0 20.0" Properties=species:S:1:pos:R:3:REF_forces:R:3 REF_energy=-8332.283522515738 pbc="F F F"
C        0.00473597       0.02924393      -0.00000000       0.21782359      -0.03499853       0.00000000
O        1.28418033      -0.12777638       0.00000000      -0.11072302       0.13819826      -0.00000000
O        2.12035251       0.94591446      -0.00000000      -0.10556458      -0.12602467       0.00000000
C       -0.68935420       1.28867399       0.00000000       0.04673735       0.05624029      -0.00000000
C       -0.15315244       2.52711879      -0.00000000       0.83543897      -0.23536491      -0.00000000
C       -0.74615659      -1.26962880       0.00000000      -0.00421955       0.00682265      -0.00000000
H       -1.76910028       1.18670607       0.00000000      -0.04081094      -0.00700532       0.00000000
H        0.99373011       2.67416132       0.00000000      -0.63889180      -0.10461583       0.00000000
H       -0.78315212       3.37256884       0.00000000      -0.22128592       0.27725610       0.00000000
H       -0.04815316      -2.10927894      -0.00000000      -0.00151541       0.00832174       0.00000000
H       -1.39250669      -1.34508373       0.88324905       0.01206084       0.01047371      -0.00654906
H       -1.39250669      -1.34508373      -0.88324905       0.01206083       0.01047371       0.00654907
12
Lattice="20.0 0.0 0.0 0.0 20.0 0.0 0.0 0.0 20.0" Properties=species:S:1:pos:R:3:REF_forces:R:3 REF_energy=-8332.383089557903 pbc="F F F"
C        0.01294528       0.04077226       0.00000000       0.18204617      -0.09236683      -0.00000000
O        1.28600777      -0.14154304       0.00000000      -0.11972739       0.23382726       0.00000000
O        2.09847198       0.93734983       0.00000000       0.02963723      -0.05845682       0.00000000
C       -0.69810937       1.28316088       0.00000000       0.05496643       0.10916311      -0.00000000
C       -0.14693343       2.51375089       0.00000000      -0.01922873      -0.01304924       0.00000000
C       -0.72418859      -1.23682844      -0.00000000      -0.12668902      -0.17524448       0.00000000
H       -1.78043576       1.16653108      -0.00000000       0.00916609       0.00843094      -0.00000000
H        0.92694117       2.62397389       0.00000000       0.00250375       0.01155453      -0.00000000
H       -0.78354033       3.39534280      -0.00000000      -0.00643568      -0.01150265      -0.00000000
H       -0.02387437      -2.07406620       0.00000000      -0.01261218      -0.00668373      -0.00000000
H       -1.37092996      -1.31328608       0.88294867       0.00363038      -0.00288191      -0.00711198
H       -1.37092996      -1.31328608      -0.88294867       0.00363039      -0.00288191       0.00711198
12
Lattice="20.0 0.0 0.0 0.0 20.0 0.0 0.0 0.0 20.0" Properties=species:S:1:pos:R:3:REF_forces:R:3 REF_energy=-8332.305676346848 pbc="F F F"
C        0.00473763       0.02924869      -0.00000000       0.00000000       0.00000000       0.00000000
O        1.28417692      -0.12777588       0.00000000       0.00000000       0.00000000       0.00000000
O        2.12036391       0.94590941       0.00000001       0.00000000       0.00000000       0.00000000
C       -0.68932742       1.28865394      -0.00000002       0.00000000       0.00000000       0.00000000
C       -0.15239052       2.52703886      -0.00000000       0.00000000       0.00000000       0.00000000
C       -0.74615590      -1.26962860      -0.00000002       0.00000000       0.00000000       0.00000000
H       -1.76951914       1.18664465      -0.00000007       0.00000000       0.00000000       0.00000000
H        0.98644363       2.67307391       0.00000004       0.00000000       0.00000000       0.00000000
H       -0.78499479       3.37492056      -0.00000002       0.00000000       0.00000000       0.00000000
H       -0.04815332      -2.10927775       0.00000003       0.00000000       0.00000000       0.00000000
H       -1.39250944      -1.34508344       0.88325195       0.00000000       0.00000000       0.00000000
H       -1.39250930      -1.34508355      -0.88325167       0.00000000       0.00000000       0.00000000
12
Lattice="20.0 0.0 0.0 0.0 20.0 0.0 0.0 0.0 20.0" Properties=species:S:1:pos:R:3:REF_forces:R:3 REF_energy=-8332.389453813346 pbc="F F F"
C        0.00473111       0.02805149       0.00000008       0.00000000       0.00000000       0.00000000
O        1.28356920      -0.12768502      -0.00000001       0.00000000       0.00000000       0.00000000
O        2.12073505       0.94600115       0.00000005       0.00000000       0.00000000       0.00000000
C       -0.69297675       1.28611365      -0.00000008       0.00000000       0.00000000       0.00000000
C       -0.14241890       2.52872153      -0.00000008       0.00000000       0.00000000       0.00000000
C       -0.74621778      -1.26889860      -0.00000009       0.00000000       0.00000000       0.00000000
H       -1.77497086       1.15817248      -0.00000014       0.00000000       0.00000000       0.00000000
H        0.92574626       2.68657050       0.00000035       0.00000000       0.00000000       0.00000000
H       -0.79171085       3.40211538       0.00000006       0.00000000       0.00000000       0.00000000
H       -0.04790467      -2.10825020       0.00000063       0.00000000       0.00000000       0.00000000
H       -1.39158503      -1.34526231       0.88392949       0.00000000       0.00000000       0.00000000
H       -1.39158564      -1.34526273      -0.88392916       0.00000000       0.00000000       0.00000000
12
Lattice="20.0 0.0 0.0 0.0 20.0 0.0 0.0 0.0 20.0" Properties=species:S:1:pos:R:3:REF_forces:R:3 REF_energy=-8332.401796416412 pbc="F F F"
C        0.00743681       0.02816223      -0.00000003       0.18195677      -0.02712895      -0.00000005
O        1.28512848      -0.12077012       0.00000005      -0.12005273       0.02124181      -0.00000026
O        2.11642192       0.94009775       0.00000001      -0.06013438      -0.02305533       0.00000012
C       -0.68986728       1.28931931      -0.00000025       0.00264393       0.07158250       0.00000244
C       -0.14599735       2.52781517       0.00000023      -0.02209626      -0.10722669      -0.00000309
C       -0.74238802      -1.27318459       0.00000002      -0.02146080       0.02060726       0.00000018
H       -1.77614593       1.18631279       0.00000089       0.02742453       0.00173267      -0.00000112
H        0.92465778       2.66240526      -0.00000035       0.01104556      -0.00334473       0.00000041
H       -0.79546670       3.39862564      -0.00000134      -0.01265541      -0.00500327       0.00000150
H       -0.06560370      -2.13511921       0.00000008      -0.00761619       0.06220115       0.00000007
H       -1.39401543      -1.32892094       0.88006585       0.01039603      -0.00825502       0.00202895
H       -1.39401551      -1.32892126      -0.88006573       0.01039607      -0.00825469      -0.00202901
12
Lattice="20.0 0.0 0.0 0.0 20.0 0.0 0.0 0.0 20.0" Properties=species:S:1:pos:R:3:REF_forces:R:3 REF_energy=-8331.828830662162 pbc="F F F"
C        0.10164220       0.03899868       0.15611212       0.18750369      -0.62430871       0.09067056
O        1.37869158      -0.08731775       0.09811062      -0.21070054       0.20637103      -0.07706785
O        2.14882982       1.06643678      -0.01483343      -0.16406823      -0.23163618       0.01837572
C       -0.65088335       1.22369135       0.18523251      -0.37498919       0.65414042      -0.26193502
C       -0.32212768       2.32295925      -0.56002931      -0.56361824       0.11131962       0.37856393
C       -0.80492314      -1.21416866       0.15578848       0.60678350       0.20286690      -0.04637874
H       -1.68823366       1.09299092       0.63480367       0.38597398       0.13387348      -0.19973324
H        0.64491623       2.43724773      -1.01102206       0.08136046      -0.02148686      -0.04374184
H       -1.10401312       3.14640085      -0.66473480       0.34577464      -0.30143267       0.02132620
H       -0.24125401      -2.14298279       0.32330170      -0.07472165       0.05548333      -0.04442453
H       -1.50655056      -1.02046149       0.93379530      -0.21237540      -0.09318470       0.22927207
H       -1.35019612      -1.20187349      -0.78545903      -0.00709663      -0.09139612      -0.06521106
12
Lattice="20.0 0.0 0.0 0.0 20.0 0.0 0.0 0.0 20.0" Properties=species:S:1:pos:R:3:REF_forces:R:3 REF_energy=-8332.27540095536 pbc="F F F"
C        0.05260157       0.04337387       0.00000000       0.14855832      -0.06491569       0.00000000
O        1.32515974      -0.15462861       0.00000000      -0.15975634       0.18386179       0.00000000
O        2.21661229       0.87961730      -0.00000000      -0.24372064      -0.06357222      -0.00000000
C       -0.70085648       1.27634476      -0.00000000       0.01479549       0.18372448      -0.00000000
C       -0.28557785       2.56204187       0.00000000       0.11865002      -0.13690353      -0.00000000
C       -0.77812488      -1.20527214      -0.00000000       0.04644272      -0.09920726      -0.00000000
H       -1.77663435       1.08178611      -0.00000000       0.04351022       0.02708469       0.00000000
H        0.77603743       2.80656356       0.00000000      -0.05448088      -0.02225783       0.00000000
H       -1.01927045       3.36998170       0.00000000       0.04054141      -0.04251355       0.00000000
H       -0.15656409      -2.10766472      -0.00000000      -0.01484032       0.04204394       0.00000000
H       -1.43399585      -1.22131635       0.88189138       0.03074152      -0.00390225      -0.01567568
H       -1.43399585      -1.22131635      -0.88189138       0.03074151      -0.00390225       0.01567568
12
Lattice="20.0 0.0 0.0 0.0 20.0 0.0 0.0 0.0 20.0" Properties=species:S:1:pos:R:3:REF_forces:R:3 REF_energy=-8332.380961135397 pbc="F F F"
C        0.00480542       0.03004337       0.00334788       0.26170674      -0.08234974      -0.01852359
O        1.28685318      -0.12722556       0.00060709      -0.13766749       0.15482642       0.00196626
O        2.12332262       0.94920913      -0.00004997      -0.13916487      -0.13372163      -0.00036920
C       -0.68890003       1.28819071      -0.00023994      -0.12806356      -0.00523605       0.02616657
C       -0.14670296       2.52139656      -0.00429749      -0.09882256       0.06715067      -0.01750453
C       -0.74950897      -1.27169088       0.00227342      -0.03445583       0.03255775      -0.11310042
H       -1.78470755       1.17161478       0.01756361       0.12642862       0.03451030      -0.01267393
H        0.92065005       2.66581236      -0.01458706       0.03069641      -0.01067743       0.00179482
H       -0.80820552       3.39727391      -0.01154201       0.05649473      -0.08456646       0.00805301
H       -0.04552400      -2.11474737      -0.00198379      -0.05954536       0.04843208       0.01110322
H       -1.40077189      -1.32327807       0.88438639       0.02067689      -0.02478316      -0.01355956
H       -1.40584414      -1.33473208      -0.89559469       0.10218877       0.00462118       0.12648275
12
Lattice="20.0 0.0 0.0 0.0 20.0 0.0 0.0 0.0 20.0" Properties=species:S:1:pos:R:3:REF_forces:R:3 REF_energy=-8332.369254735982 pbc="F F F"
C       -0.00136896       0.00988903       0.00000012       0.00000000       0.00000000       0.00000000
O        1.28810756      -0.12373018       0.00000004       0.00000000       0.00000000       0.00000000
O        2.12075929       0.94458158       0.00000005       0.00000000       0.00000000       0.00000000
C       -0.69006945       1.28607348      -0.00000011       0.00000000       0.00000000       0.00000000
C       -0.14802333       2.53052086      -0.00000010       0.00000000       0.00000000       0.00000000
C       -0.74558776      -1.26242655      -0.00000016       0.00000000       0.00000000       0.00000000
H       -1.77770212       1.21525186      -0.00000089       0.00000000       0.00000000       0.00000000
H        0.92309514       2.66571723       0.00000041       0.00000000       0.00000000       0.00000000
H       -0.78507985       3.41294264       0.00000042       0.00000000       0.00000000       0.00000000
H       -0.03276752      -2.08958909       0.00000100       0.00000000       0.00000000       0.00000000
H       -1.38732707      -1.33906793       0.88629546       0.00000000       0.00000000       0.00000000
H       -1.38732805      -1.33906933      -0.88629487       0.00000000       0.00000000       0.00000000
12
Lattice="20.0 0.0 0.0 0.0 20.0 0.0 0.0 0.0 20.0" Properties=species:S:1:pos:R:3:REF_forces:R:3 REF_energy=-8332.29224024548 pbc="F F F"
C        0.00475169       0.02928900       0.00002014       0.00000000       0.00000000       0.00000000
O        1.28414818      -0.12777159       0.00001584       0.00000000       0.00000000       0.00000000
O        2.12046044       0.94586659       0.00000735       0.00000000       0.00000000       0.00000000
C       -0.68910129       1.28848413      -0.00001293       0.00000000       0.00000000       0.00000000
C       -0.14593546       2.52636177      -0.00000356       0.00000000       0.00000000       0.00000000
C       -0.74614993      -1.26962699       0.00670095       0.00000000       0.00000000       0.00000000
H       -1.77305914       1.18612470       0.00008067       0.00000000       0.00000000       0.00000000
H        0.92470985       2.66386121       0.00003050       0.00000000       0.00000000       0.00000000
H       -0.80060385       3.39484165      -0.00000999       0.00000000       0.00000000       0.00000000
H       -0.04815578      -2.10926632       0.00130212       0.00000000       0.00000000       0.00000000
H       -1.36159303      -1.34188776       0.84244264       0.00000000       0.00000000       0.00000000
H       -1.42347067      -1.34827501      -0.92410865       0.00000000       0.00000000       0.00000000
12
Lattice="20.0 0.0 0.0 0.0 20.0 0.0 0.0 0.0 20.0" Properties=species:S:1:pos:R:3:REF_forces:R:3 REF_energy=-8331.896388254163 pbc="F F F"
C        0.05770894       0.00937679      -0.00000000      -1.67083322       0.52589750      -0.00000000
O        1.26052037      -0.12194375       0.00000000       1.16435268      -0.13262150      -0.00000000
O        2.11942963       0.94496082      -0.00000000      -0.06145571      -0.06977967       0.00000000
C       -0.69946784       1.30373351       0.00000000       0.28227753      -0.32063173      -0.00000000
C       -0.14417885       2.52110999      -0.00000000      -0.07151545       0.09755178       0.00000000
C       -0.74311134      -1.27371186      -0.00000000      -0.13548465       0.09030751       0.00000000
H       -1.78304096       1.19775036       0.00000000       0.02469610      -0.02733456      -0.00000000
H        0.92383882       2.67462060       0.00000000       0.00543682      -0.03050653      -0.00000000
H       -0.80559508       3.38519335       0.00000000       0.01277270       0.01368298      -0.00000000
H        0.05067735      -2.03105965       0.00000000      -0.26459244      -0.17700437      -0.00000000
H       -1.52065794      -1.34620540       0.79093679       0.35625921       0.01580119       0.20743156
H       -1.52065794      -1.34620540      -0.79093679       0.35625921       0.01580119      -0.20743156
12
Lattice="20.0 0.0 0.0 0.0 20.0 0.0 0.0 0.0 20.0" Properties=species:S:1:pos:R:3:REF_forces:R:3 REF_energy=-8332.371831749555 pbc="F F F"
C        0.00475583       0.02929410       0.01275598       0.00000000       0.00000000       0.00000000
O        1.28415567      -0.12776219      -0.00063529       0.00000000       0.00000000       0.00000000
O        2.12045467       0.94585918      -0.00046600       0.00000000       0.00000000       0.00000000
C       -0.68909567       1.28848202      -0.00223452       0.00000000       0.00000000       0.00000000
C       -0.14593983       2.52636265      -0.00031243       0.00000000       0.00000000       0.00000000
C       -0.74616075      -1.26962690      -0.01409226       0.00000000       0.00000000       0.00000000
H       -1.77305189       1.18609739      -0.00335208       0.00000000       0.00000000       0.00000000
H        0.92470816       2.66383384      -0.00547592       0.00000000       0.00000000       0.00000000
H       -0.80058606       3.39485601       0.01058222       0.00000000       0.00000000       0.00000000
H       -0.04813868      -2.10924371       0.02892645       0.00000000       0.00000000       0.00000000
H       -1.35785012      -1.29980886       0.89981677       0.00000000       0.00000000       0.00000000
H       -1.42721649      -1.39041487      -0.86674254       0.00000000       0.00000000       0.00000000
12
Lattice="20.0 0.0 0.0 0.0 20.0 0.0 0.0 0.0 20.0" Properties=species:S:1:pos:R:3:REF_forces:R:3 REF_energy=-8332.150971608735 pbc="F F F"
C        0.00472811       0.02922139      -0.00000000       0.21902933      -0.03160092       0.00000000
O        1.28419640      -0.12777878       0.00000000      -0.11405900       0.13876576      -0.00000000
O        2.12029855       0.94593840      -0.00000000      -0.09523399      -0.12968631      -0.00000000
C       -0.68948071       1.28876893       0.00000000       0.06563119       0.04491680      -0.00000000
C       -0.15676093       2.52749724      -0.00000000       1.18431040      -0.35048432      -0.00000000
C       -0.74615993      -1.26962970       0.00000000      -0.00374732       0.00686776      -0.00000000
H       -1.76712033       1.18699680       0.00000000      -0.06428108      -0.01049644       0.00000000
H        1.02824071       2.67931144       0.00000000      -0.86698945      -0.14128405       0.00000000
H       -0.77442678       3.36143313       0.00000000      -0.34614836       0.44368540       0.00000000
H       -0.04815181      -2.10928530      -0.00000000      -0.00152131       0.00840734       0.00000000
H       -1.39249409      -1.34508491       0.88323571       0.01194033       0.01051244      -0.00640352
H       -1.39249409      -1.34508491      -0.88323571       0.01194033       0.01051244       0.00640352
12
Lattice="20.0 0.0 0.0 0.0 20.0 0.0 0.0 0.0 20.0" Properties=species:S:1:pos:R:3:REF_forces:R:3 REF_energy=-8332.145745663527 pbc="F F F"
C        0.00467031       0.02950429      -0.00000000       0.22441406      -0.06852430      -0.00000000
O        1.28417594      -0.12776819      -0.00000000      -0.10899416       0.13720845       0.00000000
O        2.12040247       0.94587706       0.00000000      -0.11569890      -0.11971333       0.00000000
C       -0.68326764       1.28966514       0.00000000      -0.60544373      -0.06394292      -0.00000000
C       -0.14521159       2.51888880      -0.00000000      -0.02141396       0.68255046       0.00000000
C       -0.74594692      -1.26972552      -0.00000000      -0.03084593       0.01951456      -0.00000000
H       -1.83705613       1.18037057      -0.00000000       0.56182460       0.04965673      -0.00000000
H        0.96741883       2.66903312      -0.00000000      -0.39401412      -0.05754514      -0.00000000
H       -0.85595763       3.46819659      -0.00000000       0.44229455      -0.60229189      -0.00000000
H       -0.04922518      -2.10822861       0.00000000       0.00993138      -0.00304347      -0.00000000
H       -1.39323213      -1.34530361       0.88431340       0.01965257       0.01286136      -0.01770984
H       -1.39323213      -1.34530361      -0.88431340       0.01965257       0.01286136       0.01770984
12
Lattice="20.0 0.0 0.0 0.0 20.0 0.0 0.0 0.0 20.0" Properties=species:S:1:pos:R:3:REF_forces:R:3 REF_energy=-8332.391581810167 pbc="F F F"
C        0.00476232       0.02927735      -0.00000000       0.00000000       0.00000000       0.00000000
O        1.28415712      -0.12776719      -0.00000000       0.00000000       0.00000000       0.00000000
O        2.12045501       0.94586402      -0.00000000       0.00000000       0.00000000       0.00000000
C       -0.68979792       1.28843551       0.00000001       0.00000000       0.00000000       0.00000000
C       -0.14582656       2.52602267       0.00000000       0.00000000       0.00000000       0.00000000
C       -0.74508427      -1.27048633      -0.00000002       0.00000000       0.00000000       0.00000000
H       -1.76476631       1.18687928       0.00000003       0.00000000       0.00000000       0.00000000
H        0.92635960       2.66403219      -0.00000001       0.00000000       0.00000000       0.00000000
H       -0.80355828       3.39872381      -0.00000000       0.00000000       0.00000000       0.00000000
H       -0.05714326      -2.09844784       0.00000000       0.00000000       0.00000000       0.00000000
H       -1.39447096      -1.34540940       0.88623734       0.00000000       0.00000000       0.00000000
H       -1.39447077      -1.34540934      -0.88623710       0.00000000       0.00000000       0.00000000
12
Lattice="20.0 0.0 0.0 0.0 20.0 0.0 0.0 0.0 20.0" Properties=species:S:1:pos:R:3:REF_forces:R:3 REF_energy=-8332.274238418751 pbc="F F F"
C        0.00477471       0.02926476       0.00000000       0.21491007      -0.03352206       0.00000000
O        1.28407801      -0.12777940       0.00000000      -0.09425931       0.13847639      -0.00000000
O        2.12047357       0.94588109      -0.00000000      -0.12817496      -0.12031404      -0.00000000
C       -0.68921119       1.28840861      -0.00000000       0.02495591       0.08911170       0.00000000
C       -0.14592963       2.52640060       0.00000000      -0.02587485      -0.08423504      -0.00000000
C       -0.74240573      -1.26707709      -0.00000000      -0.36397640      -0.26681840      -0.00000000
H       -1.77152700       1.18634151      -0.00000000      -0.01020618      -0.00241782       0.00000000
H        0.92472880       2.66379397       0.00000000       0.00618553      -0.00457471       0.00000000
H       -0.80064326       3.39493403       0.00000000      -0.00005646      -0.01025897       0.00000000
H       -0.02798186      -2.13265317      -0.00000000      -0.18102453       0.21718013       0.00000000
H       -1.42474768      -1.34839183       0.92912799       0.27911447       0.03884242      -0.38595513
H       -1.42474768      -1.34839183      -0.92912799       0.27911446       0.03884242       0.38595513
12
Lattice="20.0 0.0 0.0 0.0 20.0 0.0 0.0 0.0 20.0" Properties=species:S:1:pos:R:3:REF_forces:R:3 REF_energy=-8332.075213363194 pbc="F F F"
C       -0.01577739      -0.03578006      -0.00000000       0.74528966       1.43508607       0.00000000
O        1.29742880      -0.11421559       0.00000000      -0.46603961      -0.26835760      -0.00000000
O        2.12146231       0.94155613      -0.00000000      -0.14148032       0.01293170      -0.00000000
C       -0.69234826       1.28039871      -0.00000000       0.01866312       0.25510418       0.00000000
C       -0.15293899       2.54031077       0.00000000       0.10899540      -0.32345515      -0.00000000
C       -0.74426390      -1.24547598      -0.00000000      -0.13983301      -0.65672108      -0.00000001
H       -1.78862952       1.28382736      -0.00000000       0.06177602      -0.16535148       0.00000000
H        0.91929599       2.67008263      -0.00000000       0.01604397      -0.01655004       0.00000000
H       -0.74853982       3.45555516      -0.00000000      -0.07921243      -0.12032576       0.00000000
H        0.00345691      -2.04326883       0.00000000      -0.09529375      -0.10518728       0.00000000
H       -1.37507742      -1.32491469       0.89340185      -0.01470394      -0.02347945      -0.02457673
H       -1.37507742      -1.32491469      -0.89340185      -0.01470395      -0.02347945       0.02457673
12
Lattice="20.0 0.0 0.0 0.0 20.0 0.0 0.0 0.0 20.0" Properties=species:S:1:pos:R:3:REF_forces:R:3 REF_energy=-8332.357548311395 pbc="F F F"
C       -0.02146554       0.05391001      -0.00000000       0.25130887      -0.09287835      -0.00000000
O        1.25839899      -0.11107374       0.00000000      -0.03729804       0.11807508      -0.00000000
O        2.15866707       0.90773329       0.00000000      -0.21207982      -0.04973992       0.00000000
C       -0.73032081       1.30869783      -0.00000000       0.07369816       0.05976042       0.00000000
C       -0.14964911       2.52955972       0.00000000      -0.01973765      -0.08314297       0.00000000
C       -0.70761471      -1.28310328       0.00000000      -0.05513615       0.00912017      -0.00000000
H       -1.81487916       1.21476575       0.00000000       0.01145049      -0.00264818       0.00000000
H        0.92985277       2.61389955      -0.00000000      -0.00633147       0.00183507       0.00000000
H       -0.76353147       3.42802209       0.00000000       0.00079876      -0.02237554       0.00000000
H        0.05130718      -2.07211688       0.00000000      -0.03443247       0.02277469      -0.00000000
H       -1.34700161      -1.40535744       0.88427027       0.01409073       0.01968580      -0.01293784
H       -1.34700161      -1.40535744      -0.88427027       0.01409073       0.01968580       0.01293784
12
Lattice="20.0 0.0 0.0 0.0 20.0 0.0 0.0 0.0 20.0" Properties=species:S:1:pos:R:3:REF_forces:R:3 REF_energy=-8331.874661915454 pbc="F F F"
C        0.00475169       0.02928901      -0.00591263       0.20822958      -0.05406827       0.17029682
O        1.28414818      -0.12777159       0.00004534      -0.09758465       0.13722815      -0.00415045
O        2.12046044       0.94586659      -0.00002144      -0.12645880      -0.11718733       0.00079698
C       -0.68910120       1.28848411       0.00130956       0.01338954       0.08899145      -0.03684058
C       -0.14593546       2.52636191       0.00014017      -0.02672407      -0.08113233      -0.00392132
C       -0.74614992      -1.26962700      -0.01912682       0.05185637      -0.11051108       0.53894588
H       -1.77306019       1.18612461      -0.00197941       0.00496070       0.00095843       0.00543188
H        0.92470893       2.66386108       0.00006357       0.00644311      -0.00536739      -0.00029004
H       -0.80060280       3.39484027      -0.00283347      -0.00049784      -0.00926506       0.00673387
H       -0.04815587      -2.10926621       0.25035743      -0.04792377       0.10013203      -0.59729824
H       -1.33379439      -1.50126192       0.90083409      -0.13225015       0.39192460      -0.09129446
H       -1.45126941      -1.18890086      -0.86571733       0.14705426      -0.34171712       0.01168803
12
Lattice="20.0 0.0 0.0 0.0 20.0 0.0 0.0 0.0 20.0" Properties=species:S:1:pos:R:3:REF_forces:R:3 REF_energy=-8332.363864372344 pbc="F F F"
C        0.02867663       0.03633144       0.00000000       0.18664920      -0.05530029       0.00000000
O        1.30465396      -0.14120010       0.00000000      -0.13442100       0.15926598      -0.00000000
O        2.16853636       0.91274194      -0.00000000      -0.19194468      -0.07860508       0.00000000
C       -0.69497884       1.28241443      -0.00000000       0.01451603       0.11347888      -0.00000000
C       -0.21575665       2.54420189       0.00000000       0.05291642      -0.10479503       0.00000000
C       -0.76213740      -1.23744957      -0.00000000       0.01767156      -0.03782832      -0.00000000
H       -1.77484727       1.13395536      -0.00000000       0.01463678       0.00884433       0.00000000
H        0.85037318       2.73521232       0.00000000      -0.00683937      -0.01186365       0.00000000
H       -0.90993663       3.38241098       0.00000000       0.01441603      -0.01732872       0.00000000
H       -0.10235998      -2.10846546      -0.00000000      -0.00268710       0.01641318       0.00000000
H       -1.41326388      -1.28319887       0.88258355       0.01787315       0.00386855      -0.00897957
H       -1.41326388      -1.28319887      -0.88258355       0.01787316       0.00386855       0.00897957
12
Lattice="20.0 0.0 0.0 0.0 20.0 0.0 0.0 0.0 20.0" Properties=species:S:1:pos:R:3:REF_forces:R:3 REF_energy=-8332.291094500422 pbc="F F F"
C        0.03123032       0.01933290      -0.00000000      -0.64259774       0.24922124      -0.00000000
O        1.27233428      -0.12485767       0.00000000       0.43848293       0.00946908      -0.00000000
O        2.11994504       0.94541370      -0.00000000      -0.09810402      -0.09549845       0.00000000
C       -0.69428452       1.29610881       0.00000000       0.15710328      -0.13366734      -0.00000000
C       -0.14505715       2.52373595      -0.00000000      -0.05058723       0.00567042       0.00000000
C       -0.74463063      -1.27166943      -0.00000000      -0.06041448       0.05753599       0.00000000
H       -1.77805057       1.19193749       0.00000000       0.01575827      -0.01412609      -0.00000000
H        0.92427387       2.66924084       0.00000000       0.00641751      -0.01807655      -0.00000000
H       -0.80309894       3.39001681       0.00000000       0.00614309       0.00196899      -0.00000000
H        0.00126074      -2.07016293       0.00000000      -0.12804750      -0.08639653      -0.00000000
H       -1.45659492      -1.34564339       0.83710625       0.17792037       0.01249017       0.10286538
H       -1.45659492      -1.34564339      -0.83710625       0.17792038       0.01249017      -0.10286538
12
Lattice="20.0 0.0 0.0 0.0 20.0 0.0 0.0 0.0 20.0" Properties=species:S:1:pos:R:3:REF_forces:R:3 REF_energy=-8332.401898723285 pbc="F F F"
C        0.00744212       0.02815639      -0.00000003       0.18128390      -0.02661148      -0.00000005
O        1.28513295      -0.12076793       0.00000005      -0.12066291       0.02095529      -0.00000026
O        2.11641921       0.94009647       0.00000001      -0.05968462      -0.02283204       0.00000012
C       -0.69021580       1.28929499      -0.00000025       0.04633361       0.07443034       0.00000240
C       -0.14594288       2.52764553       0.00000023      -0.02896855      -0.08595597      -0.00000312
C       -0.74185528      -1.27361419       0.00000002      -0.08741464       0.07591905       0.00000017
H       -1.77199708       1.18669030       0.00000089      -0.01614721      -0.00221486      -0.00000108
H        0.92548317       2.66249081      -0.00000035       0.00245071      -0.00422003       0.00000041
H       -0.79694471       3.40056777      -0.00000134       0.00279936      -0.02542299       0.00000153
H       -0.07009667      -2.12971090       0.00000008       0.03839736       0.00448693       0.00000008
H       -1.39498478      -1.32908490       0.88154638       0.02075484      -0.00672638      -0.01359852
H       -1.39498485      -1.32908522      -0.88154626       0.02075488      -0.00672605       0.01359847
12
Lattice="20.0 0.0 0.0 0.0 20.0 0.0 0.0 0.0 20.0" Properties=species:S:1:pos:R:3:REF_forces:R:3 REF_energy=-8332.280209260107 pbc="F F F"
C        0.00469744       0.02943253      -0.00000000       0.22171761      -0.05952599      -0.00000000
O        1.28416668      -0.12776932      -0.00000000      -0.10736721       0.13712939      -0.00000000
O        2.12042180       0.94587357       0.00000000      -0.11913314      -0.11922207       0.00000000
C       -0.68521216       1.28927146       0.00000000      -0.42514485      -0.01760829      -0.00000000
C       -0.14545288       2.52137984      -0.00000000      -0.04016314       0.46574026       0.00000000
C       -0.74601459      -1.26969268      -0.00000000      -0.02226140       0.01525157      -0.00000000
H       -1.81572415       1.18228859      -0.00000000       0.40145705       0.03545609      -0.00000000
H        0.95318220       2.66730911      -0.00000000      -0.27136016      -0.04089724      -0.00000000
H       -0.83750602       3.44374448      -0.00000000       0.32296717      -0.44134272      -0.00000000
H       -0.04886874      -2.10857448       0.00000000       0.00609567       0.00069708      -0.00000000
H       -1.39299872      -1.34522954       0.88396751       0.01720701       0.01202617      -0.01408519
H       -1.39299872      -1.34522954      -0.88396751       0.01720701       0.01202617       0.01408519
12
Lattice="20.0 0.0 0.0 0.0 20.0 0.0 0.0 0.0 20.0" Properties=species:S:1:pos:R:3:REF_forces:R:3 REF_energy=-8332.33534284626 pbc="F F F"
C        0.00543224       0.03104466       0.00000241       0.00000000       0.00000000       0.00000000
O        1.29013837      -0.09606306      -0.00000201       0.00000000       0.00000000       0.00000000
O        2.16011759       0.97053400       0.00000079       0.00000000       0.00000000       0.00000000
C       -0.72902158       1.25824685       0.00000039       0.00000000       0.00000000       0.00000000
C       -0.13090742       2.46620460      -0.00000084       0.00000000       0.00000000       0.00000000
C       -0.77572361      -1.24834225       0.00000055       0.00000000       0.00000000       0.00000000
H       -1.81236682       1.15670060      -0.00000487       0.00000000       0.00000000       0.00000000
H        0.95192873       2.51446561       0.00000491       0.00000000       0.00000000       0.00000000
H       -0.72489697       3.37937056      -0.00000885       0.00000000       0.00000000       0.00000000
H       -0.12316649      -2.12515462       0.00000140       0.00000000       0.00000000       0.00000000
H       -1.42865396      -1.28611107       0.88199156       0.00000000       0.00000000       0.00000000
H       -1.42864867      -1.28610930      -0.88199460       0.00000000       0.00000000       0.00000000
12
Lattice="20.0 0.0 0.0 0.0 20.0 0.0 0.0 0.0 20.0" Properties=species:S:1:pos:R:3:REF_forces:R:3 REF_energy=-8332.397828003406 pbc="F F F"
C        0.01067241       0.02706265      -0.00000007       0.00000000       0.00000000       0.00000000
O        1.28150657      -0.12711998       0.00000001       0.00000000       0.00000000       0.00000000
O        2.12034519       0.94576531      -0.00000001       0.00000000       0.00000000       0.00000000
C       -0.69026027       1.29018926       0.00000002       0.00000000       0.00000000       0.00000000
C       -0.14573905       2.52577460       0.00000001       0.00000000       0.00000000       0.00000000
C       -0.74581020      -1.27008372      -0.00000007       0.00000000       0.00000000       0.00000000
H       -1.77417596       1.18742362      -0.00000002       0.00000000       0.00000000       0.00000000
H        0.92461152       2.66506432      -0.00000012       0.00000000       0.00000000       0.00000000
H       -0.80116082       3.39376159      -0.00000004       0.00000000       0.00000000       0.00000000
H       -0.03710576      -2.10052227       0.00000123       0.00000000       0.00000000       0.00000000
H       -1.40685652      -1.34520781       0.87295203       0.00000000       0.00000000       0.00000000
H       -1.40685705      -1.34520583      -0.87295186       0.00000000       0.00000000       0.00000000
12
Lattice="20.0 0.0 0.0 0.0 20.0 0.0 0.0 0.0 20.0" Properties=species:S:1:pos:R:3:REF_forces:R:3 REF_energy=-8332.335657488728 pbc="F F F"
C        0.00478359       0.02925402      -0.00000001       0.00000000       0.00000000       0.00000000
O        1.28417500      -0.12775839      -0.00000000       0.00000000       0.00000000       0.00000000
O        2.12044415       0.94585888      -0.00000000       0.00000000       0.00000000       0.00000000
C       -0.69119136       1.28833831       0.00000002       0.00000000       0.00000000       0.00000000
C       -0.14560877       2.52534419       0.00000000       0.00000000       0.00000000       0.00000000
C       -0.74295299      -1.27220499      -0.00000006       0.00000000       0.00000000       0.00000000
H       -1.74817856       1.18838863       0.00000008       0.00000000       0.00000000       0.00000000
H        0.92966096       2.66437441      -0.00000004       0.00000000       0.00000000       0.00000000
H       -0.80946924       3.40649090      -0.00000001       0.00000000       0.00000000       0.00000000
H       -0.07511805      -2.07681110       0.00000000       0.00000000       0.00000000       0.00000000
H       -1.39834908      -1.34606540       0.89216060       0.00000000       0.00000000       0.00000000
H       -1.39834851      -1.34606525      -0.89215989       0.00000000       0.00000000       0.00000000
12
Lattice="20.0 0.0 0.0 0.0 20.0 0.0 0.0 0.0 20.0" Properties=species:S:1:pos:R:3:REF_forces:R:3 REF_energy=-8332.387467128548 pbc="F F F"
C        0.00748195       0.02819651      -0.00000003       0.17715865      -0.03285998      -0.00000004
O        1.28510924      -0.12076977       0.00000005      -0.11680396       0.02151424      -0.00000026
O        2.11642295       0.94009904       0.00000001      -0.06056251      -0.02327950       0.00000012
C       -0.68847483       1.28940955      -0.00000025      -0.16123751       0.06194610       0.00000256
C       -0.14622668       2.52857541       0.00000023       0.00931141      -0.20644705      -0.00000294
C       -0.74106520      -1.27422057       0.00000002      -0.18861202       0.15924233       0.00000015
H       -1.79279787       1.18488041       0.00000089       0.19140110       0.01561948      -0.00000126
H        0.92097605       2.66200483      -0.00000035       0.04991584       0.00079447       0.00000040
H       -0.78898345       3.39009703      -0.00000134      -0.08324584       0.08861766       0.00000135
H       -0.07649218      -2.12205971       0.00000008       0.10751197      -0.08199442       0.00000009
H       -1.39658205      -1.32938209       0.88396551       0.03753079      -0.00394733      -0.03868636
H       -1.39658213      -1.32938240      -0.88396539       0.03753084      -0.00394699       0.03868630
12
Lattice="20.0 0.0 0.0 0.0 20.0 0.0 0.0 0.0 20.0" Properties=species:S:1:pos:R:3:REF_forces:R:3 REF_energy=-8332.051221684 pbc="F F F"
C       -0.01327934       0.03686675      -0.00000000       0.44261134      -0.16186021      -0.00000000
O        1.27755778      -0.17474486      -0.00000000      -0.11817035       0.75880133      -0.00000000
O        2.14756048       0.98456840       0.00000000      -0.41914358      -0.57193679       0.00000000
C       -0.68279383       1.28296217       0.00000000      -0.07871659       0.17017561      -0.00000000
C       -0.14570155       2.51718138      -0.00000000      -0.03066106       0.03218662       0.00000000
C       -0.77317253      -1.24432017       0.00000000       0.32879251      -0.40053052       0.00000000
H       -1.76627786       1.18359861       0.00000000      -0.00093912       0.00387970      -0.00000000
H        0.92228394       2.67334929       0.00000000       0.00841016      -0.01454618      -0.00000000
H       -0.83010389       3.36292849      -0.00000000       0.03306747       0.01985787      -0.00000000
H        0.08395975      -1.95397697      -0.00000000      -0.25532587      -0.08819171      -0.00000000
H       -1.37932819      -1.45293733       0.89984354       0.04465937       0.12625667      -0.07132906
H       -1.37932819      -1.45293733      -0.89984354       0.04465937       0.12625667       0.07132906
12
Lattice="20.0 0.0 0.0 0.0 20.0 0.0 0.0 0.0 20.0" Properties=species:S:1:pos:R:3:REF_forces:R:3 REF_energy=-8332.002295399048 pbc="F F F"
C        0.00475169       0.02928901      -0.11373794       0.28996942      -0.13378619       0.14356575
O        1.28414818      -0.12777159      -0.22915802      -0.07438880       0.38364264       0.38633201
O        2.12046044       0.94586659       0.18958270      -0.26430613      -0.31323785      -0.33810398
C       -0.68910120       1.28848411       0.02508875       0.01860467       0.05806759      -0.04012677
C       -0.14593546       2.52636191      -0.01695111      -0.04328189      -0.09056113       0.00977550
C       -0.74614992      -1.26962700       0.10566858      -0.07458577      -0.13624730      -0.04398528
H       -1.77306019       1.18612461       0.11983683       0.04692913      -0.00137803      -0.01701585
H        0.92470893       2.66386108      -0.07232125       0.00781150      -0.01692628       0.00334381
H       -0.80060280       3.39484027      -0.00654930       0.00160417      -0.00776873       0.00840719
H       -0.04815587      -2.10926621       0.35222523      -0.12223874       0.21669397      -0.08664418
H       -1.40548813      -1.10621752       1.00036203       0.10493400      -0.05799560      -0.22157062
H       -1.37957567      -1.58394527      -0.76618939       0.10955496       0.10051231       0.19599193
12
Lattice="20.0 0.0 0.0 0.0 20.0 0.0 0.0 0.0 20.0" Properties=species:S:1:pos:R:3:REF_forces:R:3 REF_energy=-8332.30946573124 pbc="F F F"
C       -0.00863549       0.03170456       0.00000282       0.00000000       0.00000000       0.00000000
O        1.25943290      -0.09851998      -0.00000119       0.00000000       0.00000000       0.00000000
O        2.12206756       0.93330814      -0.00000026       0.00000000       0.00000000       0.00000000
C       -0.65682908       1.26431560      -0.00000018       0.00000000       0.00000000       0.00000000
C       -0.13831093       2.50415108      -0.00000023       0.00000000       0.00000000       0.00000000
C       -0.74069643      -1.25209611      -0.00000061       0.00000000       0.00000000       0.00000000
H       -1.74172860       1.18489715       0.00000162       0.00000000       0.00000000       0.00000000
H        0.91615273       2.75425194      -0.00000639       0.00000000       0.00000000       0.00000000
H       -0.87851280       3.30815923       0.00000988       0.00000000       0.00000000       0.00000000
H       -0.02441972      -2.07610831      -0.00000267       0.00000000       0.00000000       0.00000000
H       -1.38387604      -1.33789630       0.88439430       0.00000000       0.00000000       0.00000000
H       -1.38387710      -1.33789200      -0.88439514       0.00000000       0.00000000       0.00000000
12
Lattice="20.0 0.0 0.0 0.0 20.0 0.0 0.0 0.0 20.0" Properties=species:S:1:pos:R:3:REF_forces:R:3 REF_energy=-8332.392029693616 pbc="F F F"
C        0.00742619       0.02817390      -0.00000003       0.18329299      -0.02826157      -0.00000004
O        1.28511954      -0.12077451       0.00000005      -0.11882261       0.02182968      -0.00000026
O        2.11642735       0.94010031       0.00000001      -0.06104864      -0.02350800       0.00000012
C       -0.68917024       1.28936795      -0.00000025      -0.08131449       0.06623034       0.00000250
C       -0.14610629       2.52815446       0.00000023      -0.00778337      -0.15076366      -0.00000302
C       -0.74345349      -1.27232541       0.00000002       0.10529643      -0.08211191       0.00000016
H       -1.78444362       1.18555777       0.00000089       0.11119047       0.00931173      -0.00000119
H        0.92300702       2.66223415      -0.00000035       0.02834854      -0.00159128       0.00000041
H       -0.79251066       3.39474136      -0.00000134      -0.04428352       0.03677369       0.00000143
H       -0.05661777      -2.14593583       0.00000008      -0.09383115       0.17005445       0.00000007
H       -1.39207675      -1.32859302       0.87710480      -0.01064143      -0.01143717       0.03385684
H       -1.39207683      -1.32859333      -0.87710467      -0.01064139      -0.01143685      -0.03385689
12
Lattice="20.0 0.0 0.0 0.0 20.0 0.0 0.0 0.0 20.0" Properties=species:S:1:pos:R:3:REF_forces:R:3 REF_energy=-8331.846616256029 pbc="F F F"
C       -0.02518178       0.03469038      -0.00000000       0.59361565      -0.32828390       0.00000000
O        1.22888315      -0.06236032       0.00000000       0.57345609      -0.64905602      -0.00000000
O        2.12405333       0.91778217      -0.00000000      -0.14537130       0.21750624      -0.00000000
C       -0.61693720       1.23444245      -0.00000000      -0.79642899       0.85111629      -0.00000000
C       -0.12888613       2.47669817       0.00000000      -0.08884932       0.54524368       0.00000000
C       -0.73395702      -1.23042837      -0.00000000      -0.13379527      -0.38768573      -0.00000001
H       -1.70299839       1.18337591      -0.00000000      -0.03575491      -0.01512491       0.00000000
H        0.90557640       2.86598540      -0.00000000      -0.21745319      -0.21353226       0.00000000
H       -0.97481400       3.20101687       0.00000000       0.29362096       0.01821096       0.00000000
H        0.00491347      -2.03512805       0.00000000      -0.04556830      -0.03665868       0.00000000
H       -1.37317888      -1.32900912       0.88577810       0.00173676      -0.00042586      -0.01108077
H       -1.37317888      -1.32900912      -0.88577810       0.00173676      -0.00042586       0.01108077
12
Lattice="20.0 0.0 0.0 0.0 20.0 0.0 0.0 0.0 20.0" Properties=species:S:1:pos:R:3:REF_forces:R:3 REF_energy=-8332.286493492316 pbc="F F F"
C        0.00497177       0.03136879       0.00945590       0.34195810      -0.15428631      -0.05322588
O        1.29177102      -0.12620756       0.00172057      -0.19605420       0.18569745       0.00616642
O        2.12855272       0.95531490      -0.00014204      -0.16235207      -0.16206754      -0.00091137
C       -0.68872297       1.28753271      -0.00064201      -0.34823774      -0.16344461       0.08132299
C       -0.14821098       2.51250462      -0.01219349      -0.20807497       0.31382519      -0.05114589
C       -0.75570200      -1.27543441       0.00628522      -0.07430374       0.09451143      -0.27401246
H       -1.80406538       1.14561079       0.04951682       0.31285484       0.09752898      -0.04266008
H        0.91360768       2.66929724      -0.04128033       0.06760629      -0.02105711       0.00434821
H       -0.82120555       3.40051003      -0.03255272       0.14375247      -0.19951591       0.02469682
H       -0.04166760      -2.12411943      -0.00543091      -0.15409870       0.11153498       0.03169513
H       -1.41570990      -1.28392191       0.88628658       0.04020385      -0.08805936      -0.03120992
H       -1.42876318      -1.31588404      -0.91621620       0.23667254      -0.01341920       0.30447161
12
Lattice="20.0 0.0 0.0 0.0 20.0 0.0 0.0 0.0 20.0" Properties=species:S:1:pos:R:3:REF_forces:R:3 REF_energy=-8332.372595528412 pbc="F F F"
C        0.00440443       0.02624421      -0.00000058       0.00000000       0.00000000       0.00000000
O        1.27177651      -0.12861907      -0.00000004       0.00000000       0.00000000       0.00000000
O        2.12398208       0.94937615      -0.00000003       0.00000000       0.00000000       0.00000000
C       -0.67653960       1.28473251      -0.00000015       0.00000000       0.00000000       0.00000000
C       -0.15326307       2.53249173       0.00000020       0.00000000       0.00000000       0.00000000
C       -0.74268113      -1.26952477       0.00000081       0.00000000       0.00000000       0.00000000
H       -1.75741939       1.14880494       0.00000384       0.00000000       0.00000000       0.00000000
H        0.92485894       2.62016761       0.00000043       0.00000000       0.00000000       0.00000000
H       -0.77738696       3.42342851      -0.00000169       0.00000000       0.00000000       0.00000000
H       -0.04990669      -2.11297763      -0.00000247       0.00000000       0.00000000       0.00000000
H       -1.39070766      -1.33478136       0.88273511       0.00000000       0.00000000       0.00000000
H       -1.39070340      -1.33477497      -0.88273738       0.00000000       0.00000000       0.00000000
12
Lattice="20.0 0.0 0.0 0.0 20.0 0.0 0.0 0.0 20.0" Properties=species:S:1:pos:R:3:REF_forces:R:3 REF_energy=-8332.389737478967 pbc="F F F"
C        0.00475123       0.02928866       0.01536481       0.00000000       0.00000000       0.00000000
O        1.28414879      -0.12777217      -0.00241156       0.00000000       0.00000000       0.00000000
O        2.12046089       0.94586560       0.01495477       0.00000000       0.00000000       0.00000000
C       -0.68910250       1.28848519       0.05195113       0.00000000       0.00000000       0.00000000
C       -0.14593421       2.52636312      -0.04581179       0.00000000       0.00000000       0.00000000
C       -0.74615078      -1.26962726      -0.02571163       0.00000000       0.00000000       0.00000000
H       -1.77306262       1.18612695       0.13897466       0.00000000       0.00000000       0.00000000
H        0.92471120       2.66386066      -0.14522850       0.00000000       0.00000000       0.00000000
H       -0.80060040       3.39484300      -0.03147205       0.00000000       0.00000000       0.00000000
H       -0.04815648      -2.10926717      -0.08079390       0.00000000       0.00000000       0.00000000
H       -1.37346883      -1.38737914       0.86805618       0.00000000       0.00000000       0.00000000
H       -1.41159707      -1.30278243      -0.89849648       0.00000000       0.00000000       0.00000000
12
Lattice="20.0 0.0 0.0 0.0 20.0 0.0 0.0 0.0 20.0" Properties=species:S:1:pos:R:3:REF_forces:R:3 REF_energy=-8332.374484175973 pbc="F F F"
C        0.00474466       0.02926885      -0.00000000       0.00000000       0.00000000       0.00000000
O        1.28416255      -0.12777374       0.00000000       0.00000000       0.00000000       0.00000000
O        2.12041218       0.94588800       0.00000001       0.00000000       0.00000000       0.00000000
C       -0.68921431       1.28856903      -0.00000001       0.00000000       0.00000000       0.00000000
C       -0.14916299       2.52670039      -0.00000000       0.00000000       0.00000000       0.00000000
C       -0.74615291      -1.26962780      -0.00000001       0.00000000       0.00000000       0.00000000
H       -1.77128966       1.18638463      -0.00000003       0.00000000       0.00000000       0.00000000
H        0.95557628       2.66846750       0.00000002       0.00000000       0.00000000       0.00000000
H       -0.79279879       3.38488041      -0.00000001       0.00000000       0.00000000       0.00000000
H       -0.04815460      -2.10927198       0.00000002       0.00000000       0.00000000       0.00000000
H       -1.39252067      -1.34508242       0.88326383       0.00000000       0.00000000       0.00000000
H       -1.39252060      -1.34508247      -0.88326369       0.00000000       0.00000000       0.00000000
12
Lattice="20.0 0.0 0.0 0.0 20.0 0.0 0.0 0.0 20.0" Properties=species:S:1:pos:R:3:REF_forces:R:3 REF_energy=-8332.393992695337 pbc="F F F"
C        0.00327972       0.02745893      -0.00000007       0.00000000       0.00000000       0.00000000
O        1.28477280      -0.12767516       0.00000001       0.00000000       0.00000000       0.00000000
O        2.12051613       0.94596807      -0.00000005       0.00000000       0.00000000       0.00000000
C       -0.68753635       1.29536890       0.00000008       0.00000000       0.00000000       0.00000000
C       -0.14781714       2.52101822       0.00000005       0.00000000       0.00000000       0.00000000
C       -0.74587405      -1.26937077      -0.00000001       0.00000000       0.00000000       0.00000000
H       -1.76962586       1.17649551      -0.00000001       0.00000000       0.00000000       0.00000000
H        0.92025436       2.67020998      -0.00000023       0.00000000       0.00000000       0.00000000
H       -0.79354328       3.39552106       0.00000000       0.00000000       0.00000000       0.00000000
H       -0.04899978      -2.10992640       0.00000017       0.00000000       0.00000000       0.00000000
H       -1.39151451      -1.34482746       0.88390462       0.00000000       0.00000000       0.00000000
H       -1.39151443      -1.34482673      -0.88390470       0.00000000       0.00000000       0.00000000
12
Lattice="20.0 0.0 0.0 0.0 20.0 0.0 0.0 0.0 20.0" Properties=species:S:1:pos:R:3:REF_forces:R:3 REF_energy=-8331.865023217753 pbc="F F F"
C        0.00475169       0.02928901      -0.06871347       0.17621158      -0.13079262       0.04669252
O        1.28414818      -0.12777159       0.01078482      -0.14134606       0.20071901      -0.02572795
O        2.12046044       0.94586659      -0.06687985      -0.10933029      -0.12353585       0.03278552
C       -0.68910120       1.28848411      -0.23233201       0.09013058       0.64498842       0.24863009
C       -0.14593546       2.52636191       0.20487592       0.06470713      -0.66199146      -0.15226116
C       -0.74614992      -1.26962700       0.11498610      -0.04584975      -0.09211817      -0.01819376
H       -1.77306019       1.18612461      -0.62151207       0.52809800       0.11995487       0.22066500
H        0.92470893       2.66386108       0.64947979      -0.64933116      -0.18256963      -0.30825936
H       -0.80060280       3.39484027       0.14074672       0.03439828       0.00187652       0.01151559
H       -0.04815587      -2.10926621       0.36132069      -0.13420779       0.21039368      -0.06723427
H       -1.47778856      -1.15591766       0.95134289       0.11069530      -0.03427057      -0.16339149
H       -1.30727524      -1.53424512      -0.81520853       0.07574332       0.04777436       0.17532919
12
Lattice="20.0 0.0 0.0 0.0 20.0 0.0 0.0 0.0 20.0" Properties=species:S:1:pos:R:3:REF_forces:R:3 REF_energy=-8332.25473901798 pbc="F F F"
C       -0.00409139       0.01752894       0.00000000       0.34808946       0.11933192      -0.00000000
O        1.26413651      -0.15074632      -0.00000000       0.22449520       0.49996285       0.00000000
O        2.13481550       0.96429564       0.00000000      -0.33391700      -0.38924529      -0.00000000
C       -0.70025605       1.29412506      -0.00000000       0.15223335       0.01301597       0.00000000
C       -0.13739641       2.52485114       0.00000000      -0.14368525      -0.05223273      -0.00000000
C       -0.71988866      -1.27040946      -0.00000000      -0.39481593      -0.01076126       0.00000000
H       -1.78949319       1.24614826      -0.00000000       0.03320280      -0.07183106      -0.00000000
H        0.92557111       2.71813586      -0.00000000      -0.00636993      -0.06782407      -0.00000000
H       -0.83619391       3.36132153      -0.00000000       0.05103380       0.02436867      -0.00000000
H       -0.09040173      -2.16442161       0.00000000       0.03144555       0.09259175      -0.00000000
H       -1.38912988      -1.27169435       0.87339862       0.01953817      -0.07890919      -0.00909557
H       -1.38912988      -1.27169435      -0.87339862       0.01953817      -0.07890919       0.00909557
12
Lattice="20.0 0.0 0.0 0.0 20.0 0.0 0.0 0.0 20.0" Properties=species:S:1:pos:R:3:REF_forces:R:3 REF_energy=-8332.260791701809 pbc="F F F"
C        0.00475169       0.02928901       0.05503907       0.22360521      -0.02834491      -0.36854670
O        1.28414818      -0.12777159      -0.02364119      -0.11680701       0.13487342       0.21330661
O        2.12046044       0.94586659       0.00959081      -0.12456913      -0.11476225      -0.08148316
C       -0.68910120       1.28848411      -0.05396969      -0.04067462       0.05668911       0.35252064
C       -0.14593546       2.52636191       0.00444993      -0.03621815      -0.00220566      -0.02132571
C       -0.74614992      -1.26962700       0.00940093      -0.03123837      -0.00503588      -0.05608945
H       -1.77306019       1.18612461       0.06149975       0.05284225       0.00693830      -0.03885278
H        0.92470893       2.66386108      -0.09963400      -0.03943034      -0.00142458       0.05739181
H       -0.80060280       3.39484027       0.16597425       0.06430061      -0.08693986      -0.10291590
H       -0.04815587      -2.10926621      -0.03289808      -0.00339245       0.01510971       0.01776950
H       -1.43011103      -1.41230428       0.85841760       0.04624777       0.04976122      -0.01677400
H       -1.35495277      -1.27785850      -0.90813382       0.00550279      -0.02420074       0.04493306
12
Lattice="20.0 0.0 0.0 0.0 20.0 0.0 0.0 0.0 20.0" Properties=species:S:1:pos:R:3:REF_forces:R:3 REF_energy=-8332.338804316989 pbc="F F F"
C        0.00475169       0.02928901       0.00001511       0.00000000       0.00000000       0.00000000
O        1.28414818      -0.12777159       0.00001188       0.00000000       0.00000000       0.00000000
O        2.12046044       0.94586659       0.00000551       0.00000000       0.00000000       0.00000000
C       -0.68910127       1.28848413      -0.00000970       0.00000000       0.00000000       0.00000000
C       -0.14593546       2.52636180      -0.00000267       0.00000000       0.00000000       0.00000000
C       -0.74614993      -1.26962699       0.00502571       0.00000000       0.00000000       0.00000000
H       -1.77305940       1.18612468       0.00006050       0.00000000       0.00000000       0.00000000
H        0.92470962       2.66386118       0.00002287       0.00000000       0.00000000       0.00000000
H       -0.80060359       3.39484130      -0.00000750       0.00000000       0.00000000       0.00000000
H       -0.04815580      -2.10926630       0.00097659       0.00000000       0.00000000       0.00000000
H       -1.36932775      -1.34268616       0.85265091       0.00000000       0.00000000       0.00000000
H       -1.41573598      -1.34747661      -0.91390042       0.00000000       0.00000000       0.00000000
12
Lattice="20.0 0.0 0.0 0.0 20.0 0.0 0.0 0.0 20.0" Properties=species:S:1:pos:R:3:REF_forces:R:3 REF_energy=-8332.326854554334 pbc="F F F"
C       -0.03042244       0.06232237      -0.00000207       0.00000000       0.00000000       0.00000000
O        1.24960253      -0.10536812      -0.00000168       0.00000000       0.00000000       0.00000000
O        2.17172454       0.89470391       0.00000130       0.00000000       0.00000000       0.00000000
C       -0.74440605       1.31560323      -0.00000073       0.00000000       0.00000000       0.00000000
C       -0.15091846       2.53065050       0.00000137       0.00000000       0.00000000       0.00000000
C       -0.69445176      -1.28770532       0.00000080       0.00000000       0.00000000       0.00000000
H       -1.82916903       1.22454919       0.00000525       0.00000000       0.00000000       0.00000000
H        0.93161026       2.59682579      -0.00000408       0.00000000       0.00000000       0.00000000
H       -0.75086509       3.43935804       0.00000882       0.00000000       0.00000000       0.00000000
H        0.08528312      -2.05942539       0.00000834       0.00000000       0.00000000       0.00000000
H       -1.33145374      -1.42594224       0.88460785       0.00000000       0.00000000       0.00000000
H       -1.33144435      -1.42595053      -0.88461251       0.00000000       0.00000000       0.00000000
12
Lattice="20.0 0.0 0.0 0.0 20.0 0.0 0.0 0.0 20.0" Properties=species:S:1:pos:R:3:REF_forces:R:3 REF_energy=-8332.281002806136 pbc="F F F"
C        0.01359477       0.04104909      -0.00000000       0.10085356      -0.20515322       0.00000000
O        1.30415984      -0.10479685       0.00000000      -0.51941056      -0.36096906      -0.00000000
O        2.10610539       0.92743754      -0.00000000       0.19643733       0.29732625      -0.00000000
C       -0.67794636       1.28284316       0.00000000      -0.16376613       0.16932272       0.00000000
C       -0.15447451       2.52787269      -0.00000000       0.10170468      -0.09425632      -0.00000000
C       -0.77241118      -1.26884454       0.00000000       0.34490795      -0.03583558      -0.00000001
H       -1.75662719       1.12610096       0.00000000      -0.00382667       0.07335922       0.00000000
H        0.92384674       2.60958631       0.00000000      -0.00511609       0.06147611       0.00000000
H       -0.76501168       3.42835900       0.00000000      -0.03458936      -0.05604961       0.00000000
H       -0.00591001      -2.05411081      -0.00000000      -0.07117009      -0.04135588       0.00000000
H       -1.39593392      -1.41846843       0.89315280       0.02734483       0.09643436      -0.03158611
H       -1.39593392      -1.41846843      -0.89315280       0.02734483       0.09643436       0.03158611
12
Lattice="20.0 0.0 0.0 0.0 20.0 0.0 0.0 0.0 20.0" Properties=species:S:1:pos:R:3:REF_forces:R:3 REF_energy=-8332.288780197881 pbc="F F F"
C        0.00475074       0.02928936      -0.04922846       0.00000000       0.00000000       0.00000000
O        1.28414622      -0.12776953       0.02114532       0.00000000       0.00000000       0.00000000
O        2.12046136       0.94586594      -0.00857829       0.00000000       0.00000000       0.00000000
C       -0.68909919       1.28848257       0.04827194       0.00000000       0.00000000       0.00000000
C       -0.14593547       2.52636113      -0.00398014       0.00000000       0.00000000       0.00000000
C       -0.74614958      -1.26962676      -0.00840842       0.00000000       0.00000000       0.00000000
H       -1.77305855       1.18612371      -0.05500714       0.00000000       0.00000000       0.00000000
H        0.92470825       2.66386410       0.08911540       0.00000000       0.00000000       0.00000000
H       -0.80060611       3.39483690      -0.14845186       0.00000000       0.00000000       0.00000000
H       -0.04815433      -2.10926472       0.02942492       0.00000000       0.00000000       0.00000000
H       -1.35891965      -1.28495639       0.90550937       0.00000000       0.00000000       0.00000000
H       -1.42614329      -1.40520832      -0.86104180       0.00000000       0.00000000       0.00000000
12
Lattice="20.0 0.0 0.0 0.0 20.0 0.0 0.0 0.0 20.0" Properties=species:S:1:pos:R:3:REF_forces:R:3 REF_energy=-8332.377269621542 pbc="F F F"
C        0.00741521       0.02822349      -0.00000003       0.18457498      -0.03471263      -0.00000006
O        1.28513899      -0.12076801       0.00000005      -0.12176422       0.02081376      -0.00000025
O        2.11640328       0.94010023       0.00000001      -0.05703915      -0.02331489       0.00000012
C       -0.68830231       1.28965927      -0.00000025      -0.18433321       0.02743419       0.00000253
C       -0.14575430       2.52550230       0.00000023      -0.04203168       0.16822548      -0.00000340
C       -0.74206113      -1.27342876       0.00000002      -0.06180116       0.05186871       0.00000016
H       -1.79315141       1.18478602       0.00000089       0.19643726       0.01704128      -0.00000125
H        0.93780411       2.66399003      -0.00000035      -0.12330223      -0.01940690       0.00000046
H       -0.81270933       3.42146733      -0.00000134       0.15467049      -0.22941857       0.00000180
H       -0.06816899      -2.13210570       0.00000008       0.01849574       0.03031365       0.00000008
H       -1.39470887      -1.32906917       0.88111550       0.01778862      -0.00683876      -0.00903956
H       -1.39470895      -1.32906949      -0.88111537       0.01778866      -0.00683843       0.00903950
12
Lattice="20.0 0.0 0.0 0.0 20.0 0.0 0.0 0.0 20.0" Properties=species:S:1:pos:R:3:REF_forces:R:3 REF_energy=-8332.36021859023 pbc="F F F"
C        0.00742618       0.02817331      -0.00000003       0.18204938      -0.03226961      -0.00000006
O        1.28517123      -0.12076451       0.00000005      -0.12556299       0.02065807      -0.00000026
O        2.11641299       0.94008873       0.00000001      -0.05885474      -0.02175133       0.00000012
C       -0.68997804       1.28935074      -0.00000025       0.01664675       0.06853438       0.00000243
C       -0.14597348       2.52770801       0.00000023      -0.02519797      -0.09429921      -0.00000310
C       -0.74428336      -1.27487158       0.00000002       0.23388259       0.22406918       0.00000016
H       -1.77495669       1.18637632       0.00000089       0.01460110       0.00109203      -0.00000111
H        0.92505900       2.66248678      -0.00000035       0.00684596      -0.00414259       0.00000041
H       -0.79618234       3.39954257      -0.00000134      -0.00516172      -0.01477806       0.00000151
H       -0.07949766      -2.11891258       0.00000008       0.12998758      -0.10597695       0.00000009
H       -1.37590032      -1.32709164       0.85433329      -0.18474018      -0.02313284       0.27621967
H       -1.37590039      -1.32709196      -0.85433317      -0.18474017      -0.02313259      -0.27621973
12
Lattice="20.0 0.0 0.0 0.0 20.0 0.0 0.0 0.0 20.0" Properties=species:S:1:pos:R:3:REF_forces:R:3 REF_energy=-8332.371517208283 pbc="F F F"
C        0.00475147       0.02928891      -0.00040250       0.00000000       0.00000000       0.00000000
O        1.28414828      -0.12777184       0.00127411       0.00000000       0.00000000       0.00000000
O        2.12046058       0.94586677      -0.00047254       0.00000000       0.00000000       0.00000000
C       -0.68910151       1.28848425      -0.00993867       0.00000000       0.00000000       0.00000000
C       -0.14593514       2.52636137       0.00128061       0.00000000       0.00000000       0.00000000
C       -0.74614994      -1.26962664      -0.00121380       0.00000000       0.00000000       0.00000000
H       -1.77306063       1.18612651       0.09262995       0.00000000       0.00000000       0.00000000
H        0.92470879       2.66386351       0.04743792       0.00000000       0.00000000       0.00000000
H       -0.80060458       3.39483810      -0.03471914       0.00000000       0.00000000       0.00000000
H       -0.04815491      -2.10926516       0.00211092       0.00000000       0.00000000       0.00000000
H       -1.39001022      -1.34208693       0.88440106       0.00000000       0.00000000       0.00000000
H       -1.39505317      -1.34807602      -0.88215075       0.00000000       0.00000000       0.00000000
12
Lattice="20.0 0.0 0.0 0.0 20.0 0.0 0.0 0.0 20.0" Properties=species:S:1:pos:R:3:REF_forces:R:3 REF_energy=-8332.22910338151 pbc="F F F"
C        0.00475177       0.02928852      -0.09748184       0.00000000       0.00000000       0.00000000
O        1.28414898      -0.12777064       0.05684053       0.00000000       0.00000000       0.00000000
O        2.12046060       0.94586919      -0.00662310       0.00000000       0.00000000       0.00000000
C       -0.68910216       1.28848152      -0.02088355       0.00000000       0.00000000       0.00000000
C       -0.14593256       2.52635888       0.01271403       0.00000000       0.00000000       0.00000000
C       -0.74615273      -1.26962535       0.00656706       0.00000000       0.00000000       0.00000000
H       -1.77306176       1.18612261       0.18794271       0.00000000       0.00000000       0.00000000
H        0.92471283       2.66385366      -0.24730760       0.00000000       0.00000000       0.00000000
H       -0.80059723       3.39483996       0.30925895       0.00000000       0.00000000       0.00000000
H       -0.04816233      -2.10926802       0.04191760       0.00000000       0.00000000       0.00000000
H       -1.34825086      -1.27735150       0.92918340       0.00000000       0.00000000       0.00000000
H       -1.43682004      -1.41280285      -0.83736801       0.00000000       0.00000000       0.00000000
12
Lattice="20.0 0.0 0.0 0.0 20.0 0.0 0.0 0.0 20.0" Properties=species:S:1:pos:R:3:REF_forces:R:3 REF_energy=-8331.905984245781 pbc="F F F"
C        0.04246819       0.01635591       0.07252709       0.29132120      -0.31427350      -0.22581519
O        1.33677822      -0.10171147       0.01827056      -0.27445026       0.21873956       0.05054830
O        2.18760945       1.02406527      -0.00158503      -0.36711419      -0.34060997      -0.00465165
C       -0.72250102       1.22498306       0.02044754       0.69598637       0.29753033       0.18551661
C       -0.18237767       2.46200849      -0.13464765      -0.18291582      -0.23850665      -0.17859454
C       -0.83755666      -1.27045792       0.03328582       0.67227905       0.52214491       0.37519988
H       -1.71630179       1.07022628       0.32462342      -0.43668415       0.04464549      -0.03311094
H        0.85861391       2.61870273      -0.36177069       0.05367491      -0.05282515       0.03738579
H       -0.86235854       3.28458711      -0.22293788      -0.08828449       0.17739043       0.07770843
H       -0.26035836      -2.17915380       0.06418468       0.03112284      -0.10915030       0.04591904
H       -1.51278537      -1.12454684       0.85825528      -0.10296561      -0.16249664       0.19323533
H       -1.41834267      -1.19172976      -0.82711490      -0.29196441      -0.04226491      -0.52289158
12
Lattice="20.0 0.0 0.0 0.0 20.0 0.0 0.0 0.0 20.0" Properties=species:S:1:pos:R:3:REF_forces:R:3 REF_energy=-8332.338703844292 pbc="F F F"
C        0.00474548       0.02928138      -0.01913396       0.00000000       0.00000000       0.00000000
O        1.28413693      -0.12778568       0.00095294       0.00000000       0.00000000       0.00000000
O        2.12046911       0.94587770       0.00069900       0.00000000       0.00000000       0.00000000
C       -0.68910951       1.28848725       0.00335178       0.00000000       0.00000000       0.00000000
C       -0.14592890       2.52636081       0.00046864       0.00000000       0.00000000       0.00000000
C       -0.74613367      -1.26962715       0.02113840       0.00000000       0.00000000       0.00000000
H       -1.77307263       1.18616544       0.00502812       0.00000000       0.00000000       0.00000000
H        0.92471007       2.66390195       0.00821387       0.00000000       0.00000000       0.00000000
H       -0.80062790       3.39481665      -0.01587333       0.00000000       0.00000000       0.00000000
H       -0.04818165      -2.10929997      -0.04338967       0.00000000       0.00000000       0.00000000
H       -1.44455457      -1.41299020       0.85846411       0.00000000       0.00000000       0.00000000
H       -1.34050502      -1.27708118      -0.90807547       0.00000000       0.00000000       0.00000000
12
Lattice="20.0 0.0 0.0 0.0 20.0 0.0 0.0 0.0 20.0" Properties=species:S:1:pos:R:3:REF_forces:R:3 REF_energy=-8332.281453968808 pbc="F F F"
C       -0.00315752       0.01877031       0.00002381       0.00000000       0.00000000       0.00000000
O        1.26624829      -0.14832121      -0.00000116       0.00000000       0.00000000       0.00000000
O        2.13330034       0.96235044      -0.00000087       0.00000000       0.00000000       0.00000000
C       -0.69907757       1.29352962      -0.00000379       0.00000000       0.00000000       0.00000000
C       -0.13829865       2.52501133      -0.00000074       0.00000000       0.00000000       0.00000000
C       -0.72266104      -1.27032715      -0.00002637       0.00000000       0.00000000       0.00000000
H       -1.78775699       1.23980848      -0.00000994       0.00000000       0.00000000       0.00000000
H        0.92547993       2.71240144      -0.00001138       0.00000000       0.00000000       0.00000000
H       -0.83243363       3.36486336       0.00002107       0.00000000       0.00000000       0.00000000
H       -0.08594253      -2.15859931       0.00005456       0.00000000       0.00000000       0.00000000
H       -1.38942382      -1.27935657       0.87447230       0.00000000       0.00000000       0.00000000
H       -1.38955391      -1.27952667      -0.87441007       0.00000000       0.00000000       0.00000000
12
Lattice="20.0 0.0 0.0 0.0 20.0 0.0 0.0 0.0 20.0" Properties=species:S:1:pos:R:3:REF_forces:R:3 REF_energy=-8332.397508899106 pbc="F F F"
C        0.00744333       0.02815524      -0.00000003       0.18135237      -0.02534343      -0.00000005
O        1.28511895      -0.12077033       0.00000005      -0.11879818       0.02120885      -0.00000026
O        2.11642277       0.94009954       0.00000001      -0.06024499      -0.02332033       0.00000012
C       -0.69005999       1.28929449      -0.00000025       0.02656671       0.07428646       0.00000241
C       -0.14596914       2.52773684       0.00000023      -0.02565531      -0.09721202      -0.00000310
C       -0.74149373      -1.27297176       0.00000002      -0.12610705      -0.00003309       0.00000017
H       -1.77381438       1.18653792       0.00000089       0.00321904      -0.00061547      -0.00000110
H        0.92507381       2.66243677      -0.00000035       0.00671117      -0.00367210       0.00000041
H       -0.79621249       3.39961243      -0.00000134      -0.00482080      -0.01539109       0.00000151
H       -0.06446690      -2.13633717       0.00000008      -0.01626272       0.07188233       0.00000007
H       -1.39990286      -1.32955810       0.88849578       0.06696760      -0.00330638      -0.07819171
H       -1.39990293      -1.32955842      -0.88849565       0.06696765      -0.00330603       0.07819166
12
Lattice="20.0 0.0 0.0 0.0 20.0 0.0 0.0 0.0 20.0" Properties=species:S:1:pos:R:3:REF_forces:R:3 REF_energy=-8332.261071944497 pbc="F F F"
C        0.00576485       0.03190751      -0.00000000       0.19353020      -0.04929225      -0.00000000
O        1.29307556      -0.08050163       0.00000000      -0.15080614      -0.01348250      -0.00000000
O        2.17958000       0.98263643      -0.00000000      -0.24625204      -0.18725661       0.00000000
C       -0.74861233       1.24341066      -0.00000000       0.15709291       0.20373928       0.00000000
C       -0.12353423       2.43668502      -0.00000000      -0.06401105       0.12356336      -0.00000000
C       -0.79023273      -1.23789954       0.00000000       0.08207143      -0.09624681       0.00000000
H       -1.83165616       1.14226442       0.00000000       0.01509976       0.00701774       0.00000000
H        0.96528429       2.44115455      -0.00000000      -0.05741775       0.03903111       0.00000000
H       -0.68774721       3.37177994       0.00000000       0.01053344      -0.05120901       0.00000000
H       -0.15996716      -2.13294908       0.00000000      -0.00456706       0.03738972      -0.00000000
H       -1.44637199      -1.25717835       0.88136367       0.03256080      -0.00671073      -0.01479302
H       -1.44637199      -1.25717835      -0.88136367       0.03256080      -0.00671073       0.01479302
12
Lattice="20.0 0.0 0.0 0.0 20.0 0.0 0.0 0.0 20.0" Properties=species:S:1:pos:R:3:REF_forces:R:3 REF_energy=-8332.288779930543 pbc="F F F"
C        0.00475213       0.02928922       0.00080500       0.00000000       0.00000000       0.00000000
O        1.28414797      -0.12777107      -0.00254822       0.00000000       0.00000000       0.00000000
O        2.12046018       0.94586622       0.00094507       0.00000000       0.00000000       0.00000000
C       -0.68910060       1.28848384       0.01987735       0.00000000       0.00000000       0.00000000
C       -0.14593611       2.52636300      -0.00256123       0.00000000       0.00000000       0.00000000
C       -0.74614986      -1.26962771       0.00242760       0.00000000       0.00000000       0.00000000
H       -1.77305932       1.18612081      -0.18525989       0.00000000       0.00000000       0.00000000
H        0.92470920       2.66385623      -0.09487584       0.00000000       0.00000000       0.00000000
H       -0.80059924       3.39484460       0.06943827       0.00000000       0.00000000       0.00000000
H       -0.04815779      -2.10926831      -0.00422183       0.00000000       0.00000000       0.00000000
H       -1.39757526      -1.35107032       0.88102501       0.00000000       0.00000000       0.00000000
H       -1.38748935      -1.33909213      -0.88552563       0.00000000       0.00000000       0.00000000
12
Lattice="20.0 0.0 0.0 0.0 20.0 0.0 0.0 0.0 20.0" Properties=species:S:1:pos:R:3:REF_forces:R:3 REF_energy=-8332.390926351878 pbc="F F F"
C        0.01012725       0.02702960      -0.00000005       0.00000000       0.00000000       0.00000000
O        1.28611326      -0.11376646       0.00000009       0.00000000       0.00000000       0.00000000
O        2.11238069       0.93432763       0.00000002       0.00000000       0.00000000       0.00000000
C       -0.69098188       1.29013019      -0.00000050       0.00000000       0.00000000       0.00000000
C       -0.14600478       2.52909879       0.00000046       0.00000000       0.00000000       0.00000000
C       -0.73809339      -1.27717178       0.00000004       0.00000000       0.00000000       0.00000000
H       -1.77508281       1.18687848       0.00000178       0.00000000       0.00000000       0.00000000
H        0.92543202       2.66103498      -0.00000071       0.00000000       0.00000000       0.00000000
H       -0.79180861       3.40435314      -0.00000268       0.00000000       0.00000000       0.00000000
H       -0.08754451      -2.15556389       0.00000017       0.00000000       0.00000000       0.00000000
H       -1.39646831      -1.31292445       0.87833652       0.00000000       0.00000000       0.00000000
H       -1.39646846      -1.31292509      -0.87833628       0.00000000       0.00000000       0.00000000
12
Lattice="20.0 0.0 0.0 0.0 20.0 0.0 0.0 0.0 20.0" Properties=species:S:1:pos:R:3:REF_forces:R:3 REF_energy=-8332.378906568141 pbc="F F F"
C        0.01799100       0.02431096      -0.00000000      -0.19451451       0.10577802       0.00000000
O        1.27824123      -0.12631463       0.00000000       0.14679490       0.07527811      -0.00000000
O        2.12020274       0.94564014      -0.00000000      -0.11306370      -0.10712445       0.00000000
C       -0.69169286       1.29229646       0.00000000       0.08703354      -0.02992041       0.00000000
C       -0.14549631       2.52504893      -0.00000000      -0.03841968      -0.03810256       0.00000000
C       -0.74539027      -1.27064822      -0.00000000      -0.03002098       0.03453670       0.00000000
H       -1.77555538       1.18903105       0.00000000       0.01067660      -0.00721017      -0.00000000
H        0.92449140       2.66655096       0.00000000       0.00654418      -0.01172688      -0.00000000
H       -0.80185087       3.39242854       0.00000000       0.00284001      -0.00374154      -0.00000000
H       -0.02344757      -2.08971457       0.00000000      -0.06346018      -0.03972112       0.00000000
H       -1.42456341      -1.34536239       0.86019098       0.09327683       0.01130592       0.04888776
H       -1.42456341      -1.34536239      -0.86019098       0.09327683       0.01130592      -0.04888776
12
Lattice="20.0 0.0 0.0 0.0 20.0 0.0 0.0 0.0 20.0" Properties=species:S:1:pos:R:3:REF_forces:R:3 REF_energy=-8332.29371349609 pbc="F F F"
C        0.00475106       0.02928882       0.00264421       0.00000000       0.00000000       0.00000000
O        1.28414861      -0.12777159      -0.00002028       0.00000000       0.00000000       0.00000000
O        2.12046048       0.94586659       0.00000959       0.00000000       0.00000000       0.00000000
C       -0.68910123       1.28848442      -0.00058565       0.00000000       0.00000000       0.00000000
C       -0.14593543       2.52636173      -0.00006269       0.00000000       0.00000000       0.00000000
C       -0.74614922      -1.26962724       0.00855377       0.00000000       0.00000000       0.00000000
H       -1.77305974       1.18612236       0.00088521       0.00000000       0.00000000       0.00000000
H        0.92470861       2.66386225      -0.00002843       0.00000000       0.00000000       0.00000000
H       -0.80060203       3.39484048       0.00126717       0.00000000       0.00000000       0.00000000
H       -0.04815233      -2.10926363      -0.11196324       0.00000000       0.00000000       0.00000000
H       -1.41880650      -1.27523424       0.87541832       0.00000000       0.00000000       0.00000000
H       -1.36627007      -1.41492635      -0.89112302       0.00000000       0.00000000       0.00000000
12
Lattice="20.0 0.0 0.0 0.0 20.0 0.0 0.0 0.0 20.0" Properties=species:S:1:pos:R:3:REF_forces:R:3 REF_energy=-8332.382200197138 pbc="F F F"
C        0.00743947       0.02815931      -0.00000884       0.18131806      -0.02706671       0.00196808
O        1.28513072      -0.12076902      -0.00000688      -0.12022946       0.02109806       0.00092038
O        2.11642056       0.94009711      -0.00000320      -0.05997995      -0.02302296       0.00046430
C       -0.69004154       1.28930715       0.00000541       0.02431008       0.07299694      -0.00060510
C       -0.14597012       2.52773035       0.00000179      -0.02554712      -0.09655999      -0.00015701
C       -0.74212165      -1.27339939      -0.00293165      -0.03308015       0.04976385       0.35294630
H       -1.77407150       1.18650155      -0.00003441       0.00579587      -0.00023370       0.00031938
H        0.92507047       2.66244803      -0.00001369       0.00673886      -0.00377125       0.00019143
H       -0.79620570       3.39959670       0.00000303      -0.00489574      -0.01525424      -0.00001559
H       -0.06785019      -2.13241505      -0.00056959       0.01497854       0.03377108       0.00485794
H       -1.40803584      -1.33040013       0.89867056       0.14305093       0.00300032      -0.17339183
H       -1.38096445      -1.32760603      -0.86294155      -0.13264367      -0.01961262      -0.18771392
12
Lattice="20.0 0.0 0.0 0.0 20.0 0.0 0.0 0.0 20.0" Properties=species:S:1:pos:R:3:REF_forces:R:3 REF_energy=-8332.33486785094 pbc="F F F"
C       -0.00436205       0.02104274      -0.00000001       0.00000000       0.00000000       0.00000000
O        1.28916195      -0.12631027       0.00000002       0.00000000       0.00000000       0.00000000
O        2.12047663       0.94507100       0.00000003       0.00000000       0.00000000       0.00000000
C       -0.69162049       1.29614136      -0.00000003       0.00000000       0.00000000       0.00000000
C       -0.13926253       2.53415114      -0.00000004       0.00000000       0.00000000       0.00000000
C       -0.74266481      -1.26604340      -0.00000019       0.00000000       0.00000000       0.00000000
H       -1.77140745       1.13740050      -0.00000041       0.00000000       0.00000000       0.00000000
H        0.93981775       2.61788365       0.00000028       0.00000000       0.00000000       0.00000000
H       -0.85733085       3.35381983       0.00000011       0.00000000       0.00000000       0.00000000
H       -0.04884274      -2.10866204       0.00000211       0.00000000       0.00000000       0.00000000
H       -1.40333671      -1.34705883       0.87309211       0.00000000       0.00000000       0.00000000
H       -1.40333773      -1.34705735      -0.87309174       0.00000000       0.00000000       0.00000000
12
Lattice="20.0 0.0 0.0 0.0 20.0 0.0 0.0 0.0 20.0" Properties=species:S:1:pos:R:3:REF_forces:R:3 REF_energy=-8332.337558958365 pbc="F F F"
C        0.00475136       0.02928886      -0.00060375       0.00000000       0.00000000       0.00000000
O        1.28414833      -0.12777197       0.00191116       0.00000000       0.00000000       0.00000000
O        2.12046064       0.94586686      -0.00070881       0.00000000       0.00000000       0.00000000
C       -0.68910166       1.28848431      -0.01490801       0.00000000       0.00000000       0.00000000
C       -0.14593497       2.52636110       0.00192092       0.00000000       0.00000000       0.00000000
C       -0.74614996      -1.26962647      -0.00182070       0.00000000       0.00000000       0.00000000
H       -1.77306085       1.18612746       0.13894492       0.00000000       0.00000000       0.00000000
H        0.92470872       2.66386472       0.07115688       0.00000000       0.00000000       0.00000000
H       -0.80060547       3.39483702      -0.05207870       0.00000000       0.00000000       0.00000000
H       -0.04815443      -2.10926464       0.00316637       0.00000000       0.00000000       0.00000000
H       -1.38874938      -1.34058970       0.88496374       0.00000000       0.00000000       0.00000000
H       -1.39631381      -1.34957334      -0.88158827       0.00000000       0.00000000       0.00000000
12
Lattice="20.0 0.0 0.0 0.0 20.0 0.0 0.0 0.0 20.0" Properties=species:S:1:pos:R:3:REF_forces:R:3 REF_energy=-8332.136178316716 pbc="F F F"
C        0.01349342       0.03049603       0.00000000      -0.00694818      -0.04956099      -0.00000000
O        1.28282402      -0.12667171      -0.00000000      -0.04267451       0.09987534      -0.00000000
O        2.11882351       0.94452137      -0.00000000      -0.06825877      -0.07033195       0.00000000
C       -0.69301488       1.29588382      -0.00000000       0.10803740      -0.10169329       0.00000000
C       -0.14179588       2.52705339       0.00000000      -0.13612060      -0.09185883       0.00000000
C       -0.76680762      -1.29852854      -0.00000000       0.46843349       0.63265410      -0.00000000
H       -1.77472052       1.16186236      -0.00000000       0.01133628       0.05256282      -0.00000000
H        0.93154600       2.64717429      -0.00000000      -0.00734849       0.02955826      -0.00000000
H       -0.83173892       3.36852495      -0.00000000       0.06952013       0.04334914      -0.00000000
H        0.05884635      -2.03109267      -0.00000000      -0.27206678      -0.10423792      -0.00000000
H       -1.33990102      -1.23178835       0.94452231      -0.06112350      -0.22002474      -0.18738126
H       -1.33990102      -1.23178835      -0.94452231      -0.06112350      -0.22002474       0.18738126
12
Lattice="20.0 0.0 0.0 0.0 20.0 0.0 0.0 0.0 20.0" Properties=species:S:1:pos:R:3:REF_forces:R:3 REF_energy=-8331.854850037402 pbc="F F F"
C        0.00493458       0.04036033      -0.00000000       0.22225519      -0.28903295       0.00000000
O        1.28932592      -0.12854684       0.00000000      -0.25879144       0.14885160       0.00000000
O        2.11800472       0.94466358       0.00000000      -0.05633312      -0.07723357      -0.00000000
C       -0.65443580       1.30968607       0.00000000      -1.03574958      -0.59467781      -0.00000000
C       -0.17738800       2.50525758      -0.00000000       0.88629952       0.63314550      -0.00000000
C       -0.74554365      -1.27614406       0.00000000      -0.01956350       0.14753521      -0.00000000
H       -1.75596868       1.43612574       0.00000000       0.07630061      -0.51734573       0.00000000
H        0.91543248       2.46073809       0.00000000      -0.02412280       0.39493290       0.00000000
H       -0.88014024       3.32976640       0.00000000       0.14942988       0.11451801       0.00000000
H       -0.05039946      -2.11835270      -0.00000000       0.00275289       0.02473029       0.00000000
H       -1.40099706      -1.34345665       0.87743197       0.02896684       0.00756275       0.00394379
H       -1.40099706      -1.34345665      -0.87743197       0.02896683       0.00756275      -0.00394379
12
Lattice="20.0 0.0 0.0 0.0 20.0 0.0 0.0 0.0 20.0" Properties=species:S:1:pos:R:3:REF_forces:R:3 REF_energy=-8332.068001403213 pbc="F F F"
C        0.00559960       0.03310218       0.01879173       0.45040753      -0.25473724      -0.10630736
O        1.29920435      -0.12452146       0.00345897      -0.27676506       0.22940773       0.01391806
O        2.13659258       0.96469428      -0.00028766      -0.19560873      -0.20368723      -0.00135672
C       -0.68944595       1.28581160      -0.00102662      -0.56820494      -0.38106061       0.17356181
C       -0.15105978       2.49980997      -0.02459561      -0.29280335       0.60663936      -0.10483750
C       -0.76550530      -1.28097920       0.01176581      -0.10711597       0.22800330      -0.40771189
H       -1.82395214       1.10858137       0.09760154       0.48844407       0.18383069      -0.09632715
H        0.90466720       2.67414552      -0.08257823       0.09286636      -0.04072638       0.00843873
H       -0.83662707       3.39929043      -0.06433211       0.22302503      -0.30291101       0.05175851
H       -0.04084356      -2.13520463      -0.00968345      -0.25657208       0.16832828       0.06196722
H       -1.43784341      -1.22619830       0.88826960       0.07674693      -0.18120827      -0.06420572
H       -1.45691272      -1.28752634      -0.93841808       0.36515439      -0.05139074       0.47030812
12
Lattice="20.0 0.0 0.0 0.0 20.0 0.0 0.0 0.0 20.0" Properties=species:S:1:pos:R:3:REF_forces:R:3 REF_energy=-8332.312231099791 pbc="F F F"
C       -0.00331165       0.03267813       0.00000008       0.00000000       0.00000000       0.00000000
O        1.28120056      -0.14877927      -0.00000014       0.00000000       0.00000000       0.00000000
O        2.13258008       0.96317502      -0.00000004       0.00000000       0.00000000       0.00000000
C       -0.68628019       1.28601499       0.00000075       0.00000000       0.00000000       0.00000000
C       -0.14583149       2.52225660      -0.00000069       0.00000000       0.00000000       0.00000000
C       -0.75823471      -1.25830982      -0.00000006       0.00000000       0.00000000       0.00000000
H       -1.77002625       1.18499380      -0.00000267       0.00000000       0.00000000       0.00000000
H        0.92362428       2.66810024       0.00000106       0.00000000       0.00000000       0.00000000
H       -0.81379408       3.38057096       0.00000402       0.00000000       0.00000000       0.00000000
H        0.01092708      -2.03981969      -0.00000025       0.00000000       0.00000000       0.00000000
H       -1.38662729      -1.39331681       0.89068449       0.00000000       0.00000000       0.00000000
H       -1.38662706      -1.39331585      -0.89068486       0.00000000       0.00000000       0.00000000
12
Lattice="20.0 0.0 0.0 0.0 20.0 0.0 0.0 0.0 20.0" Properties=species:S:1:pos:R:3:REF_forces:R:3 REF_energy=-8332.334074390661 pbc="F F F"
C       -0.00442929       0.00018903       0.00000018       0.00000000       0.00000000       0.00000000
O        1.29008725      -0.12170947       0.00000006       0.00000000       0.00000000       0.00000000
O        2.12090871       0.94393908       0.00000008       0.00000000       0.00000000       0.00000000
C       -0.69055357       1.28486817      -0.00000017       0.00000000       0.00000000       0.00000000
C       -0.14906727       2.53260033      -0.00000016       0.00000000       0.00000000       0.00000000
C       -0.74530668      -1.25882632      -0.00000023       0.00000000       0.00000000       0.00000000
H       -1.78002309       1.22981549      -0.00000133       0.00000000       0.00000000       0.00000000
H        0.92228825       2.66664531       0.00000061       0.00000000       0.00000000       0.00000000
H       -0.77731838       3.42199382       0.00000063       0.00000000       0.00000000       0.00000000
H       -0.02507335      -2.07975054       0.00000150       0.00000000       0.00000000       0.00000000
H       -1.38472466      -1.33606120       0.88780534       0.00000000       0.00000000       0.00000000
H       -1.38472613      -1.33606330      -0.88780446       0.00000000       0.00000000       0.00000000
12
Lattice="20.0 0.0 0.0 0.0 20.0 0.0 0.0 0.0 20.0" Properties=species:S:1:pos:R:3:REF_forces:R:3 REF_energy=-8332.339449104731 pbc="F F F"
C        0.00475122       0.02928887       0.00198316       0.00000000       0.00000000       0.00000000
O        1.28414850      -0.12777159      -0.00001521       0.00000000       0.00000000       0.00000000
O        2.12046047       0.94586659       0.00000719       0.00000000       0.00000000       0.00000000
C       -0.68910122       1.28848434      -0.00043924       0.00000000       0.00000000       0.00000000
C       -0.14593544       2.52636177      -0.00004701       0.00000000       0.00000000       0.00000000
C       -0.74614940      -1.26962718       0.00641533       0.00000000       0.00000000       0.00000000
H       -1.77305985       1.18612292       0.00066391       0.00000000       0.00000000       0.00000000
H        0.92470869       2.66386196      -0.00002132       0.00000000       0.00000000       0.00000000
H       -0.80060222       3.39484043       0.00095038       0.00000000       0.00000000       0.00000000
H       -0.04815322      -2.10926428      -0.08397243       0.00000000       0.00000000       0.00000000
H       -1.41223785      -1.29269602       0.87738267       0.00000000       0.00000000       0.00000000
H       -1.37283553      -1.39746511      -0.88916119       0.00000000       0.00000000       0.00000000
12
Lattice="20.0 0.0 0.0 0.0 20.0 0.0 0.0 0.0 20.0" Properties=species:S:1:pos:R:3:REF_forces:R:3 REF_energy=-8331.794557349567 pbc="F F F"
C        0.00475169       0.02928901       0.00179999       0.22534207      -0.03243685      -0.01693340
O        1.28414818      -0.12777159      -0.00569798      -0.09194912       0.11685233       0.08851580
O        2.12046044       0.94586659       0.00211325      -0.13020208      -0.10611185      -0.03475034
C       -0.68910120       1.28848411       0.04444713      -0.51877184      -0.06022863      -0.72544177
C       -0.14593546       2.52636191      -0.00572712       0.11528694       0.07357377       0.05905965
C       -0.74614992      -1.26962700       0.00542833      -0.00438082       0.00336579      -0.07079391
H       -1.77306019       1.18612461      -0.41425370       0.46057342       0.05607547       0.61372349
H        0.92470893       2.66386108      -0.21214860      -0.13490192      -0.01180370       0.24108061
H       -0.80060280       3.39484027       0.15526879       0.05516987      -0.07173465      -0.17691752
H       -0.04815587      -2.10926621      -0.00944041      -0.00084777       0.00845264       0.01056065
H       -1.40380840      -1.35847355       0.87824381       0.02435196       0.02710447      -0.00362233
H       -1.38125540      -1.33168924      -0.88830761       0.00084605      -0.00303762       0.01557068
12
Lattice="20.0 0.0 0.0 0.0 20.0 0.0 0.0 0.0 20.0" Properties=species:S:1:pos:R:3:REF_forces:R:3 REF_energy=-8332.401468139838 pbc="F F F"
C        0.00744075       0.02815795      -0.00000003       0.18153806      -0.02635697      -0.00000005
O        1.28512679      -0.12076946       0.00000005      -0.11984019       0.02113570      -0.00000026
O        2.11642130       0.94009792       0.00000001      -0.06001949      -0.02306753       0.00000012
C       -0.69004769       1.28930293      -0.00000025       0.02508512       0.07342365       0.00000242
C       -0.14596979       2.52773251       0.00000023      -0.02558900      -0.09677035      -0.00000310
C       -0.74191235      -1.27325685       0.00000002      -0.07872450       0.03178289       0.00000017
H       -1.77398579       1.18651367       0.00000089       0.00492762      -0.00035662      -0.00000110
H        0.92507159       2.66244428      -0.00000035       0.00673278      -0.00374596       0.00000041
H       -0.79620797       3.39960194      -0.00000134      -0.00487258      -0.01529812       0.00000151
H       -0.06672243      -2.13372242       0.00000008       0.00457762       0.04652182       0.00000008
H       -1.39630102      -1.32918798       0.88336934       0.03303391      -0.00607490      -0.03038310
H       -1.39630110      -1.32918830      -0.88336921       0.03303396      -0.00607456       0.03038304
12
Lattice="20.0 0.0 0.0 0.0 20.0 0.0 0.0 0.0 20.0" Properties=species:S:1:pos:R:3:REF_forces:R:3 REF_energy=-8332.395715144521 pbc="F F F"
C        0.00743947       0.02815931      -0.00000506       0.18152196      -0.02693129       0.00112777
O        1.28513072      -0.12076902      -0.00000391      -0.12031610       0.02109794       0.00052522
O        2.11642056       0.94009711      -0.00000183      -0.05993212      -0.02296938       0.00026534
C       -0.69004154       1.28930715       0.00000298       0.02433266       0.07299360      -0.00034479
C       -0.14597012       2.52773035       0.00000112      -0.02555292      -0.09655361      -0.00009112
C       -0.74212165      -1.27339939      -0.00167522      -0.04732611       0.04852283       0.20121499
H       -1.77407150       1.18650155      -0.00001928       0.00578666      -0.00022962       0.00018206
H        0.92507047       2.66244803      -0.00000798       0.00674203      -0.00377888       0.00010974
H       -0.79620570       3.39959670       0.00000116      -0.00489761      -0.01525245      -0.00000838
H       -0.06785019      -2.13241505      -0.00032545       0.01508759       0.03370328       0.00277906
H       -1.40223481      -1.32980133       0.89101437       0.09079062      -0.00130570      -0.10452864
H       -1.38676547      -1.32820483      -0.87059774      -0.06638922      -0.01420072      -0.10137427
12
Lattice="20.0 0.0 0.0 0.0 20.0 0.0 0.0 0.0 20.0" Properties=species:S:1:pos:R:3:REF_forces:R:3 REF_energy=-8332.258697595296 pbc="F F F"
C       -0.00599942       0.03380783       0.00000010       0.00000000       0.00000000       0.00000000
O        1.28021802      -0.15578184      -0.00000018       0.00000000       0.00000000       0.00000000
O        2.13661996       0.96894450      -0.00000005       0.00000000       0.00000000       0.00000000
C       -0.68533985       1.28519195       0.00000101       0.00000000       0.00000000       0.00000000
C       -0.14579683       2.52088817      -0.00000092       0.00000000       0.00000000       0.00000000
C       -0.76226297      -1.25453743      -0.00000008       0.00000000       0.00000000       0.00000000
H       -1.76901494       1.18461687      -0.00000355       0.00000000       0.00000000       0.00000000
H        0.92326273       2.66951329       0.00000141       0.00000000       0.00000000       0.00000000
H       -0.81819117       3.37581452       0.00000535       0.00000000       0.00000000       0.00000000
H        0.03062140      -2.01667085      -0.00000034       0.00000000       0.00000000       0.00000000
H       -1.38465908      -1.40939528       0.89315408       0.00000000       0.00000000       0.00000000
H       -1.38465878      -1.40939401      -0.89315457       0.00000000       0.00000000       0.00000000
12
Lattice="20.0 0.0 0.0 0.0 20.0 0.0 0.0 0.0 20.0" Properties=species:S:1:pos:R:3:REF_forces:R:3 REF_energy=-8332.331108459817 pbc="F F F"
C       -0.02734811       0.01984144       0.00000253       0.00000000       0.00000000       0.00000000
O        1.25663599      -0.10975491       0.00000233       0.00000000       0.00000000       0.00000000
O        2.05596153       0.99030618      -0.00000267       0.00000000       0.00000000       0.00000000
C       -0.68121757       1.29662885       0.00000035       0.00000000       0.00000000       0.00000000
C       -0.05226024       2.50242734       0.00000125       0.00000000       0.00000000       0.00000000
C       -0.72469938      -1.31279814      -0.00000263       0.00000000       0.00000000       0.00000000
H       -1.77066456       1.25611929      -0.00000319       0.00000000       0.00000000       0.00000000
H        1.02444140       2.56813104       0.00000544       0.00000000       0.00000000       0.00000000
H       -0.65391374       3.41151751      -0.00000142       0.00000000       0.00000000       0.00000000
H        0.02456988      -2.11033928      -0.00000606       0.00000000       0.00000000       0.00000000
H       -1.36471627      -1.42811171       0.88420087       0.00000000       0.00000000       0.00000000
H       -1.36471486      -1.42810371      -0.88420798       0.00000000       0.00000000       0.00000000
12
Lattice="20.0 0.0 0.0 0.0 20.0 0.0 0.0 0.0 20.0" Properties=species:S:1:pos:R:3:REF_forces:R:3 REF_energy=-8332.391645030903 pbc="F F F"
C        0.00475153       0.02928896       0.00066105       0.00000000       0.00000000       0.00000000
O        1.28414829      -0.12777159      -0.00000507       0.00000000       0.00000000       0.00000000
O        2.12046045       0.94586659       0.00000240       0.00000000       0.00000000       0.00000000
C       -0.68910121       1.28848419      -0.00014641       0.00000000       0.00000000       0.00000000
C       -0.14593545       2.52636187      -0.00001567       0.00000000       0.00000000       0.00000000
C       -0.74614974      -1.26962706       0.00213844       0.00000000       0.00000000       0.00000000
H       -1.77306008       1.18612405       0.00022130       0.00000000       0.00000000       0.00000000
H        0.92470885       2.66386138      -0.00000711       0.00000000       0.00000000       0.00000000
H       -0.80060261       3.39484032       0.00031679       0.00000000       0.00000000       0.00000000
H       -0.04815498      -2.10926557      -0.02799081       0.00000000       0.00000000       0.00000000
H       -1.39910055      -1.32761960       0.88131136       0.00000000       0.00000000       0.00000000
H       -1.38596644      -1.36254263      -0.88523754       0.00000000       0.00000000       0.00000000
12
Lattice="20.0 0.0 0.0 0.0 20.0 0.0 0.0 0.0 20.0" Properties=species:S:1:pos:R:3:REF_forces:R:3 REF_energy=-8331.812531969937 pbc="F F F"
C        0.00475169       0.02928901       0.11007814       0.24867253       0.00635847      -0.73827195
O        1.28414818      -0.12777159      -0.04728237      -0.15062373       0.13006444       0.42618031
O        2.12046044       0.94586659       0.01918163      -0.12115535      -0.10879026      -0.15976391
C       -0.68910120       1.28848411      -0.10793937      -0.18319820      -0.00680682       0.73132887
C       -0.14593546       2.52636191       0.00889986      -0.04708298       0.18292184      -0.00320627
C       -0.74614992      -1.26962700       0.01880187      -0.10458199      -0.03816444      -0.12251211
H       -1.77306019       1.18612461       0.12299951       0.17857918       0.02558679      -0.10795553
H        0.92470893       2.66386108      -0.19926800      -0.16391275       0.00976326       0.14151760
H       -0.80060280       3.39484027       0.33194849       0.22358096      -0.27536564      -0.27130224
H       -0.04815587      -2.10926621      -0.06579617      -0.00918832       0.03536093       0.03868491
H       -1.46769017      -1.47952717       0.83355949       0.11136213       0.10377428      -0.06623808
H       -1.31737363      -1.21063561      -0.93299193       0.01781889      -0.06443796       0.13116874
12
Lattice="20.0 0.0 0.0 0.0 20.0 0.0 0.0 0.0 20.0" Properties=species:S:1:pos:R:3:REF_forces:R:3 REF_energy=-8332.355932594006 pbc="F F F"
C       -0.00257687       0.01901815       0.00000015       0.00000000       0.00000000       0.00000000
O        1.28248478      -0.11545379       0.00000001       0.00000000       0.00000000       0.00000000
O        2.14012756       0.95348406       0.00000018       0.00000000       0.00000000       0.00000000
C       -0.68104371       1.29324535      -0.00000066       0.00000000       0.00000000       0.00000000
C       -0.14504281       2.53764104       0.00000007       0.00000000       0.00000000       0.00000000
C       -0.76579295      -1.29896259       0.00000005       0.00000000       0.00000000       0.00000000
H       -1.76646254       1.20364966       0.00000025       0.00000000       0.00000000       0.00000000
H        0.92271202       2.69953735       0.00000029       0.00000000       0.00000000       0.00000000
H       -0.81586405       3.39438980       0.00000100       0.00000000       0.00000000       0.00000000
H       -0.06987434      -2.14074977      -0.00000016       0.00000000       0.00000000       0.00000000
H       -1.41185325      -1.37352000       0.88356827       0.00000000       0.00000000       0.00000000
H       -1.41185348      -1.37351953      -0.88356801       0.00000000       0.00000000       0.00000000
12
Lattice="20.0 0.0 0.0 0.0 20.0 0.0 0.0 0.0 20.0" Properties=species:S:1:pos:R:3:REF_forces:R:3 REF_energy=-8331.774936972188 pbc="F F F"
C        0.09624121       0.03568083       0.15240237       0.32817242      -0.60618010       0.07284074
O        1.38230072      -0.08489025       0.09502025      -0.31646946       0.19195066      -0.06692012
O        2.15453861       1.06793613      -0.01423509      -0.18762058      -0.23762946       0.01758681
C       -0.65409857       1.22008118       0.18475976      -0.14802186       0.64155624      -0.37816843
C       -0.31931301       2.32425624      -0.54878457      -0.54726489       0.06408590       0.45145824
C       -0.81567192      -1.21837692       0.15144359       0.87266515       0.36443409       0.15008263
H       -1.66825782       1.07625521       0.59625140       0.13303484       0.13297801      -0.07274014
H        0.64550697       2.44467656      -0.98206635       0.16837781      -0.01587739      -0.08490847
H       -1.07738286       3.15220706      -0.62613785       0.25152090      -0.23263809      -0.01363280
H       -0.24631507      -2.12873415       0.29645412      -0.03756830      -0.08312191       0.01758026
H       -1.51085933      -0.99243605       0.90890465      -0.29495444      -0.12034278       0.36794019
H       -1.33858292      -1.18580239      -0.75576760      -0.22275557      -0.09848062      -0.46180509
12
Lattice="20.0 0.0 0.0 0.0 20.0 0.0 0.0 0.0 20.0" Properties=species:S:1:pos:R:3:REF_forces:R:3 REF_energy=-8331.876304345336 pbc="F F F"
C        0.00630624       0.04290771       0.00000000       0.09002726      -0.25985024       0.00000000
O        1.33947735      -0.12397800      -0.00000000      -1.13368985      -0.04333893      -0.00000000
O        2.10470926       0.93016901      -0.00000000       0.25586845       0.28819105       0.00000000
C       -0.74527707       1.30526169      -0.00000000       0.74891268      -0.15490136      -0.00000000
C       -0.11316709       2.49894792       0.00000000      -0.42921009       0.41468053       0.00000000
C       -0.76166326      -1.27008568      -0.00000000       0.21023135      -0.00567767      -0.00000000
H       -1.84300616       1.35302373      -0.00000000       0.14996217      -0.21897680       0.00000000
H        0.92403687       2.85925486      -0.00000000      -0.15304483      -0.27203769       0.00000000
H       -0.90442339       3.26699240      -0.00000000       0.22073265       0.12460035       0.00000000
H       -0.04032737      -2.09266997       0.00000000      -0.01384758      -0.01177606       0.00000000
H       -1.40070139      -1.39116231       0.88568690       0.02680645       0.06975814      -0.01413186
H       -1.40070139      -1.39116231      -0.88568690       0.02680645       0.06975814       0.01413186
12
Lattice="20.0 0.0 0.0 0.0 20.0 0.0 0.0 0.0 20.0" Properties=species:S:1:pos:R:3:REF_forces:R:3 REF_energy=-8331.880286500686 pbc="F F F"
C        0.00456880       0.01821770       0.00000000       0.22494324       0.21582508       0.00000000
O        1.27897043      -0.12699633      -0.00000000       0.05125140       0.10784335       0.00000000
O        2.12291616       0.94706959      -0.00000000      -0.20163270      -0.14856081       0.00000000
C       -0.72376661       1.26728215      -0.00000000       0.54259317       0.36964263      -0.00000000
C       -0.11448292       2.54746624       0.00000000      -0.52365118      -0.35888545       0.00000000
C       -0.74675618      -1.26310993      -0.00000000       0.00983318      -0.15132884      -0.00000000
H       -1.79015170       0.93612348      -0.00000000       0.13603864       0.48071947      -0.00000000
H        0.93398537       2.86698408      -0.00000000      -0.06674905      -0.39013650      -0.00000000
H       -0.72106535       3.45991414      -0.00000000      -0.16078817      -0.14053966      -0.00000000
H       -0.04591228      -2.10017973       0.00000000      -0.00651190      -0.00901933       0.00000000
H       -1.38406674      -1.34670613       0.88911944      -0.00253219       0.01259650      -0.01752179
H       -1.38406674      -1.34670613      -0.88911944      -0.00253219       0.01259650       0.01752179
12
Lattice="20.0 0.0 0.0 0.0 20.0 0.0 0.0 0.0 20.0" Properties=species:S:1:pos:R:3:REF_forces:R:3 REF_energy=-8332.329141259419 pbc="F F F"
C       -0.00118022       0.02139998       0.00001786       0.00000000       0.00000000       0.00000000
O        1.27072326      -0.14318380      -0.00000087       0.00000000       0.00000000       0.00000000
O        2.13009037       0.95822948      -0.00000065       0.00000000       0.00000000       0.00000000
C       -0.69658348       1.29226824      -0.00000284       0.00000000       0.00000000       0.00000000
C       -0.14020785       2.52534897      -0.00000055       0.00000000       0.00000000       0.00000000
C       -0.72853326      -1.27015211      -0.00001978       0.00000000       0.00000000       0.00000000
H       -1.78408279       1.22638751      -0.00000745       0.00000000       0.00000000       0.00000000
H        0.92528718       2.70026635      -0.00000854       0.00000000       0.00000000       0.00000000
H       -0.82447592       3.37235758       0.00001580       0.00000000       0.00000000       0.00000000
H       -0.07649586      -2.14626603       0.00004092       0.00000000       0.00000000       0.00000000
H       -1.39020084      -1.29578777       0.87667316       0.00000000       0.00000000       0.00000000
H       -1.39029840      -1.29591535      -0.87662648       0.00000000       0.00000000       0.00000000
12
Lattice="20.0 0.0 0.0 0.0 20.0 0.0 0.0 0.0 20.0" Properties=species:S:1:pos:R:3:REF_forces:R:3 REF_energy=-8332.347914364193 pbc="F F F"
C        0.00744909       0.02818691      -0.00000003       0.18006952      -0.03089287      -0.00000008
O        1.28511103      -0.12076609       0.00000005      -0.11650534       0.02098013      -0.00000024
O        2.11648666       0.94006779       0.00000001      -0.07185243      -0.01815392       0.00000011
C       -0.68988661       1.28919087      -0.00000025       0.00520273       0.09023602       0.00000245
C       -0.14155064       2.52726686       0.00000023      -0.70295329      -0.05092346      -0.00000305
C       -0.74211757      -1.27339829       0.00000002      -0.05465843       0.04782251       0.00000018
H       -1.77649644       1.18614548       0.00000089       0.03331777       0.00397654      -0.00000111
H        0.88280380       2.65614045      -0.00000035       0.56821600       0.07770291       0.00000013
H       -0.80689202       3.41323511      -0.00000134       0.11286736      -0.16440224       0.00000174
H       -0.06785185      -2.13240726       0.00000008       0.01526081       0.03368677       0.00000007
H       -1.39451554      -1.32900148       0.88082245       0.01575455      -0.00761623      -0.00596547
H       -1.39451562      -1.32900180      -0.88082232       0.01575460      -0.00761590       0.00596541
12
Lattice="20.0 0.0 0.0 0.0 20.0 0.0 0.0 0.0 20.0" Properties=species:S:1:pos:R:3:REF_forces:R:3 REF_energy=-8332.371517322043 pbc="F F F"
C        0.00475191       0.02928911       0.00040250       0.00000000       0.00000000       0.00000000
O        1.28414808      -0.12777133      -0.00127411       0.00000000       0.00000000       0.00000000
O        2.12046031       0.94586640       0.00047254       0.00000000       0.00000000       0.00000000
C       -0.68910090       1.28848398       0.00993867       0.00000000       0.00000000       0.00000000
C       -0.14593578       2.52636246      -0.00128061       0.00000000       0.00000000       0.00000000
C       -0.74614989      -1.26962736       0.00121380       0.00000000       0.00000000       0.00000000
H       -1.77305975       1.18612271      -0.09262995       0.00000000       0.00000000       0.00000000
H        0.92470906       2.66385866      -0.04743792       0.00000000       0.00000000       0.00000000
H       -0.80060102       3.39484244       0.03471914       0.00000000       0.00000000       0.00000000
H       -0.04815683      -2.10926726      -0.00211092       0.00000000       0.00000000       0.00000000
H       -1.39505358      -1.34807585       0.88215036       0.00000000       0.00000000       0.00000000
H       -1.39001063      -1.34208676      -0.88440067       0.00000000       0.00000000       0.00000000
