12
Frame=0  time=0.500fs  energy=-306.20892053Ha  molecule=COOCCCHHHHHH
C       0.0598643134      0.3445046511     -0.0006579128
O       1.3436955538      0.3059078853      0.0020034898
O       1.9776005526     -0.8785088625     -0.0014299646
C      -0.7038116261     -0.8709020170      0.0000719522
C      -2.0532939928     -0.8760795372     -0.0006475296
C      -0.5114293678      1.7258875835      0.0052209414
H      -0.1295314723     -1.7826952937      0.0062289354
H      -2.6744408046      0.0099580278      0.0027339152
H      -2.5845013791     -1.8170611405     -0.0322588799
H       0.3039741667      2.4513876266     -0.0220113494
H      -1.1467095607      1.8615838395      0.8822076460
H      -1.1388634274      1.8616743192     -0.8935198136
12
Frame=1  time=1.000fs  energy=-306.20685360Ha  molecule=COOCCCHHHHHH
C       0.0545311445      0.3413304244     -0.0012384421
O       1.3474692851      0.3081433570      0.0039894448
O       1.9784385546     -0.8777020370     -0.0028564800
C      -0.6961049623     -0.8693698800      0.0001701841
C      -2.0560171171     -0.8721691196     -0.0013653554
C      -0.5146064661      1.7258283119      0.0100562789
H      -0.1354700437     -1.7852196143      0.0120686246
H      -2.7053527445     -0.0087357304      0.0054119893
H      -2.5692421992     -1.8202901514     -0.0638194123
H       0.3091096158      2.4422002549     -0.0428082122
H      -1.1584929383      1.8416064485      0.8805608981
H      -1.1418002240      1.8406719209     -0.9002320103
12
Frame=2  time=1.500fs  energy=-306.20442301Ha  molecule=COOCCCHHHHHH
C       0.0501229788      0.3384927297     -0.0016775180
O       1.3508187681      0.3103180953      0.0059451239
O       1.9792779461     -0.8768521147     -0.0042773194
C      -0.6896531206     -0.8677266192      0.0003150172
C      -2.0579263354     -0.8685921788     -0.0022127782
C      -0.5178764298      1.7253687807      0.0142498585
H      -0.1393966164     -1.7895859445      0.0172025328
H      -2.7351889865     -0.0240131100      0.0079919457
H      -2.5553687184     -1.8256682900     -0.0941304149
H       0.3128260519      2.4338470054     -0.0614337609
H      -1.1700678048      1.8242874747      0.8803033770
H      -1.1431784423      1.8204407343     -0.9036090760
12
Frame=3  time=2.000fs  energy=-306.20225713Ha  molecule=COOCCCHHHHHH
C       0.0468618656      0.3360775701     -0.0019332936
O       1.3536428055      0.3124141006      0.0078626693
O       1.9801202918     -0.8759477624     -0.0056905900
C      -0.6846956032     -0.8660098842      0.0005174925
C      -2.0589189660     -0.8654329024     -0.0032279505
C      -0.5212403860      1.7244031936      0.0177279554
H      -0.1413130566     -1.7954487581      0.0214329128
H      -2.7631909429     -0.0357011835      0.0104495463
H      -2.5428783931     -1.8330968052     -0.1228436458
H       0.3147942482      2.4265909806     -0.0773328305
H      -1.1811150412      1.8102078891      0.8814711617
H      -1.1431679558      1.8013130167     -0.9035708867
12
Frame=4  time=2.500fs  energy=-306.20053983Ha  molecule=COOCCCHHHHHH
C       0.0448033686      0.3341136113     -0.0019850313
O       1.3559151263      0.3144231641      0.0097386902
O       1.9809674058     -0.8749851935     -0.0070950622
C      -0.6812313399     -0.8642917190      0.0007805970
C      -2.0590626775     -0.8627224061     -0.0044284949
C      -0.5246760266      1.7228942295      0.0205528176
H      -0.1417060374     -1.8019412030      0.0246754953
H      -2.7886412559     -0.0443986962      0.0127765118
H      -2.5314478023     -1.8419109612     -0.1498021040
H       0.3149412230      2.4205639443     -0.0903222096
H      -1.1912673093      1.7994553711      0.8837482798
H      -1.1423633681      1.7835391087     -0.9008293163
12
Frame=5  time=3.000fs  energy=-306.19927687Ha  molecule=COOCCCHHHHHH
C       0.0439992534      0.3326150619     -0.0018259398
O       1.3576529192      0.3163469871      0.0115726378
O       1.9818166244     -0.8739561608     -0.0084901135
C      -0.6795817240     -0.8627266905      0.0011023612
C      -2.0580835865     -0.8604413367     -0.0058183977
C      -0.5281719911      1.7208478239      0.0228444719
H      -0.1409836106     -1.8077490322      0.0269206101
H      -2.8113885479     -0.0515080714      0.0149741582
H      -2.5209752264     -1.8508054633     -0.1749737768
H       0.3133926033      2.4157314684     -0.1004578956
H      -1.2002179607      1.7918658961      0.8867064638
H      -1.1414586390      1.7673136461     -0.8963651678
12
Frame=6  time=3.500fs  energy=-306.19848599Ha  molecule=COOCCCHHHHHH
C       0.0448388339      0.3315775089     -0.0014551802
O       1.3586828053      0.3181813586      0.0133650960
O       1.9826604968     -0.8728475965     -0.0098754689
C      -0.6799342398     -0.8614597984      0.0014787924
C      -2.0559186401     -0.8585672887     -0.0073957280
C      -0.5317317142      1.7183258945      0.0247255025
H      -0.1392854135     -1.8117038242      0.0281908030
H      -2.8311269859     -0.0579929430      0.0170472913
H      -2.5110915795     -1.8589153872     -0.1983794038
H       0.3107008582      2.4116187432     -0.1078988165
H      -1.2082231440      1.7872627936      0.8896197799
H      -1.1415305827      1.7528534444     -0.8907600131
12
Frame=7  time=4.000fs  energy=-306.19805970Ha  molecule=COOCCCHHHHHH
C       0.0473039991      0.3310894034     -0.0009000957
O       1.3588995945      0.3198966911      0.0151167546
O       1.9835136191     -0.8716716086     -0.0112507639
C      -0.6813579423     -0.8604782337      0.0019111800
C      -2.0535672317     -0.8571057331     -0.0091582906
C      -0.5353417699      1.7152130193      0.0262066962
H      -0.1371958640     -1.8139224670      0.0285086888
H      -2.8465371516     -0.0630860568      0.0189837800
H      -2.5004632079     -1.8669684821     -0.2200392571
H       0.3064447305      2.4086661212     -0.1116265021
H      -1.2142562827      1.7864315203      0.8925036578
H      -1.1429436863      1.7399058617     -0.8848989314
12
Frame=8  time=4.500fs  energy=-306.19792045Ha  molecule=COOCCCHHHHHH
C       0.0506520544      0.3311417992     -0.0001373620
O       1.3586713983      0.3215120626      0.0168264921
O       1.9843926597     -0.8704535850     -0.0126155253
C      -0.6836535111     -0.8597343308      0.0023934436
C      -2.0510166277     -0.8560613878     -0.0111088837
C      -0.5388408862      1.7113281189      0.0274122040
H      -0.1355103755     -1.8143084374      0.0278743371
H      -2.8577225925     -0.0674708076      0.0207930160
H      -2.4893219112     -1.8742720601     -0.2399208820
H       0.2997581116      2.4078692194     -0.1124298218
H      -1.2181473556      1.7892012554      0.8950542285
H      -1.1455771710      1.7293930792     -0.8793723789
12
Frame=9  time=5.000fs  energy=-306.19799049Ha  molecule=COOCCCHHHHHH
C       0.0547209448      0.3314135392      0.0008609972
O       1.3580974828      0.3230719918      0.0184916708
O       1.9852822638     -0.8692002647     -0.0139688487
C      -0.6866348657     -0.8590761802      0.0029207007
C      -2.0483328003     -0.8554849235     -0.0132553496
C      -0.5422615094      1.7070225264      0.0284359036
H      -0.1345571098     -1.8125799147      0.0262631324
H      -2.8645883590     -0.0715156818      0.0224790468
H      -2.4779865092     -1.8803357010     -0.2579373816
H       0.2915311163      2.4085873247     -0.1109654801
H      -1.2202836769      1.7941278598      0.8970893760
H      -1.1498272231      1.7208305329     -0.8746807802
12
Frame=10  time=5.500fs  energy=-306.19827293Ha  molecule=COOCCCHHHHHH
C       0.0594296906      0.3320298938      0.0021162950
O       1.3572114944      0.3245399061      0.0201082811
O       1.9861878689     -0.8679037290     -0.0153093260
C      -0.6901535768     -0.8585492933      0.0034907936
C      -2.0456242719     -0.8553902617     -0.0156100134
C      -0.5456088525      1.7023264617      0.0293091364
H      -0.1345587205     -1.8087804131      0.0236295502
H      -2.8670930538     -0.0754011082      0.0240344464
H      -2.4665939331     -1.8849178310     -0.2739515118
H       0.2819994067      2.4106206151     -0.1073152784
H      -1.2205276319      1.8008066673      0.8985863429
H      -1.1558177538      1.7141152393     -0.8712174421
12
Frame=11  time=6.000fs  energy=-306.19875455Ha  molecule=COOCCCHHHHHH
C       0.0646832304      0.3329783550      0.0036576994
O       1.3560575030      0.3259085834      0.0216704937
O       1.9871105935     -0.8665630328     -0.0166350048
C      -0.6940929687     -0.8581344762      0.0041013909
C      -2.0429836049     -0.8558086008     -0.0181904035
C      -0.5488685030      1.6972726112      0.0300407728
H      -0.1355189875     -1.8029527167      0.0199062778
H      -2.8650731161     -0.0790849056      0.0254470024
H      -2.4553085116     -1.8879260011     -0.2877657292
H       0.2711883927      2.4140187296     -0.1015438021
H      -1.2188453316      1.8090175811      0.8995030512
H      -1.1636470867      1.7093280459     -0.8691488060
12
Frame=12  time=6.500fs  energy=-306.19938567Ha  molecule=COOCCCHHHHHH
C       0.0703712537      0.3342513611      0.0055218475
O       1.3546835752      0.3271692213      0.0231706766
O       1.9880529754     -0.8651780525     -0.0179433901
C      -0.6983323072     -0.8577868466      0.0047490673
C      -2.0404907179     -0.8567877550     -0.0210183517
C      -0.5520291898      1.6919034319      0.0306143123
H      -0.1373902487     -1.7953793399      0.0150112866
H      -2.8583984706     -0.0823320536      0.0266995743
H      -2.4444491762     -1.8894060521     -0.2991274288
H       0.2591239431      2.4188241128     -0.0937289689
H      -1.2152726490      1.8185086027      0.8998894364
H      -1.1732734494      1.7065287108     -0.8684577680
12
Frame=13  time=7.000fs  energy=-306.20006162Ha  molecule=COOCCCHHHHHH
C       0.0763496252      0.3358337818      0.0077493117
O       1.3531532732      0.3283125194      0.0245999701
O       1.9890178267     -0.8637491425     -0.0192315899
C      -0.7027327120     -0.8574376412      0.0054278946
C      -2.0382178339     -0.8583776501     -0.0241166928
C      -0.5550852459      1.6862834335      0.0309851895
H      -0.1399706237     -1.7866232153      0.0088665216
H      -2.8471055488     -0.0846887390      0.0277709798
H      -2.4345117582     -1.8896005993     -0.3077569702
H       0.2458521821      2.4250498834     -0.0840084858
H      -1.2099718493      1.8289589882      0.8999148694
H      -1.1844481507      1.7057169446     -0.8688713393
12
Frame=14  time=7.500fs  energy=-306.20064301Ha  molecule=COOCCCHHHHHH
C       0.0824297646      0.3376952899      0.0103771392
O       1.3515509304      0.3293309305      0.0259495917
O       1.9900078682     -0.8622779926     -0.0204966170
C      -0.7071301755     -0.8569954945      0.0061278735
C      -2.0362242238     -0.8606172655     -0.0275033360
C      -0.5580396448      1.6805086567      0.0310834855
H      -0.1428869432     -1.7775547028      0.0014277103
H      -2.8315148339     -0.0854877380      0.0286382464
H      -2.4261637248     -1.8889836270     -0.3134025832
H       0.2314683054      2.4326426627     -0.0726293543
H      -1.2032801269      1.8399486982      0.8998817558
H      -1.1966616676      1.7067825852     -0.8698131745
12
Frame=15  time=8.000fs  energy=-306.20102887Ha  molecule=COOCCCHHHHHH
C       0.0883829796      0.3397859569      0.0134295526
O       1.3499800269      0.3302210023      0.0272125699
O       1.9910252571     -0.8607681970     -0.0217357607
C      -0.7113384048     -0.8563597446      0.0068340119
C      -2.0345512967     -0.8635202639     -0.0311846946
C      -0.5609049882      1.6747080621      0.0308275755
H      -0.1456415925     -1.7692531136     -0.0072858245
H      -2.8122863349     -0.0839442922      0.0292797142
H      -2.4201681143     -1.8882123492     -0.3159058299
H       0.2161377852      2.4414545635     -0.0599732048
H      -1.1957098742      1.8509577326      0.9001928626
H      -1.2091695710      1.7094786434     -0.8704537834
12
Frame=16  time=8.500fs  energy=-306.20122384Ha  molecule=COOCCCHHHHHH
C       0.0939614117      0.3420385016      0.0169117793
O       1.3485537281      0.3309845437      0.0283850296
O       1.9920713245     -0.8592251356     -0.0229468406
C      -0.7151611509     -0.8554446889      0.0075267635
C      -2.0332236968     -0.8670667719     -0.0351521594
C      -0.5637003643      1.6690338050      0.0301476893
H      -0.1477341690     -1.7627690901     -0.0171786119
H      -2.7903446675     -0.0793466641      0.0296774553
H      -2.4172462322     -1.8879714886     -0.3152421833
H       0.2000985098      2.4512437030     -0.0465361510
H      -1.1878777301      1.8613995219      0.9012654525
H      -1.2211288561      1.7134444015     -0.8698900369
12
Frame=17  time=9.000fs  energy=-306.20131956Ha  molecule=COOCCCHHHHHH
C       0.0989244758      0.3443759709      0.0208105346
O       1.3473827162      0.3316280319      0.0294662792
O       1.9931467418     -0.8576552471     -0.0241282112
C      -0.7184069754     -0.8542043568      0.0081834981
C      -2.0322578316     -0.8712050722     -0.0393835412
C      -0.5664451544      1.6636461148      0.0290099911
H      -0.1488044999     -1.7588515962     -0.0280899533
H      -2.7666969453     -0.0712706403      0.0298175198
H      -2.4179423106     -1.8887688217     -0.3115134327
H       0.1836463877      2.4617032082     -0.0328739404
H      -1.1803929097      1.8706656909      0.9034259556
H      -1.2317904308      1.7182705894     -0.8673859531
12
Frame=18  time=9.500fs  energy=-306.20140631Ha  molecule=COOCCCHHHHHH
C       0.1030574198      0.3467197866      0.0250992107
O       1.3465665837      0.3321610203      0.0304579070
O       1.9942519802     -0.8560651949     -0.0252785627
C      -0.7208995734     -0.8526473071      0.0087798151
C      -2.0316726176     -0.8758592307     -0.0438473677
C      -0.5691532381      1.6587018747      0.0274323597
H      -0.1487249123     -1.7577713242     -0.0398155921
H      -2.7422485308     -0.0597296518      0.0296880614
H      -2.4225468343     -1.8907763737     -0.3049075333
H       0.1671192019      2.4724974281     -0.0195472096
H      -1.1737621483      1.8781554657      0.9068293182
H      -1.2406565171      1.7235679217     -0.8625665539
12
Frame=19  time=10.000fs  energy=-306.20150459Ha  molecule=COOCCCHHHHHH
C       0.1061808034      0.3489947679      0.0297425425
O       1.3461893079      0.3325948615      0.0313628609
O       1.9953876891     -0.8544613246     -0.0263967134
C      -0.7224849113     -0.8508399177      0.0092901135
C      -2.0314948665     -0.8809357729     -0.0485063348
C      -0.5718299190      1.6543492581      0.0254908286
H      -0.1476164568     -1.7592800327     -0.0521233462
H      -2.7177008182     -0.0452278941      0.0292771769
H      -2.4310770630     -1.8937635695     -0.2956630882
H       0.1508885876      2.4832862895     -0.0070878080
H      -1.1683400908      1.8832894858      0.9114194443
H      -1.2475622199      1.7290090382     -0.8555163885
12
Frame=20  time=10.500fs  energy=-306.20156948Ha  molecule=COOCCCHHHHHH
C       0.1081601480      0.3511321766      0.0346977371
O       1.3463143200      0.3329423508      0.0321852274
O       1.9965547380     -0.8528494295     -0.0274815781
C      -0.7230422105     -0.8489013181      0.0096880696
C      -2.0317550825     -0.8863268504     -0.0533184446
C      -0.5744717729      1.6507229945      0.0233182866
H      -0.1458038043     -1.7626735633     -0.0647589309
H      -2.6935378233     -0.0287247585      0.0285724199
H      -2.4432843037     -1.8971204506     -0.2840589366
H       0.1353543192      2.4937384536      0.0040232695
H      -1.1643165170      1.8855327118      0.9169258742
H      -1.2526922352      1.7343424946     -0.8467894868
12
Frame=21  time=11.000fs  energy=-306.20155392Ha  molecule=COOCCCHHHHHH
C       0.1089203628      0.3530732830      0.0399134153
O       1.3469768522      0.3332178420      0.0329305631
O       1.9977539674     -0.8512346450     -0.0285323151
C      -0.7225008922     -0.8469898797      0.0099478153
C      -2.0324751166     -0.8919128298     -0.0582372041
C      -0.5770690570      1.6479356187      0.0210928336
H      -0.1437219143     -1.7669412406     -0.0774502509
H      -2.6700684251     -0.0115072544      0.0275621640
H      -2.4586836420     -1.8999687503     -0.2704191128
H       0.1209274485      2.5035453680      0.0133835102
H      -1.1617277356      1.8844442700      0.9228986052
H      -1.2565369117      1.7393899214     -0.8373271554
12
Frame=22  time=11.500fs  energy=-306.20147154Ha  molecule=COOCCCHHHHHH
C       0.1084568549      0.3547733714      0.0453295659
O       1.3481774500      0.3334371008      0.0336060842
O       1.9989859428     -0.8496214160     -0.0295484750
C      -0.7208555209     -0.8452808643      0.0100455433
C      -2.0336536672     -0.8975676265     -0.0632127159
C      -0.5796101441      1.6460676640      0.0190135516
H      -0.1417888443     -1.7709915184     -0.0899169792
H      -2.6474965521      0.0050239240      0.0262369662
H      -2.4766250222     -1.9013489990     -0.2551112537
H       0.1079987931      2.5124406290      0.0206997306
H      -1.1604923668      1.8797388643      0.9287855413
H      -1.2597782507      1.7440321963     -0.8282771574
12
Frame=23  time=12.000fs  energy=-306.20140002Ha  molecule=COOCCCHHHHHH
C       0.1068323615      0.3562035701      0.0508797765
O       1.3498821872      0.3336167609      0.0342202709
O       2.0002509809     -0.8480136261     -0.0305299868
C      -0.7181690229     -0.8439416891      0.0099603899
C      -2.0352557514     -0.9031657683     -0.0681936696
C      -0.5820865066      1.6451642790      0.0172701949
H      -0.1402819115     -1.7738931239     -0.1018819379
H      -2.6260019352      0.0195904152      0.0245888396
H      -2.4964012971     -1.9004253006     -0.2385296516
H       0.0969064277      2.5202152112      0.0258028021
H      -1.1604705205      1.8713234370      0.9340345025
H      -1.2631270755      1.7481860854     -0.8207614242
12
Frame=24  time=12.500fs  energy=-306.20142621Ha  molecule=COOCCCHHHHHH
C       0.1041605389      0.3573489795      0.0564939862
O       1.3520293655      0.3337738810      0.0347821177
O       2.0015494602     -0.8464149308     -0.0314769766
C      -0.7145643424     -0.8431147958      0.0096738786
C      -2.0372076344     -0.9085871524     -0.0731286916
C      -0.5844965253      1.6452410533      0.0160184109
H      -0.1392568542     -1.7750474036     -0.1130755975
H      -2.6058165905      0.0312074346      0.0226081652
H      -2.5173531848     -1.8966346599     -0.2210740556
H       0.0879186803      2.5267180347      0.0286363130
H      -1.1615323893      1.8592935386      0.9381846579
H      -1.2671669861      1.7517754836     -0.8156755332
12
Frame=25  time=13.000fs  energy=-306.20158206Ha  molecule=COOCCCHHHHHH
C       0.1005888906      0.3582048392      0.0620994052
O       1.3545366797      0.3339260839      0.0353005974
O       2.0028821987     -0.8448292117     -0.0323895595
C      -0.7102141033     -0.8429113699      0.0091685217
C      -2.0393941797     -0.9137176026     -0.0779660303
C      -0.5868476763      1.6462932696      0.0153654057
H      -0.1385173734     -1.7742641488     -0.1232312042
H      -2.5872849090      0.0392647291      0.0202799771
H      -2.5389338823     -1.8897617883     -0.2031397635
H       0.0812317182      2.5318446942      0.0292331514
H      -1.1636172600      1.8439134485      0.9409281108
H      -1.2722437102      1.7547044568     -0.8135599863
12
Frame=26  time=13.500fs  energy=-306.20180964Ha  molecule=COOCCCHHHHHH
C       0.0962914020      0.3587739167      0.0676194889
O       1.3573039209      0.3340921970      0.0357846589
O       2.0042506616     -0.8432609985     -0.0332677883
C      -0.7053358351     -0.8434101497      0.0084271317
C      -2.0416562735     -0.9184480960     -0.0826524152
C      -0.5891577214      1.6482997234      0.0153614754
H      -0.1376203599     -1.7717740652     -0.1320787621
H      -2.5708959116      0.0435615087      0.0175819456
H      -2.5607290781     -1.8799749946     -0.1851218142
H       0.0769630930      2.5355282941      0.0277034844
H      -1.1667698056      1.8256150538      0.9421491187
H      -1.2783966865      1.7568396949     -0.8145202335
12
Frame=27  time=14.000fs  energy=-306.20197541Ha  molecule=COOCCCHHHHHH
C       0.0914695013      0.3590667331      0.0729735030
O       1.3602123607      0.3342926724      0.0362436025
O       2.0056568443     -0.8417156388     -0.0341118353
C      -0.7001888840     -0.8446546199      0.0074342046
C      -2.0437924581     -0.9226780176     -0.0871333282
C      -0.5914548160      1.6512170691      0.0159928689
H      -0.1359198017     -1.7681983203     -0.1393514067
H      -2.5572678498      0.0443341619      0.0144857427
H      -2.5824480887     -1.8678445947     -0.1674209015
H       0.0751259768      2.5377433392      0.0242433455
H      -1.1711440531      1.8050202240      0.9419493596
H      -1.2853255695      1.7580105275     -0.8181757014
12
Frame=28  time=14.500fs  energy=-306.20194681Ha  molecule=COOCCCHHHHHH
C       0.0863503997      0.3591034397      0.0780797566
O       1.3631268213      0.3345488045      0.0366873636
O       2.0071027946     -0.8401989423     -0.0349223014
C      -0.6950597415     -0.8466493958      0.0061793742
C      -2.0455747972     -0.9263250369     -0.0913564853
C      -0.5937749250      1.6549692664      0.0171806947
H      -0.1326773029     -1.7644395930     -0.1448115728
H      -2.5470616839      0.0422460579      0.0109619232
H      -2.6038944362     -1.8543039792     -0.1504343946
H       0.0755934885      2.5385201168      0.0191492653
H      -1.1769653172      1.7829490482      0.9406428242
H      -1.2924201027      1.7580333984     -0.8236817766
12
Frame=29  time=15.000fs  energy=-306.20168955Ha  molecule=COOCCCHHHHHH
C       0.0811731381      0.3589144425      0.0828628032
O       1.3659051725      0.3348804357      0.0371263140
O       2.0085899495     -0.8387162255     -0.0357004403
C      -0.6902277283     -0.8493637484      0.0046611080
C      -2.0467839268     -0.9293370665     -0.0952777128
C      -0.5961553187      1.6594424538      0.0187959117
H      -0.1272425201     -1.7614590057     -0.1482873578
H      -2.5408298374      0.0382668722      0.0069861151
H      -2.6249130768     -1.8404959891     -0.1345279169
H       0.0780855157      2.5379550876      0.0128135586
H      -1.1844539466      1.7603678082      0.9386930949
H      -1.2988894858      1.7567569018     -0.8298923654
12
Frame=30  time=15.500fs  energy=-306.20128953Ha  molecule=COOCCCHHHHHH
C       0.0761649030      0.3585378412      0.0872606931
O       1.3684127088      0.3353033097      0.0375706386
O       2.0101186809     -0.8372712290     -0.0364481592
C      -0.6859222545     -0.8527469572      0.0028881206
C      -2.0472515968     -0.9316971485     -0.0988655793
C      -0.5986261015      1.6644920658      0.0206913070
H      -0.1192365564     -1.7599989323     -0.1496953995
H      -2.5388610438      0.0334319857      0.0025428184
H      -2.6453201835     -1.8275267012     -0.1200032595
H       0.0822013867      2.5362050998      0.0056906213
H      -1.1937412113      1.7382784728      0.9365971498
H      -1.3039631850      1.7541069677     -0.8356422430
12
Frame=31  time=16.000fs  energy=-306.20087412Ha  molecule=COOCCCHHHHHH
C       0.0715206275      0.3580145959      0.0912274886
O       1.3705333435      0.3358278395      0.0380297453
O       2.0116883335     -0.8358656230     -0.0371678014
C      -0.6822947745     -0.8567487080      0.0008775271
C      -2.0468889445     -0.9334171597     -0.1021016075
C      -0.6012040593      1.6699583582      0.0227369055
H      -0.1086451394     -1.7603912614     -0.1490343755
H      -2.5410977039      0.0285850240     -0.0023753552
H      -2.6648389579     -1.8162405401     -0.1070850439
H       0.0874841948      2.5334681833     -0.0017488159
H      -1.2048144356      1.7176081835      0.9347630551
H      -1.3070696090      1.7501097844     -0.8400195424
12
Frame=32  time=16.500fs  energy=-306.20052232Ha  molecule=COOCCCHHHHHH
C       0.0673950981      0.3573841121      0.0947305174
O       1.3721728617      0.3364596901      0.0385120761
O       2.0132975774     -0.8344992217     -0.0378618442
C      -0.6794161818     -0.8613326979     -0.0013486231
C      -2.0456903116     -0.9345260704     -0.1049767925
C      -0.6038910046      1.6756802323      0.0248434707
H      -0.0957968064     -1.7625293599     -0.1463584920
H      -2.5471463270      0.0242253075     -0.0077713892
H      -2.6830646743     -1.8071125125     -0.0959309448
H       0.0934796104      2.5299642535     -0.0090510971
H      -1.2175024296      1.6991518011      0.9334314065
H      -1.3079242462      1.7448895226     -0.8425156704
12
Frame=33  time=17.000fs  energy=-306.20023934Ha  molecule=COOCCCHHHHHH
C       0.0639043585      0.3566818998      0.0977463336
O       1.3732572526      0.3372009935      0.0390252457
O       2.0149446405     -0.8331703869     -0.0385326960
C      -0.6772898658     -0.8664779857     -0.0037659056
C      -2.0437211598     -0.9350613503     -0.1074880140
C      -0.6066750980      1.6815016921      0.0269699912
H      -0.0812788643     -1.7659592682     -0.1417539485
H      -2.5563394573      0.0204890705     -0.0136467014
H      -2.6994674417     -1.8002555872     -0.0866494211
H       0.0997674580      2.5259251507     -0.0157936777
H      -1.2314859670      1.6835640020      0.9326523696
H      -1.3065367319      1.7386553113     -0.8430500376
12
Frame=34  time=17.500fs  energy=-306.19998865Ha  molecule=COOCCCHHHHHH
C       0.0611277439      0.3559387806      0.1002590918
O       1.3737318336      0.3380510915      0.0395761735
O       2.0166272150     -0.8318762031     -0.0391826638
C      -0.6758667664     -0.8721704353     -0.0063482568
C      -2.0411017963     -0.9350666328     -0.1096368495
C      -0.6095330323      1.6872734429      0.0291198190
H      -0.0658417318     -1.7700153065     -0.1353307031
H      -2.5678101527      0.0172179935     -0.0200007895
H      -2.7134329799     -1.7954898398     -0.0793085320
H       0.1059725679      2.5215922259     -0.0215916396
H      -1.2463207199      1.6713633143      0.9323025322
H      -1.3031765420      1.7316874336     -0.8419227515
12
Frame=35  time=18.000fs  energy=-306.19974144Ha  molecule=COOCCCHHHHHH
C       0.0591069448      0.3551803059      0.1022614807
O       1.3735630082      0.3390067690      0.0401710205
O       2.0183421767     -0.8306124769     -0.0398140149
C      -0.6750585265     -0.8783896933     -0.0090678074
C      -2.0379898073     -0.9345928585     -0.1114303673
C      -0.6124327219      1.6928548388      0.0313300777
H      -0.0503007800     -1.7739676744     -0.1272244131
H      -2.5805768331      0.0140683863     -0.0268285112
H      -2.7243360235     -1.7924388555     -0.0739342948
H       0.1117706561      2.5172135091     -0.0261090459
H      -1.2614758231      1.6629261728      0.9321279291
H      -1.2983130448      1.7243193655     -0.8397241888
12
Frame=36  time=18.500fs  energy=-306.19950890Ha  molecule=COOCCCHHHHHH
C       0.0578454350      0.3544258199      0.1037555824
O       1.3727397786      0.3400626086      0.0408150526
O       2.0200853902     -0.8293738379     -0.0404290141
C      -0.6747514136     -0.8850974647     -0.0118950614
C      -2.0345597171     -0.9336986453     -0.1128817228
C      -0.6153369086      1.6981179198      0.0336570348
H      -0.0354354079     -1.7771680057     -0.1175964685
H      -2.5936436628      0.0106334819     -0.0341178301
H      -2.7316249051     -1.7906412621     -0.0705089506
H       0.1168951455      2.5130355227     -0.0290739660
H      -1.2763906282      1.6584807513      0.9318048034
H      -1.2925291768      1.7169106713     -0.8372086009
12
Frame=37  time=19.000fs  energy=-306.19934099Ha  molecule=COOCCCHHHHHH
C       0.0573127802      0.3536875912      0.1047511575
O       1.3712714289      0.3412118817      0.0415127023
O       2.0218517399     -0.8281540500     -0.0410298866
C      -0.6748216555     -0.8922311622     -0.0147997387
C      -2.0309821185     -0.9324480103     -0.1140088730
C      -0.6182071620      1.7029508038      0.0361607803
H      -0.0219051492     -1.7791648199     -0.1066255901
H      -2.6060975332      0.0065537247     -0.0418503803
H      -2.7348826668     -1.7896605814     -0.0689790589
H       0.1211395778      2.5092923346     -0.0302855890
H      -1.2905356351      1.6581216543      0.9310039154
H      -1.2864220213      1.7098161622     -0.8351548954
12
Frame=38  time=19.500fs  energy=-306.19930204Ha  molecule=COOCCCHHHHHH
C       0.0574537124      0.3529705675      0.1052612091
O       1.3691811408      0.3424477704      0.0422679831
O       2.0236352633     -0.8269463422     -0.0416187402
C      -0.6751485056     -0.8997028477     -0.0177515912
C      -2.0274081387     -0.9309068333     -0.1148315960
C      -0.6210068769      1.7072569071      0.0388929869
H      -0.0102079606     -1.7797639020     -0.0944945148
H      -2.6171701179      0.0015936704     -0.0500047894
H      -2.7338429052     -1.7891702274     -0.0692736478
H       0.1243496236      2.5061985561     -0.0296055397
H      -1.3034557050      1.6618508058      0.9294414094
H      -1.2805180653      1.7033638067     -0.8342529146
12
Frame=39  time=20.000fs  energy=-306.19944522Ha  molecule=COOCCCHHHHHH
C       0.0581971474      0.3522726425      0.1052968466
O       1.3664988592      0.3437643784      0.0430851595
O       2.0254291318     -0.8257434617     -0.0421975149
C      -0.6756210985     -0.9073993867     -0.0207203085
C      -2.0239626123     -0.9291408029     -0.1153684235
C      -0.6237023992      1.7109496247      0.0418890219
H      -0.0006823014     -1.7790410758     -0.0813803010
H      -2.6262541680     -0.0043157304     -0.0585605860
H      -2.7283715366     -1.7890042871     -0.0713239841
H       0.1264064671      2.5039496075     -0.0269382216
H      -1.3147871999      1.6696273608      0.9269100812
H      -1.2752194314      1.6978481925     -0.8350342818
12
Frame=40  time=20.500fs  energy=-306.19979517Ha  molecule=COOCCCHHHHHH
C       0.0594599330      0.3515847940      0.1048638743
O       1.3632574094      0.3451571191      0.0439694213
O       2.0272252869     -0.8245372817     -0.0427680116
C      -0.6761386002     -0.9151794393     -0.0236741982
C      -2.0207436148     -0.9272165636     -0.1156351079
C      -0.6262627865      1.7139457676      0.0451621282
H       0.0064708968     -1.7773402117     -0.0674543420
H      -2.6328949347     -0.0110496642     -0.0675002761
H      -2.7184491826     -1.7891855610     -0.0750753358
H       0.1272099332      2.5027251709     -0.0222137940
H      -1.3242614713      1.6814010212      0.9233003388
H      -1.2707716357      1.6935343226     -0.8378307988
12
Frame=41  time=21.000fs  energy=-306.20033409Ha  molecule=COOCCCHHHHHH
C       0.0611432352      0.3508906718      0.1039627012
O       1.3594941863      0.3466223107      0.0449272768
O       2.0290137254     -0.8233179791     -0.0433320028
C      -0.6766063461     -0.9228666179     -0.0265780503
C      -2.0178227250     -0.9252058757     -0.1156454386
C      -0.6286596425      1.7161626326      0.0486961471
H       0.0111735718     -1.7752798328     -0.0528927871
H      -2.6367912153     -0.0182561222     -0.0768081724
H      -2.7041870684     -1.7899468122     -0.0804849875
H       0.1266705251      2.5026862745     -0.0153871047
H      -1.3317159326      1.6971093620      0.9186256780
H      -1.2672302064      1.6906589703     -0.8427261080
12
Frame=42  time=21.500fs  energy=-306.20099275Ha  molecule=COOCCCHHHHHH
C       0.0631235895      0.3501660471      0.1025920998
O       1.3552583180      0.3481559535      0.0459664088
O       2.0307816226     -0.8220729648     -0.0438913769
C      -0.6769317427     -0.9302438940     -0.0293911616
C      -2.0152414480     -0.9231908361     -0.1154143700
C      -0.6308683825      1.7175228858      0.0524357595
H       0.0134723019     -1.7737530528     -0.0378934131
H      -2.6378288226     -0.0253197777     -0.0864656882
H      -2.6858864681     -1.7917427999     -0.0875055379
H       0.1247163197      2.5039560992     -0.0064592455
H      -1.3371249261      1.7166319447      0.9130571731
H      -1.2644151062      1.6894179670     -0.8494833861
12
Frame=43  time=22.000fs  energy=-306.20166905Ha  molecule=COOCCCHHHHHH
C       0.0652430488      0.3493478199      0.1007559362
O       1.3506207905      0.3497597065      0.0470948711
O       2.0325120409     -0.8207882898     -0.0444482212
C      -0.6770302868     -0.9370436591     -0.0320667716
C      -2.0129988901     -0.9212715436     -0.1149624796
C      -0.6328658901      1.7179673615      0.0562788069
H       0.0135361368     -1.7738419882     -0.0226912996
H      -2.6360891549     -0.0313423956     -0.0964441951
H      -2.6640980635     -1.7952311672     -0.0960582964
H       0.1212700427      2.5066359958      0.0044835831
H      -1.3406542194      1.7397534905      0.9069288114
H      -1.2618891071      1.6899798692     -0.8574580772
12
Frame=44  time=22.500fs  energy=-306.20226941Ha  molecule=COOCCCHHHHHH
C       0.0673142010      0.3484331531      0.0984699126
O       1.3456796905      0.3514151619      0.0483198909
O       2.0341858418     -0.8194409471     -0.0450047560
C      -0.6768067880     -0.9430201797     -0.0345536336
C      -2.0110610532     -0.9195488526     -0.1143197149
C      -0.6346487475      1.7174741936      0.0600799046
H       0.0116220856     -1.7766915096     -0.0075644754
H      -2.6320228666     -0.0353081540     -0.1066984079
H      -2.6397008267     -1.8011329316     -0.1060089368
H       0.1164113049      2.5105969031      0.0172347914
H      -1.3426277163      1.7659604445      0.9007805498
H      -1.2589353452      1.6923322948     -0.8656730688
12
Frame=45  time=23.000fs  energy=-306.20276341Ha  molecule=COOCCCHHHHHH
C       0.0691272288      0.3473881579      0.0957651632
O       1.3405606929      0.3531066900      0.0496467868
O       2.0357804773     -0.8180063364     -0.0455631179
C      -0.6761823999     -0.9479431010     -0.0367992328
C      -2.0093506692     -0.9181295581     -0.1135266321
C      -0.6362167023      1.7160673369      0.0636715687
H       0.0079716708     -1.7831429427      0.0071741596
H      -2.6262487567     -0.0362447022     -0.1171634080
H      -2.6137845197     -1.8100636638     -0.1171571596
H       0.1102614109      2.5156176206      0.0314582951
H      -1.3435276650      1.7945305068      0.8952141442
H      -1.2547258393      1.6964068962     -0.8729145683
12
Frame=46  time=23.500fs  energy=-306.20315836Ha  molecule=COOCCCHHHHHH
C       0.0704704149      0.3461835913      0.0926873403
O       1.3354088478      0.3548140885      0.0510784591
O       2.0372717226     -0.8164566245     -0.0461250861
C      -0.6750918904     -0.9516521777     -0.0387530224
C      -2.0077703515     -0.9171095550     -0.1126327519
C      -0.6375725005      1.7138162943      0.0668989868
H       0.0026888373     -1.7934552710      0.0211941206
H      -2.6194462729     -0.0335424684     -0.1277564801
H      -2.5875095715     -1.8222944129     -0.1292441727
H       0.1030349759      2.5213373500      0.0467127510
H      -1.3438803120      1.8245073942      0.8907873708
H      -1.2485130837      1.7020735137     -0.8780392609
12
Frame=47  time=24.000fs  energy=-306.20341716Ha  molecule=COOCCCHHHHHH
C       0.0711493808      0.3447969466      0.0892940990
O       1.3303787292      0.3565141492      0.0526150835
O       2.0386349131     -0.8147618477     -0.0466918212
C      -0.6734878332     -0.9540805639     -0.0403694137
C      -2.0062281453     -0.9165632538     -0.1116937972
C      -0.6387146868      1.7108282124      0.0696577912
H      -0.0043365847     -1.8071389951      0.0341675546
H      -2.6121641608     -0.0272230324     -0.1383814744
H      -2.5619321556     -1.8375648809     -0.1419673544
H       0.0950431793      2.5272854944      0.0624906359
H      -1.3441420253      1.8547449923      0.8878875457
H      -1.2398608149      1.7091949465     -0.8803048105
12
Frame=48  time=24.500fs  energy=-306.20341798Ha  molecule=COOCCCHHHHHH
C       0.0710073602      0.3432138233      0.0856535712
O       1.3256233096      0.3581827337      0.0542534198
O       2.0398467382     -0.8128919731     -0.0472636190
C      -0.6713489690     -0.9552614527     -0.0416119620
C      -2.0046584400     -0.9165356632     -0.1107689672
C      -0.6396333834      1.7072408008      0.0719245681
H      -0.0133964285     -1.8229886934      0.0457937307
H      -2.6046868229     -0.0180718441     -0.1489336136
H      -2.5378737357     -1.8550058484     -0.1549937614
H       0.0866987679      2.5329224311      0.0782578322
H      -1.3446082798      1.8839657031      0.8866327556
H      -1.2288315241      1.7176681468     -0.8796377840
12
Frame=49  time=25.000fs  energy=-306.20304297Ha  molecule=COOCCCHHHHHH
C       0.0699498860      0.3414305059      0.0818422716
O       1.3212772408      0.3597971921      0.0559859354
O       2.0408880674     -0.8108206739     -0.0478397427
C      -0.6686932006     -0.9553193466     -0.0424592734
C      -2.0030289650     -0.9170371649     -0.1099173530
C      -0.6403131852      1.7032155953      0.0737676942
H      -0.0248063926     -1.8393412341      0.0558319907
H      -2.5970290368     -0.0075328175     -0.1593052712
H      -2.5158622104     -1.8732430892     -0.1679777116
H       0.0785085061      2.5376974105      0.0935006894
H      -1.3453715826      1.9108609709      0.8868253474
H      -1.2160438363      1.7274273036     -0.8767090197
12
Frame=50  time=25.500fs  energy=-306.20232187Ha  molecule=COOCCCHHHHHH
C       0.0679658133      0.3394572150      0.0779389319
O       1.3174358259      0.3613388450      0.0578007973
O       2.0417470418     -0.8085299260     -0.0484185055
C      -0.6655873118     -0.9544413970     -0.0429097790
C      -2.0013319979     -0.9180438695     -0.1091924362
C      -0.6407430871      1.6989246297      0.0753259454
H      -0.0386827033     -1.8545272146      0.0641358082
H      -2.5890613187      0.0026644782     -0.1693941654
H      -2.4961510489     -1.8907090749     -0.1805914238
H       0.0710291108      2.5411273691      0.1077878184
H      -1.3463466276      1.9342536509      0.8879967992
H      -1.2025186051      1.7384093357     -0.8727143875
12
Frame=51  time=26.000fs  energy=-306.20144537Ha  molecule=COOCCCHHHHHH
C       0.0651268285      0.3373188578      0.0740150769
O       1.3141423949      0.3627946359      0.0596833563
O       2.0424204382     -0.8060125735     -0.0489976507
C      -0.6621438347     -0.9528328733     -0.0429811552
C      -1.9995663696     -0.9195065090     -0.1086364645
C      -0.6409266741      1.6945300757      0.0767602373
H      -0.0547873653     -1.8673235120      0.0706669574
H      -2.5806825343      0.0109848250     -0.1791123582
H      -2.4788046826     -1.9060384053     -0.1925608735
H       0.0647892349      2.5428662511      0.1208246527
H      -1.3473533782      1.9532620519      0.8895520489
H      -1.1893603156      1.7505120197     -0.8689470617
12
Frame=52  time=26.500fs  energy=-306.20063088Ha  molecule=COOCCCHHHHHH
C       0.0615608816      0.3350514152      0.0701279381
O       1.3113941580      0.3641570357      0.0616184181
O       2.0429120345     -0.8032708045     -0.0495747913
C      -0.6585043670     -0.9506765590     -0.0427036126
C      -1.9977217308     -0.9213651779     -0.1082784386
C      -0.6408847546      1.6901671052      0.0782056066
H      -0.0725366673     -1.8771596513      0.0754757060
H      -2.5719343686      0.0164096576     -0.1883907726
H      -2.4638112871     -1.9183304618     -0.2036843228
H       0.0602206251      2.5427220254      0.1324654961
H      -1.3482134125      1.9673626352      0.8909440853
H      -1.1774614008      1.7635773752     -0.8664176823
12
Frame=53  time=27.000fs  energy=-306.20000847Ha  molecule=COOCCCHHHHHH
C       0.0574176121      0.3326964667      0.0663194591
O       1.3091605149      0.3654223129      0.0635920003
O       2.0432290178     -0.8003117433     -0.0501476375
C      -0.6548195285     -0.9481132475     -0.0421110619
C      -1.9957722633     -0.9235627085     -0.1081368708
C      -0.6406504369      1.6859389487      0.0797463692
H      -0.0911248069     -1.8840349879      0.0786592968
H      -2.5630236891      0.0184865453     -0.1971759128
H      -2.4511756045     -1.9271817666     -0.2138232731
H       0.0576377427      2.5406186882      0.1426802194
H      -1.3488143276      1.9763262875      0.8917875005
H      -1.1673727287      1.7774020425     -0.8656942205
12
Frame=54  time=27.500fs  energy=-306.19961012Ha  molecule=COOCCCHHHHHH
C       0.0528454707      0.3302976787      0.0626198048
O       1.3074003729      0.3665883465      0.0655919081
O       2.0433787118     -0.7971432035     -0.0507139695
C      -0.6512360668     -0.9452430890     -0.0412348758
C      -1.9936781506     -0.9260516843     -0.1082246435
C      -0.6402625948      1.6819223473      0.0814142366
H      -0.1096478478     -1.8883115191      0.0803248992
H      -2.5542936148      0.0172094324     -0.2054217687
H      -2.4409689034     -1.9325759884     -0.2228783618
H       0.0572581951      2.5365409385      0.1515075575
H      -1.3491318301      1.9801033168      0.8918872531
H      -1.1593212617      1.7917540065     -0.8669245544
12
Frame=55  time=28.000fs  energy=-306.19939704Ha  molecule=COOCCCHHHHHH
C       0.0479845750      0.3279002840      0.0590517324
O       1.3060715589      0.3676530823      0.0676073884
O       2.0433669317     -0.7937714454     -0.0512714795
C      -0.6478922571     -0.9421373222     -0.0401017448
C      -1.9913902150     -0.9287954235     -0.1085529206
C      -0.6397616644      1.6781758968      0.0831963510
H      -0.1271745549     -1.8905332143      0.0805711451
H      -2.5461888956      0.0128792823     -0.2130822824
H      -2.4333411245     -1.9347607186     -0.2307675419
H       0.0592302678      2.5304946615      0.1590228131
H      -1.3492269583      1.9787363922      0.8912206116
H      -1.1532798057      1.8063818121     -0.8699208242
12
Frame=56  time=28.500fs  energy=-306.19936670Ha  molecule=COOCCCHHHHHH
C       0.0429081749      0.3252786736      0.0556336635
O       1.3052092211      0.3686570622      0.0696284448
O       2.0431776558     -0.7901995438     -0.0518176007
C      -0.6450168722     -0.9387602737     -0.0387343845
C      -1.9888276914     -0.9317851011     -0.1091330393
C      -0.6392940309      1.6750894208      0.0850439825
H      -0.1426734916     -1.8910718904      0.0794858666
H      -2.5386961828      0.0062949728     -0.2201072016
H      -2.4281227053     -1.9343717759     -0.2374140638
H       0.0644278426      2.5218470620      0.1653255744
H      -1.3491554737      1.9712893686      0.8902729263
H      -1.1489492041      1.8199813445     -0.8745979207
12
Frame=57  time=29.000fs  energy=-306.19950468Ha  molecule=COOCCCHHHHHH
C       0.0378592467      0.3235437925      0.0523819122
O       1.3046840793      0.3693608806      0.0716452472
O       2.0428495194     -0.7863724961     -0.0523493051
C      -0.6424909353     -0.9356490488     -0.0371520462
C      -1.9860496487     -0.9348608120     -0.1099782870
C      -0.6389153451      1.6723650154      0.0868796755
H      -0.1552901754     -1.8912272991      0.0771442557
H      -2.5341393048     -0.0027590585     -0.2264374413
H      -2.4264055404     -1.9314680975     -0.2427358008
H       0.0731773508      2.5099439141      0.1705348914
H      -1.3488318435      1.9579515023      0.8894075013
H      -1.1456874991      1.8323251946     -0.8804303000
12
Frame=58  time=29.500fs  energy=-306.20008785Ha  molecule=COOCCCHHHHHH
C       0.0331517777      0.3230116778      0.0493122190
O       1.3044451841      0.3697124362      0.0736473883
O       2.0423816544     -0.7822606840     -0.0528628396
C      -0.6411166555     -0.9331112081     -0.0353719085
C      -1.9823600041     -0.9379404261     -0.1111048023
C      -0.6387210337      1.6700259775      0.0886029736
H      -0.1638020104     -1.8909780818      0.0736126755
H      -2.5340810520     -0.0146129983     -0.2320016717
H      -2.4290993010     -1.9257936860     -0.2466392230
H       0.0858197442      2.4943384955      0.1747931992
H      -1.3484120255      1.9387048264      0.8891007621
H      -1.1429471339      1.8429304400     -0.8867558942
12
Frame=59  time=30.000fs  energy=-306.20063059Ha  molecule=COOCCCHHHHHH
C       0.0286960267      0.3226381236      0.0464422179
O       1.3044724056      0.3699673823      0.0756229762
O       2.0417603247     -0.7779615975     -0.0533531929
C      -0.6403878846     -0.9305457548     -0.0334088786
C      -1.9783500281     -0.9412037634     -0.1125349231
C      -0.6385219702      1.6680708809      0.0900938113
H      -0.1678576317     -1.8906232401      0.0689430481
H      -2.5368173211     -0.0267429111     -0.2367054646
H      -2.4354094622     -1.9192677018     -0.2490018236
H       0.1006688971      2.4770340792      0.1782697171
H      -1.3486921449      1.9151065331      0.8890743513
H      -1.1407282582      1.8528615724     -0.8919607716
12
Frame=60  time=30.500fs  energy=-306.20150038Ha  molecule=COOCCCHHHHHH
C       0.0245003677      0.3220829169      0.0437870555
O       1.3049459245      0.3701238482      0.0775585757
O       2.0409248725     -0.7734204498     -0.0538142151
C      -0.6402016615     -0.9284352158     -0.0312811047
C      -1.9744775811     -0.9442117470     -0.1142910259
C      -0.6383079354      1.6665929744      0.0912257590
H      -0.1628123713     -1.8881724942      0.0632033317
H      -2.5446018109     -0.0388459492     -0.2404477707
H      -2.4449092088     -1.9128139665     -0.2497035623
H       0.1171535463      2.4586376080      0.1811957906
H      -1.3501413889      1.8877878036      0.8896483122
H      -1.1386978414      1.8621319086     -0.8949607274
12
Frame=61  time=31.000fs  energy=-306.20274303Ha  molecule=COOCCCHHHHHH
C       0.0207178360      0.3213311770      0.0413601200
O       1.3058177413      0.3702033626      0.0794385768
O       2.0398760359     -0.7686493680     -0.0542380265
C      -0.6405245190     -0.9269250044     -0.0290097503
C      -1.9709038697     -0.9469216238     -0.1163975648
C      -0.6380547849      1.6655956134      0.0918822404
H      -0.1480666702     -1.8830793397      0.0564715163
H      -2.5576471121     -0.0502988773     -0.2431143316
H      -2.4574577415     -1.9071005371     -0.2486167537
H       0.1348124832      2.4394795360      0.1838742886
H      -1.3530348361      1.8572953168      0.8912689389
H      -1.1364863296      1.8705740815     -0.8949289338
12
Frame=62  time=31.500fs  energy=-306.20384543Ha  molecule=COOCCCHHHHHH
C       0.0176830892      0.3208004547      0.0391700501
O       1.3067358938      0.3702597916      0.0812451717
O       2.0386985354     -0.7637522087     -0.0546147949
C      -0.6414149879     -0.9256999374     -0.0266220295
C      -1.9673977591     -0.9498191037     -0.1188772138
C      -0.6377196965      1.6649571719      0.0919869839
H      -0.1284489113     -1.8768217482      0.0488496004
H      -2.5733568661     -0.0601609102     -0.2445883756
H      -2.4732143106     -1.9023471472     -0.2456268563
H       0.1533463630      2.4195490122      0.1866973290
H      -1.3573034309      1.8240699469      0.8944446069
H      -1.1337852552      1.8778141949     -0.8915721664
12
Frame=63  time=32.000fs  energy=-306.20461891Ha  molecule=COOCCCHHHHHH
C       0.0155539579      0.3205225824      0.0372134375
O       1.3075881717      0.3703405757      0.0829601821
O       2.0374199801     -0.7587781549     -0.0549337941
C      -0.6427186476     -0.9249119419     -0.0241561495
C      -1.9642646815     -0.9529117920     -0.1217378740
C      -0.6372256873      1.6646127315      0.0915505490
H      -0.1048767526     -1.8684323748      0.0404952730
H      -2.5906391391     -0.0685659295     -0.2447910188
H      -2.4912118547     -1.8985785005     -0.2406987125
H       0.1719948606      2.3994688126      0.1901398270
H      -1.3627316625      1.7890088999      0.8992804384
H      -1.1308468771      1.8838464754     -0.8851596873
12
Frame=64  time=32.500fs  energy=-306.20482110Ha  molecule=COOCCCHHHHHH
C       0.0144268159      0.3205186907      0.0354714946
O       1.3082652860      0.3705023682      0.0845674007
O       2.0360792409     -0.7537915472     -0.0551849821
C      -0.6442215479     -0.9246927753     -0.0216613242
C      -1.9618708855     -0.9562009806     -0.1249634178
C      -0.6364838688      1.6644594890      0.0906920049
H      -0.0786920316     -1.8570280942      0.0316295652
H      -2.6079241181     -0.0760901878     -0.2437136468
H      -2.5100314489     -1.8954607719     -0.2339209717
H       0.1899116265      2.3800454374      0.1947049381
H      -1.3687314616      1.7531812650      0.9054803217
H      -1.1283348855      1.8888353719     -0.8767423937
12
Frame=65  time=33.000fs  energy=-306.20445524Ha  molecule=COOCCCHHHHHH
C       0.0143094821      0.3207944179      0.0339118983
O       1.3086829487      0.3708029978      0.0860545479
O       2.0347219821     -0.7488640926     -0.0553607103
C      -0.6456955013     -0.9251074211     -0.0191937397
C      -1.9605591713     -0.9596836884     -0.1285110909
C      -0.6354187816      1.6643697150      0.0896131694
H      -0.0513530910     -1.8422368338      0.0225245028
H      -2.6235289660     -0.0834625351     -0.2414312433
H      -2.5281143160     -1.8925330997     -0.2255146636
H       0.2062933446      2.3621692102      0.2008402184
H      -1.3744394662      1.7177058794      0.9123724342
H      -1.1271061341      1.8930816560     -0.8678582320
12
Frame=66  time=33.500fs  energy=-306.20375286Ha  molecule=COOCCCHHHHHH
C       0.0151218389      0.3213386718      0.0324948527
O       1.3087959716      0.3712931463      0.0874139864
O       2.0333939758     -0.7440645665     -0.0554565434
C      -0.6469500750     -0.9261307216     -0.0168100326
C      -1.9605659014     -0.9633553135     -0.1323180850
C      -0.6339899592      1.6642146172      0.0885359443
H      -0.0241032929     -1.8244296488      0.0134713490
H      -2.6360745332     -0.0912116661     -0.2380876819
H      -2.5441373477     -1.8895024034     -0.2157971749
H       0.2204861577      2.3466766487      0.2088603111
H      -1.3789421433      1.6836110761      0.9191053028
H      -1.1278686484      1.8969266339     -0.8599931384
12
Frame=67  time=34.000fs  energy=-306.20297941Ha  molecule=COOCCCHHHHHH
C       0.0167214764      0.3221259346      0.0311797610
O       1.3085980707      0.3720120531      0.0886421218
O       2.0321357257     -0.7394514371     -0.0554708233
C      -0.6478670507     -0.9276577808     -0.0145616840
C      -1.9619786121     -0.9672125398     -0.1363129380
C      -0.6321973922      1.6638866460      0.0876401091
H       0.0022122645     -1.8046516415      0.0047444438
H      -2.6447432125     -0.0994468928     -0.2338649396
H      -2.5572475512     -1.8864170577     -0.2051253694
H       0.2320274886      2.3342448404      0.2189092529
H      -1.3815110713      1.6517426285      0.9249141834
H      -1.1309256606      1.9006516378     -0.8541278227
12
Frame=68  time=34.500fs  energy=-306.20228495Ha  molecule=COOCCCHHHHHH
C       0.0189371982      0.3231210851      0.0299298700
O       1.3081121521      0.3729878069      0.0897378695
O       2.0309803300     -0.7350707456     -0.0554035033
C      -0.6484067447     -0.9295361644     -0.0124928285
C      -1.9647421911     -0.9712557620     -0.1404251282
C      -0.6300725475      1.6633105590      0.0870302362
H       0.0271337601     -1.7843496006     -0.0034201831
H      -2.6493107019     -0.1078378274     -0.2289544086
H      -2.5670918435     -1.8836665870     -0.1938488020
H       0.2406264253      2.3253531451      0.2309711861
H      -1.3817438562      1.6227487136      0.9293192483
H      -1.1361097823      1.9044233898     -0.8505678070
12
Frame=69  time=35.000fs  energy=-306.20170001Ha  molecule=COOCCCHHHHHH
C       0.0215936677      0.3242840439      0.0287141528
O       1.3073796953      0.3742394616      0.0907011998
O       2.0299538658     -0.7309573554     -0.0552551489
C      -0.6485948048     -0.9315996494     -0.0106408285
C      -1.9686904303     -0.9754896231     -0.1445895567
C      -0.6276652089      1.6624440535      0.0867346413
H       0.0504555100     -1.7650677932     -0.0108281814
H      -2.6500335841     -0.1157322578     -0.2235412773
H      -2.5737196438     -1.8818710466     -0.1822877568
H       0.2461204031      2.3202905564      0.2449044577
H      -1.3795890215      1.5971100000      0.9321906221
H      -1.1428629155      1.9082915284     -0.8490192048
12
Frame=70  time=35.500fs  energy=-306.20120452Ha  molecule=COOCCCHHHHHH
C       0.0245238384      0.3255728567      0.0275074266
O       1.3064535219      0.3757783343      0.0915324690
O       2.0290764233     -0.7271365062     -0.0550265229
C      -0.6485026884     -0.9336937732     -0.0090373450
C      -1.9735803206     -0.9799213067     -0.1487473188
C      -0.6250329560      1.6612743408      0.0867229696
H       0.0720755854     -1.7481990342     -0.0173230284
H      -2.6474996161     -0.1223266329     -0.2178004046
H      -2.5774562203     -1.8817353855     -0.1707292962
H       0.2484430425      2.3191698435      0.2604730230
H      -1.3752976438      1.5751670750      0.9337113774
H      -1.1503775186      1.9122152087     -0.8487800355
12
Frame=71  time=36.000fs  energy=-306.20077580Ha  molecule=COOCCCHHHHHH
C       0.0275656127      0.3267692153      0.0262899503
O       1.3053956645      0.3776520945      0.0922323184
O       2.0283593683     -0.7236380132     -0.0547185279
C      -0.6482669003     -0.9356064252     -0.0077089387
C      -1.9790981129     -0.9845839435     -0.1528453485
C      -0.6222049083      1.6598096501      0.0869304170
H       0.0918628754     -1.7346843766     -0.0227824397
H      -2.6422138566     -0.1267230576     -0.2118965521
H      -2.5786923988     -1.8839617452     -0.1594290138
H       0.2473591618      2.3222416050      0.2773715647
H      -1.3694248041      1.5573649246      0.9341762295
H      -1.1578348844      1.9163313296     -0.8488458479
12
Frame=72  time=36.500fs  energy=-306.20049519Ha  molecule=COOCCCHHHHHH
C       0.0305547746      0.3272868351      0.0250469236
O       1.3042763694      0.3799937759      0.0928013159
O       2.0278026633     -0.7205125971     -0.0543319634
C      -0.6481127237     -0.9369825627     -0.0066783700
C      -1.9848635337     -0.9895627473     -0.1568357339
C      -0.6191447916      1.6580691846      0.0872823715
H       0.1095593472     -1.7247861535     -0.0271124072
H      -2.6341630647     -0.1279482318     -0.2059849853
H      -2.5776719518     -1.8891986779     -0.1486146186
H       0.2421743682      2.3302539063      0.2952508583
H      -1.3628236322      1.5445255053      0.9337606710
H      -1.1646356628      1.9212430846     -0.8479845111
12
Frame=73  time=37.000fs  energy=-306.20033914Ha  molecule=COOCCCHHHHHH
C       0.0335495204      0.3281953224      0.0237676700
O       1.3029151877      0.3826274967      0.0932388070
O       2.0274938232     -0.7177756143     -0.0538667728
C      -0.6480868698     -0.9377408027     -0.0059680588
C      -1.9903156194     -0.9951761097     -0.1606737796
C      -0.6160296651      1.6560336324      0.0877152773
H       0.1207266569     -1.7211899280     -0.0302336982
H      -2.6232854913     -0.1256420744     -0.2002143172
H      -2.5758083749     -1.8973082057     -0.1384956571
H       0.2343252527      2.3412438141      0.3137397404
H      -1.3556106555      1.5354691563      0.9336144090
H      -1.1695463024      1.9256246577     -0.8460670174
12
Frame=74  time=37.500fs  energy=-306.20082606Ha  molecule=COOCCCHHHHHH
C       0.0365225318      0.3297017204      0.0224448384
O       1.3012428716      0.3855454761      0.0935418831
O       2.0274794914     -0.7154683225     -0.0533214107
C      -0.6483294347     -0.9376594374     -0.0056037429
C      -1.9949838437     -1.0016573626     -0.1643148088
C      -0.6129095594      1.6537130622      0.0881919056
H       0.1224616148     -1.7248914916     -0.0320683697
H      -2.6091273286     -0.1195147787     -0.1947341230
H      -2.5737963556     -1.9081850129     -0.1292786519
H       0.2241464272      2.3545964398      0.3324486894
H      -1.3482810994      1.5300133928      0.9343253674
H      -1.1719191361      1.9292038118     -0.8426864311
12
Frame=75  time=38.000fs  energy=-306.20122312Ha  molecule=COOCCCHHHHHH
C       0.0391902845      0.3313546735      0.0210738700
O       1.2996244707      0.3887099396      0.0937042713
O       2.0276924804     -0.7135152884     -0.0526921615
C      -0.6487400791     -0.9372968429     -0.0056185538
C      -1.9991594399     -1.0084331402     -0.1677099841
C      -0.6098156238      1.6512849093      0.0887143166
H       0.1192306860     -1.7329174449     -0.0325270555
H      -2.5946134337     -0.1106185496     -0.1897067429
H      -2.5711630705     -1.9217562543     -0.1211863752
H       0.2114834171      2.3704228282      0.3509567267
H      -1.3415541353      1.5283717077      0.9361425359
H      -1.1715983693      1.9321497243     -0.8374918024
12
Frame=76  time=38.500fs  energy=-306.20157399Ha  molecule=COOCCCHHHHHH
C       0.0413867934      0.3329656557      0.0196542019
O       1.2982504872      0.3920903886      0.0937189419
O       2.0281119804     -0.7118872845     -0.0519747229
C      -0.6493017641     -0.9369283519     -0.0060464180
C      -2.0028665402     -1.0152452969     -0.1708091464
C      -0.6067851059      1.6488769888      0.0893351691
H       0.1123203088     -1.7435011507     -0.0315357858
H      -2.5810270624     -0.1000680614     -0.1853067174
H      -2.5677089963     -1.9374495702     -0.1144440817
H       0.1964817319      2.3884474601      0.3688041442
H      -1.3359289006      1.5304839017      0.9392044754
H      -1.1686202740      1.9345222360     -0.8306070999
12
Frame=77  time=39.000fs  energy=-306.20177175Ha  molecule=COOCCCHHHHHH
C       0.0430289802      0.3344897547      0.0181908071
O       1.2972087605      0.3956538424      0.0935804598
O       2.0287386540     -0.7105736700     -0.0511657230
C      -0.6500402875     -0.9366733499     -0.0069147686
C      -2.0060071266     -1.0220030247     -0.1735660059
C      -0.6038620960      1.6465950147      0.0901617747
H       0.1013932616     -1.7555036294     -0.0290629258
H      -2.5686661860     -0.0891940627     -0.1817101366
H      -2.5633454248     -1.9542650767     -0.1092543467
H       0.1795533528      2.4081212399      0.3855137835
H      -1.3316734656      1.5360206016      0.9434093209
H      -1.1633322824      1.9363622980     -0.8226362458
12
Frame=78  time=39.500fs  energy=-306.20175061Ha  molecule=COOCCCHHHHHH
C       0.0440730879      0.3358830096      0.0166951102
O       1.2965700591      0.3993568394      0.0932868281
O       2.0295662188     -0.7095523871     -0.0502639943
C      -0.6509767667     -0.9366430296     -0.0082379265
C      -2.0085288916     -1.0286095897     -0.1759444580
C      -0.6010968747      1.6445509652      0.0913429087
H       0.0863636464     -1.7677987816     -0.0251392212
H      -2.5576838319     -0.0795658841     -0.1790764900
H      -2.5579321650     -1.9709984635     -0.1057672514
H       0.1612818806      2.4288053572      0.4006342500
H      -1.3288564636      1.5444535386      0.9483435526
H      -1.1564252939      1.9377774295     -0.8145294380
12
Frame=79  time=40.000fs  energy=-306.20154237Ha  molecule=COOCCCHHHHHH
C       0.0445227470      0.3371066991      0.0151845365
O       1.2963786186      0.4031479214      0.0928403086
O       2.0305810926     -0.7087904463     -0.0492712089
C      -0.6521322919     -0.9369167836     -0.0100134892
C      -2.0104176619     -1.0349733245     -0.1779236287
C      -0.5985468310      1.6428532581      0.0930384086
H       0.0675205047     -1.7795176388     -0.0198630970
H      -2.5481677823     -0.0726797684     -0.1775299348
H      -2.5513681294     -1.9864875459     -0.1040578776
H       0.1423853354      2.4498231534      0.4137874239
H      -1.3273747714      1.5550974196      0.9533627156
H      -1.1487863323      1.9389110314     -0.8073654974
12
Frame=80  time=40.500fs  energy=-306.20124015Ha  molecule=COOCCCHHHHHH
C       0.0444213434      0.3381261101      0.0136785886
O       1.2966537912      0.4069830498      0.0922467630
O       2.0317687164     -0.7082576136     -0.0481905029
C      -0.6535293461     -0.9375272812     -0.0122605350
C      -2.0116808299     -1.0410115111     -0.1793793803
C      -0.5962893112      1.6415949137      0.0953905669
H       0.0455235680     -1.7902176086     -0.0133949219
H      -2.5402603689     -0.0696829158     -0.1776665238
H      -2.5436335716     -1.9998561151     -0.1046176098
H       0.1236747671      2.4704640955      0.4246769407
H      -1.3270358497      1.5672614276      0.9577464085
H      -1.1412715210      1.9399207547     -0.8021030537
12
Frame=81  time=41.000fs  energy=-306.20104472Ha  molecule=COOCCCHHHHHH
C       0.0437959071      0.3388469055      0.0122003313
O       1.2974516714      0.4109962162      0.0915137828
O       2.0331839608     -0.7080827216     -0.0470269163
C      -0.6551775340     -0.9384400647     -0.0149650371
C      -2.0123138049     -1.0465677154     -0.1802775582
C      -0.5946251205      1.6407911524      0.0984904836
H       0.0210526822     -1.8000398796     -0.0059213373
H      -2.5346217252     -0.0714098785     -0.1797090698
H      -2.5343343535     -2.0108264097     -0.1075598825
H       0.1065196297      2.4891635935      0.4331123522
H      -1.3275132582      1.5809703816      0.9609615171
H      -1.1344297897      1.9416305050     -0.7994707402
12
Frame=82  time=41.500fs  energy=-306.20097170Ha  molecule=COOCCCHHHHHH
C       0.0427379926      0.3392595381      0.0107777303
O       1.2987457562      0.4151176699      0.0906486383
O       2.0347995835     -0.7082099116     -0.0457872071
C      -0.6571000842     -0.9396166137     -0.0180454999
C      -2.0123270651     -1.0516074180     -0.1808017677
C      -0.5936098227      1.6405220199      0.1023632307
H      -0.0047171719     -1.8092710517      0.0023735717
H      -2.5315795606     -0.0779671231     -0.1829455070
H      -2.5238056267     -2.0192787613     -0.1120959253
H       0.0915655709      2.5054686124      0.4390003572
H      -1.3286923180      1.5954859291      0.9625635256
H      -1.1287077063      1.9440151236     -0.7996708606
12
Frame=83  time=42.000fs  energy=-306.20096033Ha  molecule=COOCCCHHHHHH
C       0.0413906466      0.3394287678      0.0094366666
O       1.3004396082      0.4190983660      0.0896578087
O       2.0365171846     -0.7084220623     -0.0444764202
C      -0.6593245828     -0.9410238257     -0.0214701181
C      -2.0117437540     -1.0562026072     -0.1809753371
C      -0.5930829383      1.6409253224      0.1069829400
H      -0.0302500055     -1.8182260194      0.0112898729
H      -2.5311829247     -0.0888113659     -0.1873602595
H      -2.5130156440     -2.0252363933     -0.1180976140
H       0.0787975410      2.5198926767      0.4422744366
H      -1.3307309594      1.6094853973      0.9622486625
H      -1.1243707553      1.9462348338     -0.8024008221
12
Frame=84  time=42.500fs  energy=-306.20101561Ha  molecule=COOCCCHHHHHH
C       0.0398539318      0.3393534377      0.0082035709
O       1.3024908808      0.4228782442      0.0885473114
O       2.0383157586     -0.7086748942     -0.0430994598
C      -0.6618440484     -0.9425971441     -0.0252056854
C      -2.0105710710     -1.0603404496     -0.1808254271
C      -0.5931146409      1.6420607867      0.1122636841
H      -0.0543167112     -1.8274203737      0.0206196651
H      -2.5340130330     -0.1032195717     -0.1929255796
H      -2.5024573303     -2.0292294340     -0.1254198033
H       0.0687133175      2.5320149510      0.4429264437
H      -1.3337842368      1.6225029606      0.9600950813
H      -1.1212646050      1.9481293213     -0.8070763550
12
Frame=85  time=43.000fs  energy=-306.20109089Ha  molecule=COOCCCHHHHHH
C       0.0382299087      0.3390396044      0.0071050852
O       1.3048484142      0.4263981216      0.0873230647
O       2.0401758796     -0.7089261048     -0.0416612878
C      -0.6646219211     -0.9442780277     -0.0292168006
C      -2.0088311201     -1.0640198781     -0.1803834088
C      -0.5937686931      1.6439742598      0.1180665089
H      -0.0758052745     -1.8372479230      0.0301456342
H      -2.5406670537     -0.1201874549     -0.1996000272
H      -2.4926425259     -2.0319899715     -0.1338992364
H       0.0616889293      2.5414481297      0.4410156415
H      -1.3381204370      1.6341908433      0.9564447061
H      -1.1190082376      1.9494943972     -0.8128108773
12
Frame=86  time=43.500fs  energy=-306.20111949Ha  molecule=COOCCCHHHHHH
C       0.0365327665      0.3382839961      0.0061677344
O       1.3075970508      0.4295894943      0.0859911477
O       2.0420410233     -0.7090951873     -0.0401670295
C      -0.6675068521     -0.9462785708     -0.0334654606
C      -2.0068207640     -1.0669814128     -0.1796850132
C      -0.5950909326      1.6467455853      0.1242139743
H      -0.0912863798     -1.8466044799      0.0396409025
H      -2.5528522097     -0.1389039749     -0.2073273105
H      -2.4836950207     -2.0344425010     -0.1433547762
H       0.0577929832      2.5480932844      0.4366763960
H      -1.3441681202      1.6444550540      0.9517767512
H      -1.1171783607      1.9502478861     -0.8184723727
12
Frame=87  time=44.000fs  energy=-306.20192461Ha  molecule=COOCCCHHHHHH
C       0.0347660172      0.3374430317      0.0054193255
O       1.3108743127      0.4322153072      0.0845571455
O       2.0438519718     -0.7090355720     -0.0386215645
C      -0.6701214916     -0.9492785654     -0.0379125719
C      -2.0050919278     -1.0687444527     -0.1787685679
C      -0.5972187207      1.6504791809      0.1305111831
H      -0.0963545360     -1.8538786972      0.0488664977
H      -2.5736685652     -0.1591941628     -0.2160436405
H      -2.4758090549     -2.0373188143     -0.1535950509
H       0.0578153838      2.5508737768      0.4301030588
H      -1.3521082783      1.6525015161      0.9470863180
H      -1.1150626867      1.9495243758     -0.8232956959
12
Frame=88  time=44.500fs  energy=-306.20280169Ha  molecule=COOCCCHHHHHH
C       0.0331405757      0.3363871561      0.0048936330
O       1.3143898843      0.4343471600      0.0830247437
O       2.0456474165     -0.7088102345     -0.0370287674
C      -0.6725355756     -0.9526487771     -0.0425196322
C      -2.0033210183     -1.0698103899     -0.1776731963
C      -0.6001093283      1.6550842180      0.1367627349
H      -0.0945611389     -1.8600413377      0.0575539470
H      -2.6006737857     -0.1792874941     -0.2256907153
H      -2.4694717976     -2.0412289443     -0.1644244277
H       0.0613694797      2.5499140189      0.4215213345
H      -1.3623765217      1.6587039011      0.9429225185
H      -1.1122962799      1.9476019259     -0.8261047289
12
Frame=89  time=45.000fs  energy=-306.20370184Ha  molecule=COOCCCHHHHHH
C       0.0318574965      0.3352072377      0.0046285003
O       1.3178722609      0.4359853915      0.0813978875
O       2.0474646409     -0.7084541570     -0.0353926442
C      -0.6746878423     -0.9559714845     -0.0472430646
C      -2.0013610801     -1.0705799245     -0.1764452108
C      -0.6037387046      1.6604586728      0.1427882917
H      -0.0891125470     -1.8655267601      0.0653983063
H      -2.6316954553     -0.1979955433     -0.2361912129
H      -2.4649707538     -2.0464431703     -0.1756187075
H       0.0682718053      2.5450174694      0.4112519648
H      -1.3751690676      1.6631995937      0.9399584582
H      -1.1086238570      1.9445358968     -0.8261583141
12
Frame=90  time=45.500fs  energy=-306.20447748Ha  molecule=COOCCCHHHHHH
C       0.0310174157      0.3339606830      0.0046616380
O       1.3211937779      0.4370784353      0.0796827648
O       2.0493051494     -0.7079489758     -0.0337183366
C      -0.6763479216     -0.9592095955     -0.0520310831
C      -1.9994546132     -1.0711408156     -0.1751418495
C      -0.6080675493      1.6665079288      0.1484544742
H      -0.0807447130     -1.8692499675      0.0720714822
H      -2.6655447767     -0.2151100440     -0.2474265753
H      -2.4619677193     -2.0528683093     -0.1869140823
H       0.0782359153      2.5361287055      0.3997605231
H      -1.3903804064      1.6661188262      0.9387104567
H      -1.1041759954      1.9404392355     -0.8233042293
12
Frame=91  time=46.000fs  energy=-306.20487982Ha  molecule=COOCCCHHHHHH
C       0.0306882498      0.3327206669      0.0050251666
O       1.3242241112      0.4375937460      0.0778890271
O       2.0511739139     -0.7072863017     -0.0320127294
C      -0.6772792953     -0.9623157230     -0.0568242410
C      -1.9979111421     -1.0715926769     -0.1738307237
C      -0.6130068611      1.6730685584      0.1537062638
H      -0.0704245186     -1.8701350227      0.0772539857
H      -2.7004137585     -0.2309398591     -0.2592249272
H      -2.4597832167     -2.0599858412     -0.1980146167
H       0.0907682963      2.5235038383      0.3876658689
H      -1.4074515576      1.6676866598      0.9393212782
H      -1.0995489498      1.9356264414     -0.8181261774
12
Frame=92  time=46.500fs  energy=-306.20476633Ha  molecule=COOCCCHHHHHH
C       0.0308856418      0.3315705678      0.0057389350
O       1.3268481952      0.4375288806      0.0760301929
O       2.0530785227     -0.7064709717     -0.0302846481
C      -0.6772942333     -0.9652146566     -0.0615595862
C      -1.9970437386     -1.0720419503     -0.1725847291
C      -0.6184239597      1.6799132308      0.1585742764
H      -0.0591195342     -1.8675195245      0.0806831667
H      -2.7341495551     -0.2461142652     -0.2713617837
H      -2.4575522903     -2.0670443701     -0.2086181908
H       0.1051987642      2.5077723771      0.3756961865
H      -1.4253676244      1.6682045275      0.9414878421
H      -1.0957055429      1.9305851698     -0.8118705752
12
Frame=93  time=47.000fs  energy=-306.20420183Ha  molecule=COOCCCHHHHHH
C       0.0315662184      0.3305937787      0.0068060997
O       1.3289832644      0.4369150010      0.0741227158
O       2.0550275365     -0.7055208882     -0.0285442727
C      -0.6763068455     -0.9677960690     -0.0661774511
C      -1.9970838636     -1.0725940959     -0.1714739090
C      -0.6241650399      1.6867790982      0.1631453266
H      -0.0475491925     -1.8614598746      0.0821944124
H      -2.7647200024     -0.2612256434     -0.2835778066
H      -2.4544796750     -2.0733710141     -0.2184531189
H       0.1207618469      2.4898810779      0.3645925072
H      -1.4428453124      1.6680165883      0.9445717550
H      -1.0936750124      1.9258703882     -0.8060545447
12
Frame=94  time=47.500fs  energy=-306.20338451Ha  molecule=COOCCCHHHHHH
C       0.0326384466      0.3298632326      0.0082130609
O       1.3305866272      0.4358109303      0.0721841764
O       2.0570286889     -0.7044632316     -0.0268019525
C      -0.6743566086     -0.9699254334     -0.0706278033
C      -1.9981180632     -1.0733463199     -0.1705582256
C      -0.6300824448      1.6934072799      0.1675117167
H      -0.0360622429     -1.8527416910      0.0817347247
H      -2.7906342342     -0.2765118077     -0.2956060656
H      -2.4500595993     -2.0786257438     -0.2273084100
H       0.1366878152      2.4709367823      0.3550007436
H      -1.4586246297      1.6674758097      0.9478415330
H      -1.0942076799      1.9219745266     -0.8019517420
12
Frame=95  time=48.000fs  energy=-306.20249816Ha  molecule=COOCCCHHHHHH
C       0.0339834085      0.3294347164      0.0099332501
O       1.3316526471      0.4342917402      0.0702315021
O       2.0590876433     -0.7033291585     -0.0250670909
C      -0.6715917224     -0.9714681439     -0.0748734803
C      -2.0000757796     -1.0743827499     -0.1698839017
C      -0.6360527243      1.6995752061      0.1717267396
H      -0.0246902198     -1.8426077304      0.0793474689
H      -2.8111315404     -0.2917328662     -0.3071969487
H      -2.4441623802     -2.0828841230     -0.2350458026
H       0.1522658977      2.4520276761      0.3473995167
H      -1.4717265524      1.6669207435      0.9507210468
H      -1.0975598792      1.9192381424     -0.8002258129
12
Frame=96  time=48.500fs  energy=-306.20164097Ha  molecule=COOCCCHHHHHH
C       0.0354743816      0.3293449626      0.0119322650
O       1.3322036188      0.4324376533      0.0682798563
O       2.0612075176     -0.7021493423     -0.0233475764
C      -0.6682264434     -0.9723144041     -0.0788900147
C      -2.0027627078     -1.0757718225     -0.1694832264
C      -0.6419808456      1.7051126227      0.1757849385
H      -0.0133056706     -1.8323851457      0.0751435944
H      -2.8261269445     -0.3062516217     -0.3181331739
H      -2.4369881056     -2.0865589174     -0.2415949795
H       0.1668725460      2.4340940148      0.3420802828
H      -1.4815857290      1.6666609843      0.9529370412
H      -1.1034737537      1.9178258474     -0.8008408034
12
Frame=97  time=49.000fs  energy=-306.20085083Ha  molecule=COOCCCHHHHHH
C       0.0369899005      0.3296126061      0.0141720152
O       1.3322802388      0.4303266301      0.0663422414
O       2.0633888953     -0.7009513208     -0.0216496857
C      -0.6644952844     -0.9723967908     -0.0826637840
C      -2.0059135197     -1.0775644309     -0.1693760046
C      -0.6477951409      1.7099042814      0.1796288877
H      -0.0017845873     -1.8231786552      0.0692754827
H      -2.8360251859     -0.3192284362     -0.3282357716
H      -2.4289505834     -2.0902417437     -0.2469418975
H       0.1799792631      2.4178658007      0.3391627000
H      -1.4880523339      1.6669635075      0.9545343122
H      -1.1113051241      1.9177513109     -0.8032014396
12
Frame=98  time=49.500fs  energy=-306.19992730Ha  molecule=COOCCCHHHHHH
C       0.0384211947      0.3302403936      0.0166135798
O       1.3319337734      0.4280302860      0.0644295031
O       2.0656300850     -0.6997582973     -0.0199782024
C      -0.6606173474     -0.9716978632     -0.0861898274
C      -2.0092433212     -1.0797923582     -0.1695714698
C      -0.6534396003      1.7138854051      0.1831718547
H       0.0098855485     -1.8156938220      0.0619174468
H      -2.8415054440     -0.3298366257     -0.3373648255
H      -2.4205501675     -2.0945383570     -0.2511163030
H       0.1911546398      2.4038501189      0.3386256111
H      -1.4913081495      1.6680376968      0.9557969922
H      -1.1202159777      1.9189243368     -0.8064031532
12
Frame=99  time=50.000fs  energy=-306.19939836Ha  molecule=COOCCCHHHHHH
C       0.0398978310      0.3317711250      0.0192195785
O       1.3308522827      0.4256391935      0.0625504960
O       2.0680267290     -0.6986918749     -0.0183366092
C      -0.6569714103     -0.9696027313     -0.0894694570
C      -2.0118608164     -1.0831510778     -0.1700708967
C      -0.6588788419      1.7168985306      0.1863227012
H       0.0151222921     -1.8133272614      0.0532489980
H      -2.8402890374     -0.3365943467     -0.3454154392
H      -2.4131336020     -2.0996739497     -0.2541781117
H       0.2004817305      2.3917274850      0.3403470988
H      -1.4915086138      1.6696865476      0.9573266408
H      -1.1291230895      1.9208623734     -0.8096730442
12
Frame=100  time=50.500fs  energy=-306.19953320Ha  molecule=COOCCCHHHHHH
C       0.0413051996      0.3333112012      0.0219582984
O       1.3290753494      0.4234343903      0.0607133981
O       2.0705624827     -0.6978419071     -0.0167281874
C      -0.6539184267     -0.9656736805     -0.0925029142
C      -2.0133609542     -1.0878234736     -0.1708765450
C      -0.6639157661      1.7189010367      0.1889943398
H       0.0132158682     -1.8155742953      0.0434218779
H      -2.8314539125     -0.3383985968     -0.3522848592
H      -2.4066857876     -2.1062431069     -0.2561838623
H       0.2063903181      2.3832332579      0.3441872239
H      -1.4895080975      1.6731946161      0.9589901568
H      -1.1377065694      1.9246174473     -0.8115682804
12
Frame=101  time=51.000fs  energy=-306.19988843Ha  molecule=COOCCCHHHHHH
C       0.0422922349      0.3337783165      0.0248037830
O       1.3270559230      0.4215096137      0.0589276642
O       2.0730976501     -0.6971081995     -0.0151573162
C      -0.6514578853     -0.9604832219     -0.0952831952
C      -2.0141915608     -1.0931213678     -0.1719989636
C      -0.6683608180      1.7200226380      0.1911007327
H       0.0111609652     -1.8181872341      0.0325478533
H      -2.8181342014     -0.3355989441     -0.3578358367
H      -2.4004106055     -2.1148262310     -0.2571652744
H       0.2072956133      2.3802439928      0.3500383913
H      -1.4862067621      1.6794979299      0.9606984072
H      -1.1458554052      1.9309540955     -0.8108131818
12
Frame=102  time=51.500fs  energy=-306.20037572Ha  molecule=COOCCCHHHHHH
C       0.0428782156      0.3346354286      0.0277320918
O       1.3247639352      0.4193620411      0.0572046897
O       2.0755736217     -0.6962175168     -0.0136296265
C      -0.6493763475     -0.9548665998     -0.0977971623
C      -2.0144439336     -1.0988924093     -0.1734556834
C      -0.6721354698      1.7203439116      0.1925658246
H       0.0091999020     -1.8211987035      0.0207180426
H      -2.8024496267     -0.3289789019     -0.3618927134
H      -2.3957985147     -2.1247566277     -0.2571405498
H       0.2041705754      2.3815512928      0.3578030802
H      -1.4814347952      1.6860188359      0.9636679948
H      -1.1525579125      1.9371963128     -0.8076229662
12
Frame=103  time=52.000fs  energy=-306.20113578Ha  molecule=COOCCCHHHHHH
C       0.0429647004      0.3359886865      0.0307195924
O       1.3222525185      0.4170089581      0.0555580713
O       2.0779852652     -0.6951751649     -0.0121526253
C      -0.6477256271     -0.9490204722     -0.1000045543
C      -2.0140141477     -1.1050619316     -0.1753442133
C      -0.6751796163      1.7198423450      0.1933371332
H       0.0070920345     -1.8237759433      0.0080282591
H      -2.7848748674     -0.3190380368     -0.3639171639
H      -2.3929819379     -2.1357080647     -0.2558165534
H       0.1968443155      2.3870959232      0.3673745109
H      -1.4754429433      1.6925759526      0.9683409644
H      -1.1574707537      1.9431921849     -0.8017676371
12
Frame=104  time=52.500fs  energy=-306.20200683Ha  molecule=COOCCCHHHHHH
C       0.0424000740      0.3378040822      0.0337364847
O       1.3196444171      0.4146903861      0.0540041428
O       2.0804054441     -0.6941762122     -0.0107339407
C      -0.6465477408     -0.9431092860     -0.1019097220
C      -2.0127990398     -1.1114385540     -0.1776099266
C      -0.6776578850      1.7184299656      0.1934171040
H       0.0042581582     -1.8250887673     -0.0054216264
H      -2.7661076971     -0.3069093637     -0.3640033797
H      -2.3913294109     -2.1472728809     -0.2535520431
H       0.1857872618      2.3958391674      0.3785771602
H      -1.4683169522      1.6997827968      0.9750701833
H      -1.1603981567      1.9496811608     -0.7934827798
12
Frame=105  time=53.000fs  energy=-306.20289596Ha  molecule=COOCCCHHHHHH
C       0.0410969184      0.3401053788      0.0367487251
O       1.3169999765      0.4124659872      0.0525611776
O       2.0828276133     -0.6932468783     -0.0093825913
C      -0.6458871052     -0.9373395500     -0.1034961671
C      -2.0107603427     -1.1179004354     -0.1802683933
C      -0.6795050284      1.7161151927      0.1928787747
H       0.0005034974     -1.8241646484     -0.0194944707
H      -2.7463014100     -0.2940059645     -0.3619141936
H      -2.3905911176     -2.1584884434     -0.2504351558
H       0.1710451702      2.4076068470      0.3911619788
H      -1.4601910753      1.7073434084      0.9838200389
H      -1.1616698669      1.9567058974     -0.7833925452
12
Frame=106  time=53.500fs  energy=-306.20365477Ha  molecule=COOCCCHHHHHH
C       0.0390131317      0.3428973786      0.0397161251
O       1.3143681102      0.4103816557      0.0512479060
O       2.0852321624     -0.6923952961     -0.0081074019
C      -0.6457712038     -0.9319141831     -0.1047552216
C      -2.0079182912     -1.1243106179     -0.1833213684
C      -0.6806514980      1.7129603298      0.1918834164
H      -0.0040906349     -1.8203011242     -0.0340105096
H      -2.7255530943     -0.2820575744     -0.3574497440
H      -2.3904406884     -2.1681521724     -0.2466187211
H       0.1528988875      2.4221819021      0.4047691945
H      -1.4511273633      1.7147065902      0.9941494920
H      -1.1620388368      1.9642463245     -0.7726053891
12
Frame=107  time=54.000fs  energy=-306.20417215Ha  molecule=COOCCCHHHHHH
C       0.0361672995      0.3461493427      0.0425938935
O       1.3117854683      0.4084836069      0.0500814499
O       2.0875931925     -0.6916256676     -0.0069158670
C      -0.6462030147     -0.9269975179     -0.1056905042
C      -2.0043471294     -1.1305203478     -0.1867506584
C      -0.6810683763      1.7090859277      0.1906655486
H      -0.0090609694     -1.8133614326     -0.0487500657
H      -2.7040908662     -0.2727793618     -0.3504886469
H      -2.3905157753     -2.1751060254     -0.2423278231
H       0.1319857803      2.4391901535      0.4189295431
H      -1.4411359503      1.7211650223      1.0052231429
H      -1.1625463134      1.9722528329     -0.7625199915
12
Frame=108  time=54.500fs  energy=-306.20440056Ha  molecule=COOCCCHHHHHH
C       0.0326437689      0.3497926277      0.0453356898
O       1.3092725419      0.4068137106      0.0490754868
O       2.0898794232     -0.6909367336     -0.0058132810
C      -0.6471552742     -0.9226901737     -0.1063194719
C      -2.0001572266     -1.1363878709     -0.1905167423
C      -0.6807843255      1.7046688891      0.1894862164
H      -0.0135386399     -1.8039062918     -0.0634693564
H      -2.6824200178     -0.2674311985     -0.3410131742
H      -2.3905464926     -2.1785580984     -0.2378480847
H       0.1092634502      2.4581060701      0.4330959585
H      -1.4302529870      1.7259374692      1.0159637367
H      -1.1642491881      1.9805960592     -0.7544424130
12
Frame=109  time=55.000fs  energy=-306.20432842Ha  molecule=COOCCCHHHHHH
C       0.0285817790      0.3537258223      0.0478970100
O       1.3068344201      0.4054053729      0.0482391084
O       2.0920561810     -0.6903211385     -0.0048023232
C      -0.6485640972     -0.9190250994     -0.1066719075
C      -1.9954719123     -1.1417958444     -0.1945620025
C      -0.6798893610      1.6999299184      0.1885705207
H      -0.0163816561     -1.7930736112     -0.0779237069
H      -2.6613963590     -0.2664805054     -0.3291137987
H      -2.3904601339     -2.1783247932     -0.2334995852
H       0.0858820186      2.4782761698      0.4466943724
H      -1.4186480616      1.7282801935      1.0253213652
H      -1.1678954986      1.9890207297     -0.7491683351
12
Frame=110  time=55.500fs  energy=-306.20395197Ha  molecule=COOCCCHHHHHH
C       0.0241563014      0.3578244996      0.0502383357
O       1.3044641574      0.4042806916      0.0475762379
O       2.0940882393     -0.6897657980     -0.0038829342
C      -0.6503226436     -0.9159847773     -0.1067866330
C      -1.9904116460     -1.1466622047     -0.1988164304
C      -0.6785241303      1.6951144507      0.1880540713
H      -0.0164350656     -1.7822367422     -0.0918925480
H      -2.6421697768     -0.2695075354     -0.3149805919
H      -2.3904098374     -2.1748979951     -0.2296049377
H       0.0630139103      2.4989517361      0.4591815864
H      -1.4067200727      1.7275987148      1.0325637619
H      -1.1736880252      1.9971284543     -0.7467100859
12
Frame=111  time=56.000fs  energy=-306.20326277Ha  molecule=COOCCCHHHHHH
C       0.0195571157      0.3619536075      0.0523281424
O       1.3021463826      0.4034490316      0.0470853546
O       2.0959434089     -0.6892533128     -0.0030523004
C      -0.6522792479     -0.9135292797     -0.1067076282
C      -1.9850909147     -1.1509434241     -0.2032042479
C      -0.6768571289      1.6904687897      0.1879608427
H      -0.0128379737     -1.7725699236     -0.1052024064
H      -2.6259861739     -0.2753843016     -0.2988876426
H      -2.3907117104     -2.1693161419     -0.2264571003
H       0.0416875414      2.5193369675      0.4701041694
H      -1.3951163739      1.7235347052      1.0374657607
H      -1.1812484544      2.0044130240     -0.7463049710
12
Frame=112  time=56.500fs  energy=-306.20241781Ha  molecule=COOCCCHHHHHH
C       0.0148810156      0.3657641769      0.0541454202
O       1.3000053010      0.4028966658      0.0467597145
O       2.0975572452     -0.6887238280     -0.0023050757
C      -0.6541691298     -0.9118755705     -0.1064800985
C      -1.9798708813     -1.1543622685     -0.2076507808
C      -0.6750510778      1.6862661986      0.1882215194
H      -0.0027231516     -1.7634666511     -0.1177417866
H      -2.6151000710     -0.2829913755     -0.2811687071
H      -2.3913744421     -2.1629842794     -0.2242927387
H       0.0224961309      2.5389047635      0.4791482868
H      -1.3847301446      1.7161378960      1.0402364705
H      -1.1898952761      2.0104826764     -0.7466419543
12
Frame=113  time=57.000fs  energy=-306.20184078Ha  molecule=COOCCCHHHHHH
C       0.0102243650      0.3689750841      0.0556786122
O       1.2981287961      0.4026050018      0.0465894961
O       2.0988823540     -0.6881283562     -0.0016346234
C      -0.6557309449     -0.9111983868     -0.1061460228
C      -1.9750602122     -1.1567293885     -0.2120883298
C      -0.6732430385      1.6827230331      0.1887206613
H       0.0156085042     -1.7539888962     -0.1294567678
H      -2.6110777820     -0.2912442370     -0.2621754969
H      -2.3923861396     -2.1572045774     -0.2232862177
H       0.0057717287      2.5571563464      0.4861490860
H      -1.3764330184      1.7056535655      1.0414372177
H      -1.1988273999      2.0149857434     -0.7463879567
12
Frame=114  time=57.500fs  energy=-306.20123442Ha  molecule=COOCCCHHHHHH
C       0.0058715109      0.3718581387      0.0569217907
O       1.2962523909      0.4025803908      0.0465644875
O       2.0999723839     -0.6875201160     -0.0010344848
C      -0.6568962301     -0.9110711804     -0.1057421230
C      -1.9703762759     -1.1585240558     -0.2164576059
C      -0.6715454526      1.6798797669      0.1893432439
H       0.0372270800     -1.7457587269     -0.1403293295
H      -2.6120965835     -0.2986483835     -0.2422438837
H      -2.3943861862     -2.1527075872     -0.2235669481
H      -0.0079869601      2.5731011926      0.4910600427
H      -1.3707537288      1.6921404152      1.0419200251
H      -1.2071540198      2.0173630757     -0.7446692419
12
Frame=115  time=58.000fs  energy=-306.20084198Ha  molecule=COOCCCHHHHHH
C       0.0019761888      0.3747783606      0.0578736488
O       1.2943147229      0.4027198222      0.0466745308
O       2.1008382870     -0.6868697650     -0.0004985961
C      -0.6574200134     -0.9116187378     -0.1053011516
C      -1.9659578235     -1.1597967066     -0.2207065663
C      -0.6700942883      1.6778132451      0.1900035116
H       0.0605444885     -1.7386738208     -0.1503621751
H      -2.6181290012     -0.3049328292     -0.2216882173
H      -2.3975176245     -2.1498416977     -0.2252317166
H      -0.0181598370      2.5855795495      0.4939323585
H      -1.3679685603      1.6754450110      1.0426025088
H      -1.2141926229      2.0168948649     -0.7411682037
12
Frame=116  time=58.500fs  energy=-306.20061466Ha  molecule=COOCCCHHHHHH
C      -0.0014083901      0.3771993802      0.0585332566
O       1.2923316352      0.4031271626      0.0469112812
O       2.1014601413     -0.6861983503     -0.0000221155
C      -0.6572701077     -0.9126138693     -0.1048523337
C      -1.9618876604     -1.1606564428     -0.2247873477
C      -0.6689135294      1.6766795948      0.1906589682
H       0.0844820110     -1.7317341513     -0.1595615401
H      -2.6277452867     -0.3097385265     -0.2007965346
H      -2.4011264932     -2.1489018887     -0.2283690900
H      -0.0250581181      2.5946898657      0.4948735280
H      -1.3684989901      1.6561279947      1.0438363202
H      -1.2198958591      2.0136672653     -0.7356101615
12
Frame=117  time=59.000fs  energy=-306.20067619Ha  molecule=COOCCCHHHHHH
C      -0.0042692632      0.3787782217      0.0588985566
O       1.2903768904      0.4038463277      0.0472684885
O       2.1018097302     -0.6854983866      0.0003985179
C      -0.6564221098     -0.9139494792     -0.1044226053
C      -1.9583007849     -1.1611614920     -0.2286533039
C      -0.6681521985      1.6768606536      0.1913131096
H       0.1081336709     -1.7241223126     -0.1679322419
H      -2.6395024883     -0.3131122743     -0.1798406718
H      -2.4043352904     -2.1499174874     -0.2330707817
H      -0.0279424927      2.5995268762      0.4940306252
H      -1.3723136670      1.6335313983      1.0462416445
H      -1.2242325857      2.0066409259     -0.7286033393
12
Frame=118  time=59.500fs  energy=-306.20082907Ha  molecule=COOCCCHHHHHH
C      -0.0064475359      0.3798811207      0.0589647430
O       1.2883377266      0.4048148768      0.0477423517
O       2.1019075440     -0.6847662633      0.0007654390
C      -0.6546158841     -0.9157461403     -0.1040379492
C      -1.9554107466     -1.1613139034     -0.2322554390
C      -0.6676821827      1.6778339733      0.1920129846
H       0.1304314486     -1.7158296057     -0.1754738063
H      -2.6532040995     -0.3160661963     -0.1590899647
H      -2.4071584207     -2.1521925484     -0.2394438300
H      -0.0280847823      2.6009263543      0.4915793652
H      -1.3793845558      1.6096722758      1.0492648818
H      -1.2275836937      1.9975270050     -0.7201451190
12
Frame=119  time=60.000fs  energy=-306.20105283Ha  molecule=COOCCCHHHHHH
C      -0.0078877086      0.3804923934      0.0587280838
O       1.2862215234      0.4060338454      0.0483298893
O       2.1017444563     -0.6839968741      0.0010801471
C      -0.6517788391     -0.9179713510     -0.1037240489
C      -1.9533737911     -1.1611449447     -0.2355437258
C      -0.6675277919      1.6795392644      0.1928429816
H       0.1506277590     -1.7068043345     -0.1821921946
H      -2.6678108952     -0.3193193160     -0.1388209971
H      -2.4090112599     -2.1552035764     -0.2475927620
H      -0.0256561289      2.5989309154      0.4877448688
H      -1.3893303457      1.5851192922      1.0526369795
H      -1.2303827093      1.9866511867     -0.7110321978
12
Frame=120  time=60.500fs  energy=-306.20128958Ha  molecule=COOCCCHHHHHH
C      -0.0085560495      0.3806087590      0.0581882062
O       1.2840485967      0.4075048316      0.0490281900
O       2.1013120872     -0.6831856346      0.0013438299
C      -0.6479010089     -0.9205630691     -0.1035060457
C      -1.9523022863     -1.1606927289     -0.2384688339
C      -0.6677161042      1.6818831864      0.1939119644
H       0.1682002171     -1.6973597917     -0.1881073334
H      -2.6822949817     -0.3235621397     -0.1193182633
H      -2.4093326887     -2.1584024065     -0.2576061692
H      -0.0208548411      2.5937399121      0.4828073857
H      -1.4015417879      1.5604829483      1.0558952779
H      -1.2331556877      1.9744273486     -0.7022428525
12
Frame=121  time=61.000fs  energy=-306.20147166Ha  molecule=COOCCCHHHHHH
C      -0.0084807873      0.3801873150      0.0573501846
O       1.2819006763      0.4093705809      0.0498338382
O       2.1006612429     -0.6824570563      0.0015575900
C      -0.6430394301     -0.9234087380     -0.1034078602
C      -1.9522223418     -1.1599333078     -0.2409848610
C      -0.6684518436      1.6846878136      0.1953337021
H       0.1826694988     -1.6883137440     -0.1932590239
H      -2.6960842934     -0.3294516026     -0.1008681009
H      -2.4072556704     -2.1614883471     -0.2695419929
H      -0.0134567091      2.5849932082      0.4770997703
H      -1.4151278062      1.5369744862      1.0585436739
H      -1.2363146743      1.9618937917     -0.6948711743
12
Frame=122  time=61.500fs  energy=-306.20176299Ha  molecule=COOCCCHHHHHH
C      -0.0077308106      0.3791804407      0.0562203339
O       1.2798903874      0.4118234890      0.0507428175
O       2.0998656606     -0.6819819519      0.0017248298
C      -0.6373286172     -0.9263632507     -0.1035400695
C      -1.9530636924     -1.1588300616     -0.2427630376
C      -0.6700060583      1.6877283201      0.1972178331
H       0.1937283383     -1.6808436968     -0.1977261713
H      -2.7089594165     -0.3373679719     -0.0849975093
H      -2.4019457261     -2.1644069705     -0.2846095515
H      -0.0031195575      2.5722208336      0.4709509216
H      -1.4291010381      1.5160869459      1.0601006602
H      -1.2400775245      1.9502692634     -0.6899213928
12
Frame=123  time=62.000fs  energy=-306.20216564Ha  molecule=COOCCCHHHHHH
C      -0.0063312368      0.3776602612      0.0548120080
O       1.2780503039      0.4147755831      0.0517506267
O       2.0988883350     -0.6816774105      0.0018482936
C      -0.6309962574     -0.9293053320     -0.1039973785
C      -1.9546878699     -1.1575047809     -0.2435267056
C      -0.6723106264      1.6908597066      0.1996304237
H       0.2016811609     -1.6760607643     -0.2016030154
H      -2.7203521283     -0.3469640450     -0.0730245900
H      -2.3936053451     -2.1670413555     -0.3037852776
H       0.0095336422      2.5564975222      0.4647212437
H      -1.4426995915      1.4982379283      1.0600630392
H      -1.2446322617      1.9396632994     -0.6879486749
12
Frame=124  time=62.500fs  energy=-306.20238104Ha  molecule=COOCCCHHHHHH
C      -0.0042873365      0.3757862501      0.0531548871
O       1.2763609573      0.4179434461      0.0528517729
O       2.0976175503     -0.6812851352      0.0019265807
C      -0.6243410751     -0.9321431597     -0.1047230980
C      -1.9568809588     -1.1561916276     -0.2434945592
C      -0.6750578787      1.6939913628      0.2025502760
H       0.2072062714     -1.6748737236     -0.2049718395
H      -2.7295745778     -0.3572376091     -0.0641438603
H      -2.3832498462     -2.1693388910     -0.3259821374
H       0.0231662902      2.5399582338      0.4588537431
H      -1.4553941338      1.4830352995      1.0581116484
H      -1.2500330632      1.9294613352     -0.6889482465
12
Frame=125  time=63.000fs  energy=-306.20236719Ha  molecule=COOCCCHHHHHH
C      -0.0017034884      0.3736329874      0.0512906745
O       1.2748990988      0.4213002454      0.0540388791
O       2.0960538856     -0.6807852445      0.0019579183
C      -0.6176707423     -0.9347778307     -0.1056253680
C      -1.9593231747     -1.1549947172     -0.2430023418
C      -0.6782456048      1.6969326183      0.2058737196
H       0.2105304009     -1.6780839765     -0.2079283342
H      -2.7368619819     -0.3671174095     -0.0570617341
H      -2.3713840955     -2.1717992546     -0.3496205149
H       0.0371785806      2.5234038500      0.4537844818
H      -1.4666993230      1.4710903859      1.0544512911
H      -1.2558064271      1.9200368118     -0.6925486133
12
Frame=126  time=63.500fs  energy=-306.20208832Ha  molecule=COOCCCHHHHHH
C       0.0012856880      0.3712866981      0.0492653045
O       1.2737431465      0.4248135926      0.0553025736
O       2.0942068076     -0.6801604722      0.0019439446
C      -0.6112807420     -0.9371620005     -0.1067039865
C      -1.9616589938     -1.1540095222     -0.2420885015
C      -0.6818465192      1.6995045148      0.2094447601
H       0.2117198032     -1.6858777644     -0.2106014542
H      -2.7426578760     -0.3754129912     -0.0517794731
H      -2.3586881100     -2.1750480942     -0.3743541061
H       0.0508752369      2.5075577211      0.4498387811
H      -1.4764569063      1.4629754749      1.0496423329
H      -1.2611894627      1.9116341198     -0.6979615284
12
Frame=127  time=64.000fs  energy=-306.20183608Ha  molecule=COOCCCHHHHHH
C       0.0046388318      0.3691141628      0.0471313975
O       1.2727817745      0.4284615547      0.0566320795
O       2.0921438050     -0.6794492701      0.0018870574
C      -0.6055140842     -0.9389866956     -0.1079541992
C      -1.9632411265     -1.1536504099     -0.2408060155
C      -0.6858117857      1.7014893672      0.2130716665
H       0.2074018945     -1.6993064456     -0.2131234459
H      -2.7459176315     -0.3807096411     -0.0482329061
H      -2.3463120249     -2.1795122414     -0.3997952573
H       0.0637336070      2.4926753521      0.4472498757
H      -1.4846484710      1.4589341138      1.0445847816
H      -1.2652190050      1.9042554019     -0.7042744664
12
Frame=128  time=64.500fs  energy=-306.20163392Ha  molecule=COOCCCHHHHHH
C       0.0081717645      0.3671266809      0.0449437641
O       1.2721288031      0.4322051186      0.0580166664
O       2.0898734542     -0.6786280715      0.0017896786
C      -0.6005251397     -0.9404006674     -0.1093691942
C      -1.9638856914     -1.1538705124     -0.2392134874
C      -0.6900654330      1.7027869709      0.2165657875
H       0.1981253842     -1.7169050016     -0.2156192918
H      -2.7473829414     -0.3825528305     -0.0463221574
H      -2.3347500337     -2.1855487490     -0.4255500412
H       0.0749878495      2.4792408459      0.4461644524
H      -1.4915498559      1.4592617913      1.0401104775
H      -1.2671712150      1.8980772598     -0.7104908330
12
Frame=129  time=65.000fs  energy=-306.20148779Ha  molecule=COOCCCHHHHHH
C       0.0116449335      0.3651698050      0.0427574058
O       1.2719933863      0.4359996628      0.0594464122
O       2.0873773247     -0.6776465403      0.0016538499
C      -0.5963541415     -0.9417634720     -0.1109415921
C      -1.9636721894     -1.1544025649     -0.2373704441
C      -0.6945165382      1.7033656691      0.2197694677
H       0.1862063618     -1.7360461501     -0.2182038330
H      -2.7484134667     -0.3812644824     -0.0459306145
H      -2.3240584689     -2.1932445318     -0.4512323288
H       0.0838243735      2.4677747627      0.4466576162
H      -1.4975305541      1.4641875387      1.0368873164
H      -1.2665925298      1.8933584242     -0.7157717665
12
Frame=130  time=65.500fs  energy=-306.20147796Ha  molecule=COOCCCHHHHHH
C       0.0149186817      0.3632948092      0.0406271789
O       1.2724314574      0.4398140841      0.0609125022
O       2.0846752900     -0.6764962802      0.0014810415
C      -0.5930723198     -0.9431898223     -0.1126642906
C      -1.9625222286     -1.1552241884     -0.2353355402
C      -0.6990740758      1.7031679550      0.2225733336
H       0.1714961107     -1.7552951725     -0.2209824273
H      -2.7489144442     -0.3773658277     -0.0469349193
H      -2.3144180102     -2.2022177513     -0.4764649115
H       0.0897020709      2.4584519310      0.4487485893
H      -1.5028006497      1.4736460252      1.0354299203
H      -1.2632062340      1.8902290511     -0.7196657821
12
Frame=131  time=66.000fs  energy=-306.20179931Ha  molecule=COOCCCHHHHHH
C       0.0179584474      0.3619486132      0.0386090289
O       1.2733775308      0.4435563670      0.0624073684
O       2.0818155382     -0.6751715120      0.0012718566
C      -0.5905751933     -0.9449173927     -0.1145315523
C      -1.9604689272     -1.1562725780     -0.2331657942
C      -0.7034907302      1.7016483277      0.2249225949
H       0.1538050835     -1.7737294565     -0.2240536799
H      -2.7493361439     -0.3722055591     -0.0492149612
H      -2.3064019091     -2.2114811289     -0.5008692041
H       0.0910481270      2.4523412400      0.4524214195
H      -1.5075582782      1.4889561385      1.0354273459
H      -1.2571393914      1.8903675342     -0.7215381979
12
Frame=132  time=66.500fs  energy=-306.20228977Ha  molecule=COOCCCHHHHHH
C       0.0205799577      0.3608337491      0.0367632609
O       1.2749654216      0.4472522508      0.0639246150
O       2.0787892894     -0.6736615638      0.0010256588
C      -0.5890193504     -0.9469135938     -0.1165400603
C      -1.9575195375     -1.1575320431     -0.2309176772
C      -0.7078092240      1.6991980803      0.2268149900
H       0.1334264182     -1.7900674541     -0.2275144838
H      -2.7485225465     -0.3666177174     -0.0526600340
H      -2.2994317509     -2.2203892399     -0.5240410843
H       0.0885166797      2.4487620473      0.4576435139
H      -1.5116271753      1.5085153840      1.0372370328
H      -1.2485772979      1.8926927454     -0.7220784400
12
Frame=133  time=67.000fs  energy=-306.20289905Ha  molecule=COOCCCHHHHHH
C       0.0226693786      0.3598711078      0.0351556948
O       1.2772504448      0.4508924778      0.0654585595
O       2.0756045677     -0.6719571210      0.0007409027
C      -0.5884632897     -0.9491873823     -0.1186876461
C      -1.9537541375     -1.1589674492     -0.2286509405
C      -0.7119894661      1.6959437901      0.2283024163
H       0.1108738206     -1.8036117431     -0.2314593375
H      -2.7456857056     -0.3617921900     -0.0571503596
H      -2.2931877246     -2.2280121110     -0.5455421544
H       0.0822927955      2.4475489710      0.4643478985
H      -1.5147459248      1.5313878075      1.0405697376
H      -1.2380632057      1.8969900150     -0.7219958229
12
Frame=134  time=67.500fs  energy=-306.20352819Ha  molecule=COOCCCHHHHHH
C       0.0241635461      0.3590578602      0.0338564123
O       1.2802360665      0.4544548420      0.0670040217
O       2.0722781628     -0.6700515443      0.0004154639
C      -0.5889081152     -0.9517310181     -0.1209722360
C      -1.9493085908     -1.1605378747     -0.2264304027
C      -0.7159682362      1.6919335944      0.2294851894
H       0.0870270939     -1.8142441301     -0.2359738575
H      -2.7402765401     -0.3589136266     -0.0625411576
H      -2.2874813542     -2.2333936420     -0.5649068961
H       0.0725620393      2.4487043840      0.4724127661
H      -1.5165741343      1.5567285748      1.0446848485
H      -1.2264304573      1.9033394728     -0.7221194927
12
Frame=135  time=68.000fs  energy=-306.20405427Ha  molecule=COOCCCHHHHHH
C       0.0250421597      0.3583793149      0.0329356400
O       1.2838868159      0.4579185101      0.0685563173
O       2.0688311867     -0.6679427906      0.0000470388
C      -0.5903139834     -0.9544862598     -0.1233911262
C      -1.9443560414     -1.1622086660     -0.2243252568
C      -0.7196992667      1.6872550813      0.2304936210
H       0.0631738326     -1.8223975939     -0.2411228704
H      -2.7319966136     -0.3587898055     -0.0686514927
H      -2.2822204500     -2.2358195436     -0.5816682236
H       0.0598044075      2.4521666687      0.4816437167
H      -1.5167656328      1.5834553558      1.0485999066
H      -1.2146765058      1.9117341468     -0.7233422509
12
Frame=136  time=68.500fs  energy=-306.20435267Ha  molecule=COOCCCHHHHHH
C       0.0253336562      0.3578090481      0.0324570235
O       1.2881230796      0.4612651251      0.0701114135
O       2.0652902728     -0.6656355244     -0.0003663757
C      -0.5925834976     -0.9573532898     -0.1259407790
C      -1.9390893028     -1.1639577763     -0.2224056252
C      -0.7231580917      1.6820396256      0.2314555120
H       0.0408798382     -1.8289527288     -0.2469355269
H      -2.7209668552     -0.3615814037     -0.0752616406
H      -2.2774911658     -2.2350192699     -0.5953997907
H       0.0447824344      2.4577743227      0.4917661289
H      -1.5151132715      1.6103131411      1.0512912631
H      -1.2037821813      1.9220238790     -0.7263748373
12
Frame=137  time=69.000fs  energy=-306.20431869Ha  molecule=COOCCCHHHHHH
C       0.0251120749      0.3573116001      0.0324698009
O       1.2928249835      0.4644798980      0.0716661713
O       2.0616876221     -0.6631422714     -0.0008259959
C      -0.5955491389     -0.9602161678     -0.1286171648
C      -1.9337007476     -1.1657787234     -0.2207368935
C      -0.7263424985      1.6764588260      0.2324566268
H       0.0217157022     -1.8349535352     -0.2533927315
H      -2.7078020074     -0.3666744827     -0.0821220358
H      -2.2735961570     -2.2312814396     -0.6057655716
H       0.0284524250      2.4652295390      0.5024342537
H      -1.5117030817      1.6360027862      1.0519654157
H      -1.1944918029      1.9338767460     -0.7314911521
12
Frame=138  time=69.500fs  energy=-306.20389423Ha  molecule=COOCCCHHHHHH
C       0.0244864152      0.3568472213      0.0330016068
O       1.2978437649      0.4675525866      0.0732186163
O       2.0580598455     -0.6604834276     -0.0013318452
C      -0.5989701332     -0.9629782550     -0.1314160988
C      -1.9283684276     -1.1676764511     -0.2193729850
C      -0.7292677675      1.6707130001      0.2335110227
H       0.0069106996     -1.8412178812     -0.2604227901
H      -2.6935274026     -0.3727972119     -0.0889731362
H      -2.2710162969     -2.2254192829     -0.6125658955
H       0.0118192707      2.4740740384      0.5132587589
H      -1.5070085399      1.6593372866      1.0502968024
H      -1.1871438895      1.9467775583     -0.7383796180
12
Frame=139  time=70.000fs  energy=-306.20310765Ha  molecule=COOCCCHHHHHH
C       0.0235864239      0.3563773590      0.0340532547
O       1.3030165529      0.4704786615      0.0747682021
O       2.0544456941     -0.6576863731     -0.0018825243
C      -0.6025458986     -0.9655923833     -0.1343327132
C      -1.9232519341     -1.1696565482     -0.2183498877
C      -0.7319583209      1.6650128121      0.2345585344
H      -0.0029325216     -1.8480180192     -0.2679092642
H      -2.6793420290     -0.3783752015     -0.0955723846
H      -2.2702900173     -2.2185777497     -0.6157710810
H      -0.0042191177      2.4836985640      0.5238512205
H      -1.5018564565      1.6793786827      1.0465138584
H      -1.1816398056      1.9600764171     -0.7462043554
12
Frame=140  time=70.500fs  energy=-306.20209341Ha  molecule=COOCCCHHHHHH
C       0.0225469009      0.3558697394      0.0355975161
O       1.3081823055      0.4732604837      0.0763159448
O       2.0508827911     -0.6547835909     -0.0024752960
C      -0.6059528432     -0.9680691992     -0.1373600705
C      -1.9184940325     -1.1717141483     -0.2176814397
C      -0.7344389986      1.6595553694      0.2354925091
H      -0.0079178667     -1.8550196554     -0.2757105538
H      -2.6663053545     -0.3820051745     -0.1017213828
H      -2.2718395891     -2.2119215189     -0.6155295272
H      -0.0189902979      2.4934079656      0.5338782460
H      -1.4972528510      1.6955210214      1.0412860757
H      -1.1775664307      1.9730843239     -0.7538750347
12
Frame=141  time=71.000fs  energy=-306.20106925Ha  molecule=COOCCCHHHHHH
C       0.0215138796      0.3553355982      0.0375846953
O       1.3131678340      0.4758191161      0.0778642257
O       2.0473687439     -0.6517295484     -0.0031065692
C      -0.6089029828     -0.9704714786     -0.1404884539
C      -1.9142313745     -1.1738750995     -0.2173603030
C      -0.7366215792      1.6545329541      0.2362023737
H      -0.0085419201     -1.8614328321     -0.2836840125
H      -2.6548775985     -0.3827458884     -0.1072823863
H      -2.2760813633     -2.2062166166     -0.6121328289
H      -0.0323756914      2.5029836667      0.5431047229
H      -1.4942070897      1.7071445459      1.0354203214
H      -1.1744676295      1.9848355408     -0.7603404070
12
Frame=142  time=71.500fs  energy=-306.20025355Ha  molecule=COOCCCHHHHHH
C       0.0205742769      0.3547167683      0.0399565059
O       1.3178839129      0.4781305887      0.0794162887
O       2.0439061211     -0.6485145021     -0.0037735406
C      -0.6111494887     -0.9729362677     -0.1436748309
C      -1.9106484159     -1.1760525311     -0.2174686142
C      -0.7384753545      1.6500859716      0.2366020493
H      -0.0049059838     -1.8661231986     -0.2916976222
H      -2.6455058557     -0.3804752941     -0.1117281117
H      -2.2828949780     -2.2018668578     -0.6055120405
H      -0.0443514140      2.5121184370      0.5514179213
H      -1.4934660072      1.7141064612      1.0296649563
H      -1.1719618411      1.9947712594     -0.7648740506
12
Frame=143  time=72.000fs  energy=-306.19963763Ha  molecule=COOCCCHHHHHH
C       0.0197620109      0.3539269607      0.0426548881
O       1.3223022838      0.4803303607      0.0809758839
O       2.0405608962     -0.6452722499     -0.0044733436
C      -0.6125115950     -0.9755435017     -0.1469047103
C      -1.9078757342     -1.1781017822     -0.2179929092
C      -0.7401563298      1.6462533430      0.2366509998
H       0.0024187217     -1.8683803812     -0.2996472731
H      -2.6385183675     -0.3757236320     -0.1149641163
H      -2.2915396357     -2.1990473164     -0.5959617142
H      -0.0544927136      2.5198144435      0.5587706624
H      -1.4953813336      1.7169919088      1.0246419524
H      -1.1697053007      2.0030658926     -0.7672179973
12
Frame=144  time=72.500fs  energy=-306.19935545Ha  molecule=COOCCCHHHHHH
C       0.0190369831      0.3524344604      0.0456271178
O       1.3264560204      0.4825443689      0.0825471795
O       2.0373295840     -0.6420518134     -0.0052030569
C      -0.6131509095     -0.9780010273     -0.1502058729
C      -1.9058283854     -1.1801489430     -0.2187904946
C      -0.7419240688      1.6438512684      0.2363529294
H       0.0118695373     -1.8678347999     -0.3074529226
H      -2.6317999160     -0.3683251364     -0.1174803147
H      -2.3008345986     -2.1979504008     -0.5842646940
H      -0.0608809016      2.5241369053      0.5651416082
H      -1.4999238485      1.7134794114      1.0215443226
H      -1.1673644275      2.0070429846     -0.7682489527
12
Frame=145  time=73.000fs  energy=-306.19974596Ha  molecule=COOCCCHHHHHH
C       0.0197914718      0.3502229438      0.0488325953
O       1.3295748884      0.4847648566      0.0841351061
O       2.0342186527     -0.6388510983     -0.0059621176
C      -0.6130857428     -0.9804140039     -0.1535721458
C      -1.9048953880     -1.1821715085     -0.2198440459
C      -0.7438505733      1.6430816320      0.2357328527
H       0.0238629231     -1.8638050608     -0.3150337839
H      -2.6240373204     -0.3582926427     -0.1192501727
H      -2.3094539309     -2.1989030668     -0.5706353200
H      -0.0621021731      2.5234041368      0.5705405226
H      -1.5086931969      1.7037648150      1.0194527766
H      -1.1665647518      2.0067103885     -0.7671318431
12
Frame=146  time=73.500fs  energy=-306.20052359Ha  molecule=COOCCCHHHHHH
C       0.0218730468      0.3487417425      0.0522398047
O       1.3315510287      0.4867193162      0.0857461264
O       2.0313425769     -0.6356630158     -0.0067517476
C      -0.6117737046     -0.9833448015     -0.1569993926
C      -1.9052885674     -1.1839662884     -0.2211478484
C      -0.7457341305      1.6430540006      0.2348368769
H       0.0376654936     -1.8574822614     -0.3222979095
H      -2.6175297569     -0.3479162689     -0.1202145832
H      -2.3185889841     -2.2004666632     -0.5551929634
H      -0.0595541369      2.5183393378      0.5749667812
H      -1.5210671860      1.6894485088      1.0181198887
H      -1.1669383626      2.0036201346     -0.7640247621
12
Frame=147  time=74.000fs  energy=-306.20152779Ha  molecule=COOCCCHHHHHH
C       0.0242354326      0.3477143694      0.0558179539
O       1.3328169431      0.4885143151      0.0873889502
O       2.0287682725     -0.6325782409     -0.0075746394
C      -0.6091278752     -0.9865388314     -0.1604852698
C      -1.9068405751     -1.1855230603     -0.2227017441
C      -0.7474364176      1.6436592674      0.2337436307
H       0.0524989697     -1.8492392249     -0.3291287138
H      -2.6120735498     -0.3385260615     -0.1202890619
H      -2.3283103161     -2.2015993389     -0.5380166601
H      -0.0547285750      2.5105652795      0.5784289813
H      -1.5357672295      1.6706233052      1.0178904497
H      -1.1677645865      1.9979046916     -0.7600984876
12
Frame=148  time=74.500fs  energy=-306.20268919Ha  molecule=COOCCCHHHHHH
C       0.0267989621      0.3468049816      0.0595276731
O       1.3332871443      0.4902584435      0.0890749196
O       2.0265597350     -0.6296790643     -0.0084343271
C      -0.6052005716     -0.9897461508     -0.1640274823
C      -1.9095417138     -1.1868512241     -0.2245028843
C      -0.7488540339      1.6448431963      0.2325750000
H       0.0683697610     -1.8394348219     -0.3353865997
H      -2.6067916597     -0.3309099934     -0.1193849383
H      -2.3380163906     -2.2017350521     -0.5192094853
H      -0.0483162488      2.5010025135      0.5809822236
H      -1.5524310635      1.6477744202      1.0179899798
H      -1.1696337230      1.9901035701     -0.7559273593
12
Frame=149  time=75.000fs  energy=-306.20386312Ha  molecule=COOCCCHHHHHH
C       0.0294697656      0.3460653842      0.0633149407
O       1.3328864336      0.4919694064      0.0908178220
O       2.0247955046     -0.6270242495     -0.0093345358
C      -0.6000652668     -0.9928685563     -0.1676222640
C      -1.9133307961     -1.1879120948     -0.2265388512
C      -0.7499600543      1.6465136732      0.2314901838
H       0.0854478136     -1.8291161370     -0.3409178057
H      -2.6015331422     -0.3259277830     -0.1174332407
H      -2.3473343428     -2.2002843324     -0.4989461808
H      -0.0405508467      2.4901706912      0.5827588523
H      -1.5701912460      1.6210600906      1.0176348952
H      -1.1729821769      1.9803570634     -0.7525140375
12
Frame=150  time=75.500fs  energy=-306.20484091Ha  molecule=COOCCCHHHHHH
C       0.0321165188      0.3455502357      0.0671089620
O       1.3315775676      0.4936662666      0.0926329973
O       2.0235515867     -0.6246703756     -0.0102784539
C      -0.5939325698     -0.9957834455     -0.1712631571
C      -1.9179860496     -1.1886878752     -0.2287826104
C      -0.7507522313      1.6485217088      0.2306551224
H       0.1039499496     -1.8196455530     -0.3455721490
H      -2.5964390414     -0.3239501591     -0.1144100170
H      -2.3560203010     -2.1969584246     -0.4775023723
H      -0.0317868627      2.4788574570      0.5839828071
H      -1.5879362421      1.5909301680      1.0159461129
H      -1.1780968107      1.9689185470     -0.7508276631
12
Frame=151  time=76.000fs  energy=-306.20540239Ha  molecule=COOCCCHHHHHH
C       0.0345767707      0.3453095178      0.0708252039
O       1.3293805722      0.4953647233      0.0945357406
O       2.0228892733     -0.6226615965     -0.0112680237
C      -0.5871402594     -0.9983740471     -0.1749402274
C      -1.9231134060     -1.1891894621     -0.2311908674
C      -0.7512571312      1.6506686353      0.2301904822
H       0.1239473455     -1.8123385412     -0.3492276946
H      -2.5920115031     -0.3246320096     -0.1103565595
H      -2.3640455227     -2.1919480698     -0.4552566538
H      -0.0225315125      2.4680354658      0.5849566155
H      -1.6045448630      1.5581967619      1.0122554942
H      -1.1848984897      1.9561261839     -0.7514814943
12
Frame=152  time=76.500fs  energy=-306.20537956Ha  molecule=COOCCCHHHHHH
C       0.0366739868      0.3453805101      0.0743734216
O       1.3263804083      0.4970716153      0.0965394072
O       2.0228443034     -0.6210201466     -0.0123035069
C      -0.5800974970     -1.0005692680     -0.1786401175
C      -1.9281948870     -1.1894534057     -0.2337068700
C      -0.7515234001      1.6527306053      0.2301223360
H       0.1451364926     -1.8079723360     -0.3518131970
H      -2.5890196169     -0.3269556732     -0.1053857729
H      -2.3716090913     -2.1859446615     -0.4326615123
H      -0.0134512904      2.4586870098      0.5860206631
H      -1.6191897370      1.5240145588      1.0064336699
H      -1.1928056400      1.9423499183     -0.7544709930
12
Frame=153  time=77.000fs  energy=-306.20474572Ha  molecule=COOCCCHHHHHH
C       0.0382421307      0.3457813875      0.0776686403
O       1.3227196676      0.4987819756      0.0986535925
O       2.0234203492     -0.6197413151     -0.0133834023
C      -0.5732079687     -1.0023710204     -0.1823471607
C      -1.9326865922     -1.1895290861     -0.2362663242
C      -0.7516069791      1.6544920806      0.2303688546
H       0.1667217628     -1.8064489908     -0.3533202319
H      -2.5882397925     -0.3295854783     -0.0996736032
H      -2.3790423399     -2.1799421770     -0.4101941207
H      -0.0053347754      2.4516030391      0.5875006054
H      -1.6315410991      1.4897582400      0.9990235368
H      -1.2008034021      1.9279516202     -0.7591612933
12
Frame=154  time=77.500fs  energy=-306.20367799Ha  molecule=COOCCCHHHHHH
C       0.0391537482      0.3465072380      0.0806424999
O       1.3185769497      0.5004807549      0.1008827117
O       2.0245880812     -0.6187947254     -0.0145046353
C      -0.5668047516     -1.0038491378     -0.1860453644
C      -1.9361341998     -1.1894643891     -0.2388046661
C      -0.7515569895      1.6557783534      0.2307751429
H       0.1875446694     -1.8068661838     -0.3538028028
H      -2.5901359261     -0.3313792287     -0.0934385154
H      -2.3866249511     -2.1748721503     -0.3883006746
H       0.0010091570      2.4472391166      0.5896598601
H      -1.6417634301      1.4568162728      0.9910641521
H      -1.2077263647      1.9132741933     -0.7645546354
12
Frame=155  time=78.000fs  energy=-306.20248205Ha  molecule=COOCCCHHHHHH
C       0.0393412758      0.3475304596      0.0832507412
O       1.3141353159      0.5021479020      0.1032258003
O       2.0262917298     -0.6181320057     -0.0156630361
C      -0.5611161540     -1.0051057309     -0.1897204704
C      -1.9382599907     -1.1892961099     -0.2412643135
C      -0.7514098725      1.6564764776      0.2311751694
H       0.2064157330     -1.8079590922     -0.3533640096
H      -2.5946500837     -0.3317920035     -0.0869115167
H      -2.3944113493     -2.1712603686     -0.3673485378
H       0.0048994889      2.4456918585      0.5926702359
H      -1.6503301572      1.4263661867      0.9837054736
H      -1.2126040495      1.8986400858     -0.7696723720
12
Frame=156  time=78.500fs  energy=-306.20142322Ha  molecule=COOCCCHHHHHH
C       0.0387979007      0.3488070834      0.0854722929
O       1.3095539490      0.5037631452      0.1056781440
O       2.0284625456     -0.6176979632     -0.0168540861
C      -0.5562688470     -1.0062337767     -0.1933610165
C      -1.9389764240     -1.1890470105     -0.2435991647
C      -0.7511920978      1.6565350525      0.2314443524
H       0.2224189691     -1.8085908576     -0.3521322275
H      -2.6012359822     -0.3309447599     -0.0803065483
H      -2.4021879219     -2.1691280514     -0.3476070582
H       0.0058904382      2.4467970160      0.5966121288
H      -1.6577765086      1.3992417301      0.9778527361
H      -1.2148719060      1.8843464639     -0.7738356556
12
Frame=157  time=79.000fs  energy=-306.20063404Ha  molecule=COOCCCHHHHHH
C       0.0375594720      0.3502855613      0.0873010637
O       1.3049559058      0.5053080438      0.1082338563
O       2.0310326215     -0.6174398399     -0.0180736364
C      -0.5523180071     -1.0072928406     -0.1969580049
C      -1.9383329867     -1.1887285701     -0.2457742365
C      -0.7509261501      1.6559463915      0.2315205511
H       0.2350205962     -1.8080176836     -0.3502373068
H      -2.6090701772     -0.3294004289     -0.0738054768
H      -2.4095565334     -2.1681391298     -0.3292646443
H       0.0037765259      2.4502709500      0.6014996976
H      -1.6645222534      1.3759456800      0.9740110129
H      -1.2143799236      1.8706649986     -0.7767470266
12
Frame=158  time=79.500fs  energy=-306.20016141Ha  molecule=COOCCCHHHHHH
C       0.0354622517      0.3519112264      0.0887363289
O       1.3005458406      0.5067698612      0.1108879605
O       2.0339460573     -0.6173164194     -0.0193182966
C      -0.5492679878     -1.0082875239     -0.2005037176
C      -1.9363997544     -1.1883439276     -0.2477618263
C      -0.7506259645      1.6547066893      0.2313991837
H       0.2438788042     -1.8059964836     -0.3477968469
H      -2.6173912962     -0.3280076178     -0.0675604238
H      -2.4161736201     -2.1676930925     -0.3124648788
H      -0.0016766972      2.4560385733      0.6073109218
H      -1.6705508787      1.3566946210      0.9724861291
H      -1.2110303096      1.8577961535     -0.7786106594
12
Frame=159  time=80.000fs  energy=-306.19985305Ha  molecule=COOCCCHHHHHH
C       0.0327888781      0.3533966374      0.0897751177
O       1.2962741874      0.5081853305      0.1136376227
O       2.0371473137     -0.6173007572     -0.0205855257
C      -0.5471950693     -1.0091049565     -0.2039902914
C      -1.9333312797     -1.1879336833     -0.2495366161
C      -0.7502920717      1.6528515201      0.2311194150
H       0.2491531260     -1.8023294955     -0.3449127345
H      -2.6248498415     -0.3272100902     -0.0617060561
H      -2.4212764629     -2.1674754197     -0.2973441943
H      -0.0104991991      2.4640135905      0.6140093588
H      -1.6763125345      1.3420100470      0.9727793339
H      -1.2055573724      1.8463656076     -0.7793404289
12
Frame=160  time=80.500fs  energy=-306.20010976Ha  molecule=COOCCCHHHHHH
C       0.0295583352      0.3535952265      0.0904091244
O       1.2922053243      0.5098058334      0.1164823262
O       2.0405759346     -0.6174393828     -0.0218734661
C      -0.5463547374     -1.0091635507     -0.2074086590
C      -1.9291034908     -1.1876663412     -0.2510722838
C      -0.7497837000      1.6503779238      0.2307532324
H       0.2509765848     -1.7966172771     -0.3416762006
H      -2.6290215020     -0.3268960652     -0.0563725174
H      -2.4238011769     -2.1673724110     -0.2840547299
H      -0.0240530381      2.4758463043      0.6215504671
H      -1.6822656111      1.3334288647      0.9738064686
H      -1.1989702346      1.8380853719     -0.7786359688
12
Frame=161  time=81.000fs  energy=-306.20053310Ha  molecule=COOCCCHHHHHH
C       0.0258805078      0.3532015619      0.0906194602
O       1.2883746107      0.5114198277      0.1194245205
O       2.0442167974     -0.6176416972     -0.0231808257
C      -0.5465962012     -1.0087638698     -0.2107467485
C      -1.9239644867     -1.1874366084     -0.2523365604
C      -0.7492764077      1.6473253290      0.2303985418
H       0.2496883747     -1.7899146176     -0.3381728337
H      -2.6303481465     -0.3280628933     -0.0517028684
H      -2.4236372995     -2.1668013970     -0.2727991118
H      -0.0410465425      2.4900749346      0.6298858865
H      -1.6878760791      1.3300670703      0.9755032971
H      -1.1914814476      1.8322707540     -0.7774827814
12
Frame=162  time=81.500fs  energy=-306.20106032Ha  molecule=COOCCCHHHHHH
C       0.0218731534      0.3528750178      0.0903817121
O       1.2848158793      0.5128171238      0.1224684460
O       2.0480563291     -0.6178169818     -0.0245065265
C      -0.5477681427     -1.0081683837     -0.2139897334
C      -1.9181607723     -1.1871505329     -0.2532929029
C      -0.7489594371      1.6437405376      0.2301756235
H       0.2457547531     -1.7834820920     -0.3344949097
H      -2.6293665085     -0.3314636329     -0.0478546671
H      -2.4207071800     -2.1653304634     -0.2638156282
H      -0.0601120960      2.5052907813      0.6389440083
H      -1.6925438722      1.3310341002      0.9776286425
H      -1.1834013236      1.8282921560     -0.7769189096
12
Frame=163  time=82.000fs  energy=-306.20163920Ha  molecule=COOCCCHHHHHH
C       0.0176395844      0.3526253265      0.0896724939
O       1.2815678896      0.5139422272      0.1256186841
O       2.0520657721     -0.6179187418     -0.0258493436
C      -0.5498337696     -1.0073083714     -0.2171229151
C      -1.9118520526     -1.1868210247     -0.2538978027
C      -0.7489361443      1.6396753637      0.2302159761
H       0.2397365812     -1.7783112825     -0.3307496315
H      -2.6258839399     -0.3370656275     -0.0450208497
H      -2.4147342371     -2.1629449455     -0.2573768430
H      -0.0806211756      2.5211471947      0.6486082148
H      -1.6959566367      1.3361730072      0.9794176959
H      -1.1753944007      1.8263418115     -0.7775643119
12
Frame=164  time=82.500fs  energy=-306.20228298Ha  molecule=COOCCCHHHHHH
C       0.0133032864      0.3524527609      0.0884684717
O       1.2786634195      0.5147373350      0.1288791069
O       2.0562123719     -0.6178966786     -0.0272050502
C      -0.5527059191     -1.0061155183     -0.2202312888
C      -1.9052097996     -1.1864730708     -0.2537821706
C      -0.7493256280      1.6352113243      0.2306575335
H       0.2322594805     -1.7753875201     -0.3270812543
H      -2.6200338934     -0.3443824944     -0.0448126721
H      -2.4056561663     -2.1599280294     -0.2550964984
H      -0.1017814565      2.5372294477      0.6586537309
H      -1.6979095135      1.3452345415      0.9800896144
H      -1.1680603137      1.8264940021     -0.7799236658
12
Frame=165  time=83.000fs  energy=-306.20288506Ha  molecule=COOCCCHHHHHH
C       0.0089967842      0.3523333005      0.0867628832
O       1.2761395214      0.5151809679      0.1322517608
O       2.0604735357     -0.6177303908     -0.0285721324
C      -0.5562275112     -1.0045373736     -0.2232830937
C      -1.8984120769     -1.1861239208     -0.2529639032
C      -0.7502973580      1.6304520134      0.2315820224
H       0.2238368616     -1.7754886957     -0.3236251733
H      -2.6123950748     -0.3524931688     -0.0471835939
H      -2.3935787176     -2.1569351305     -0.2569777154
H      -0.1225663005      2.5528447964      0.6688499738
H      -1.6983288894      1.3579017884      0.9790743127
H      -1.1618674966      1.8289200347     -0.7842193525
12
Frame=166  time=83.500fs  energy=-306.20325063Ha  molecule=COOCCCHHHHHH
C       0.0048816891      0.3522600879      0.0845690745
O       1.2739985668      0.5151859071      0.1357355574
O       2.0647940771     -0.6173350307     -0.0299509349
C      -0.5601677274     -1.0025747137     -0.2261604056
C      -1.8916555607     -1.1858330697     -0.2517591293
C      -0.7519227080      1.6255641277      0.2329918004
H       0.2149022390     -1.7788318717     -0.3205067581
H      -2.6036996939     -0.3600318440     -0.0508165424
H      -2.3791109237     -2.1548244773     -0.2617659521
H      -0.1421506464      2.5675574393      0.6789499553
H      -1.6974759134      1.3733843033      0.9761298188
H      -1.1571159595      1.8334067858     -0.7902111575
12
Frame=167  time=84.000fs  energy=-306.20327251Ha  molecule=COOCCCHHHHHH
C       0.0011083405      0.3522045035      0.0819152655
O       1.2722431187      0.5147132625      0.1393249705
O       2.0691307598     -0.6166632585     -0.0313388119
C      -0.5642191874     -1.0002813551     -0.2288438179
C      -1.8851460887     -1.1856378984     -0.2501940590
C      -0.7542868088      1.6207315504      0.2348234266
H       0.2055562139     -1.7849950327     -0.3178648239
H      -2.5949285450     -0.3655834794     -0.0556677090
H      -2.3630064553     -2.1546079012     -0.2693605544
H      -0.1596852960      2.5806431152      0.6886226199
H      -1.6959721176      1.3909652654      0.9714893663
H      -1.1537409620      1.8396725560     -0.7972604137
12
Frame=168  time=84.500fs  energy=-306.20312145Ha  molecule=COOCCCHHHHHH
C      -0.0021234533      0.3521458719      0.0788499012
O       1.2711704355      0.5134029947      0.1430097719
O       2.0732873872     -0.6154011028     -0.0327328499
C      -0.5680416352     -0.9975384425     -0.2313197381
C      -1.8791639125     -1.1857605889     -0.2483138002
C      -0.7577056677      1.6160503771      0.2369440751
H       0.1960839195     -1.7924722047     -0.3158188061
H      -2.5862691821     -0.3677190493     -0.0616274054
H      -2.3470276549     -2.1568218685     -0.2795322404
H      -0.1741168633      2.5905090531      0.6975409024
H      -1.6945877747      1.4105883855      0.9659435513
H      -1.1512953787      1.8480316512     -0.8045530052
12
Frame=169  time=85.000fs  energy=-306.20285359Ha  molecule=COOCCCHHHHHH
C      -0.0047315713      0.3520494348      0.0754349738
O       1.2706810111      0.5113473575      0.1467763829
O       2.0772686277     -0.6136006151     -0.0341300243
C      -0.5713020771     -0.9945371750     -0.2335803659
C      -1.8739151856     -1.1861517629     -0.2461760947
C      -0.7620991600      1.6117371140      0.2391885732
H       0.1861285502     -1.8001107796     -0.3144632860
H      -2.5785125935     -0.3660586348     -0.0685386085
H      -2.3316750972     -2.1619583857     -0.2919609582
H      -0.1851645960      2.5966459196      0.7054182182
H      -1.6943156083      1.4312729267      0.9603536524
H      -1.1493583668      1.8578197052     -0.8110539397
12
Frame=170  time=85.500fs  energy=-306.20254257Ha  molecule=COOCCCHHHHHH
C      -0.0067100686      0.3518768469      0.0717389649
O       1.2704832035      0.5088670120      0.1506094228
O       2.0811812832     -0.6114986881     -0.0355272735
C      -0.5737232179     -0.9916031409     -0.2356226308
C      -1.8695625809     -1.1866202740     -0.2438450178
C      -0.7671820183      1.6080467779      0.2414003778
H       0.1751465271     -1.8071405716     -0.3138687966
H      -2.5724930310     -0.3611816447     -0.0762171666
H      -2.3166673444     -2.1701451729     -0.3062778270
H      -0.1930174314      2.5991734347      0.7120314805
H      -1.6960893421      1.4516246479      0.9554917252
H      -1.1476129965      1.8679386490     -0.8158228138
12
Frame=171  time=86.000fs  energy=-306.20233704Ha  molecule=COOCCCHHHHHH
C      -0.0080278018      0.3516041180      0.0678312585
O       1.2705367438      0.5060196984      0.1544929571
O       2.0850134369     -0.6091171486     -0.0369214778
C      -0.5751176661     -0.9888537526     -0.2374466262
C      -1.8662985447     -1.1871232492     -0.2413862840
C      -0.7728742042      1.6051195931      0.2434631322
H       0.1631488850     -1.8127190582     -0.3140863785
H      -2.5681224018     -0.3540444082     -0.0844677034
H      -2.3022468628     -2.1807695052     -0.3220999061
H      -0.1976727034      2.5977167775      0.7172284311
H      -1.7004661106      1.4708910743      0.9520234372
H      -1.1457977645      1.8779499590     -0.8183529664
12
Frame=172  time=86.500fs  energy=-306.20228010Ha  molecule=COOCCCHHHHHH
C      -0.0086766807      0.3512118571      0.0637786561
O       1.2708091467      0.5028704738      0.1584112194
O       2.0887578348     -0.6064833830     -0.0383093042
C      -0.5753881953     -0.9863703020     -0.2390535624
C      -1.8642793944     -1.1876137862     -0.2388647819
C      -0.7790912058      1.6030623708      0.2453165470
H       0.1504088997     -1.8164420222     -0.3151555437
H      -2.5651143597     -0.3459824216     -0.0930931860
H      -2.2885129731     -2.1928990634     -0.3390541352
H      -0.1991933518      2.5920844270      0.7209193317
H      -1.7076580504      1.4883708097      0.9502952185
H      -1.1438664475      1.8875156339     -0.8185242550
12
Frame=173  time=87.000fs  energy=-306.20243315Ha  molecule=COOCCCHHHHHH
C      -0.0086423884      0.3511640286      0.0596451452
O       1.2712706305      0.4993710912      0.1623485378
O       2.0924203310     -0.6035923921     -0.0396870224
C      -0.5744139909     -0.9844343786     -0.2404447115
C      -1.8636871153     -1.1879764393     -0.2363448680
C      -0.7858296080      1.6019623091      0.2469586077
H       0.1374939360     -1.8186678043     -0.3171091122
H      -2.5638564524     -0.3387820189     -0.1018950375
H      -2.2757595162     -2.2053081503     -0.3567813072
H      -0.1969852351      2.5814529690      0.7230690150
H      -1.7172965691      1.5027703042      0.9506086206
H      -1.1417703245      1.8957700523     -0.8168949185
12
Frame=174  time=87.500fs  energy=-306.20286101Ha  molecule=COOCCCHHHHHH
C      -0.0079366909      0.3517018247      0.0554932627
O       1.2719045228      0.4955354751      0.1662887694
O       2.0960048192     -0.6004592243     -0.0410502293
C      -0.5722001579     -0.9831854977     -0.2416207602
C      -1.8646136501     -1.1881398548     -0.2338922055
C      -0.7930535185      1.6018719856      0.2484385067
H       0.1251964823     -1.8200000280     -0.3199766540
H      -2.5644737341     -0.3339952729     -0.1106680722
H      -2.2641906775     -2.2168304783     -0.3749304945
H      -0.1907641288      2.5655785404      0.7236894970
H      -1.7287980273      1.5131244831      0.9527958193
H      -1.1397687060      1.9022409705     -0.8141901073
12
Frame=175  time=88.000fs  energy=-306.20330604Ha  molecule=COOCCCHHHHHH
C      -0.0066427163      0.3520021016      0.0513863182
O       1.2727182802      0.4916516346      0.1702144431
O       2.0994964692     -0.5971838190     -0.0423936342
C      -0.5690653409     -0.9822128531     -0.2425827546
C      -1.8669156305     -1.1882103372     -0.2315759825
C      -0.8005524929      1.6027834997      0.2498447554
H       0.1144292745     -1.8206491036     -0.3237805699
H      -2.5656622202     -0.3321805111     -0.1191925781
H      -2.2535502871     -2.2267323244     -0.3931460283
H      -0.1817544196      2.5462704594      0.7228458340
H      -1.7418036271      1.5199255367      0.9557395823
H      -1.1387803516      1.9079511513     -0.8106895018
12
Frame=176  time=88.500fs  energy=-306.20372691Ha  molecule=COOCCCHHHHHH
C      -0.0048330991      0.3520085187      0.0473887824
O       1.2737153059      0.4878308230      0.1741063628
O       2.1029001721     -0.5938165526     -0.0437112791
C      -0.5652340257     -0.9814646613     -0.2433353811
C      -1.8704630002     -1.1882053163     -0.2294681288
C      -0.8082326130      1.6046561225      0.2512863309
H       0.1062023693     -1.8214960226     -0.3285195057
H      -2.5675210355     -0.3339049665     -0.1272331004
H      -2.2441058707     -2.2343055883     -0.4110600939
H      -0.1701820865      2.5243200800      0.7206819367
H      -1.7553766631      1.5227973160      0.9586460574
H      -1.1394194054      1.9130065666     -0.8072915408
12
Frame=177  time=89.000fs  energy=-306.20403598Ha  molecule=COOCCCHHHHHH
C      -0.0026110498      0.3516841596      0.0435643532
O       1.2749032634      0.4841917815      0.1779437818
O       2.1062262471     -0.5904146813     -0.0449967767
C      -0.5609915942     -0.9808946160     -0.2438884016
C      -1.8750131829     -1.1881697328     -0.2276408499
C      -0.8159879123      1.6073912783      0.2528624265
H       0.1013817552     -1.8233525259     -0.3341595639
H      -2.5704524703     -0.3390720073     -0.1345446126
H      -2.2362757190     -2.2392310545     -0.4282997657
H      -0.1563872270      2.5007685412      0.7174271643
H      -1.7685048796      1.5215613606      0.9607507125
H      -1.1422116356      1.9175627814     -0.8048492967
12
Frame=178  time=89.500fs  energy=-306.20413861Ha  molecule=COOCCCHHHHHH
C      -0.0001085511      0.3510185009      0.0399725088
O       1.2762907418      0.4808545454      0.1817051393
O       2.1094907568     -0.5870402715     -0.0462437203
C      -0.5566549372     -0.9804847026     -0.2442571732
C      -1.8802231891     -1.1881704498     -0.2261625693
C      -0.8236973175      1.6108357123      0.2546267131
H       0.1004636279     -1.8266695444     -0.3406302136
H      -2.5751073125     -0.3469114867     -0.1408852480
H      -2.2306031305     -2.2416504375     -0.4445024085
H      -0.1408742436      2.4768183458      0.7133897600
H      -1.7802897529      1.5162933859      0.9615490564
H      -1.1474255655      1.9217776812     -0.8039509759
12
Frame=179  time=90.000fs  energy=-306.20394689Ha  molecule=COOCCCHHHHHH
C       0.0025211654      0.3500299608      0.0366639605
O       1.2778827548      0.4779318758      0.1853693973
O       2.1127148060     -0.5837564535     -0.0474462540
C      -0.5525345393     -0.9802613964     -0.2444622504
C      -1.8856877029     -1.1882819764     -0.2250923792
C      -0.8312247276      1.6147945274      0.2565582392
H       0.1034020601     -1.8313090583     -0.3478261076
H      -2.5822203793     -0.3561690518     -0.1460357231
H      -2.2276731579     -2.2421311575     -0.4593386235
H      -0.1243468818      2.4536962100      0.7089360622
H      -1.7901296407      1.5073492850      0.9609918585
H      -1.1549337829      1.9257622745     -0.8047322620
12
Frame=180  time=90.500fs  energy=-306.20343127Ha  molecule=COOCCCHHHHHH
C       0.0051174198      0.3487630409      0.0336756203
O       1.2796758652      0.4755188211      0.1889179576
O       2.1159225286     -0.5806220490     -0.0485997292
C      -0.5488972976     -0.9802931209     -0.2445283353
C      -1.8910006994     -1.1885685493     -0.2244733265
C      -0.8384248698      1.6190518898      0.2585556124
H       0.1095892779     -1.8365275986     -0.3556147594
H      -2.5923667916     -0.3654630474     -0.1498244453
H      -2.2279674516     -2.2414960715     -0.4725418945
H      -0.1076974741      2.4324965747      0.7044566862
H      -1.7978225166      1.4953433879      0.9595429274
H      -1.1641842620      1.9295529878     -0.8068210542
12
Frame=181  time=91.000fs  energy=-306.20266891Ha  molecule=COOCCCHHHHHH
C       0.0075311189      0.3472805109      0.0310268539
O       1.2816548128      0.4736827274      0.1923366441
O       2.1191378805     -0.5776854534     -0.0497011939
C      -0.5459398598     -0.9806659022     -0.2444827654
C      -1.8958275787     -1.1890702184     -0.2243266835
C      -0.8451565057      1.6233955075      0.2604632816
H       0.1180323323     -1.8412294401     -0.3638493434
H      -2.6057209259     -0.3737003971     -0.1521507811
H      -2.2316939150     -2.2405450509     -0.4839372657
H      -0.0919216104      2.4140517760      0.7003235810
H      -1.8035344912      1.4810671170      0.9580401314
H      -1.1743283827      1.9331204626     -0.8094693338
12
Frame=182  time=91.500fs  energy=-306.20181256Ha  molecule=COOCCCHHHHHH
C       0.0096430272      0.3456529024      0.0287196116
O       1.2837925513      0.4724586199      0.1956166630
O       2.1223813068     -0.5749802726     -0.0507493892
C      -0.5437803072     -0.9814508710     -0.2443536712
C      -1.8999590916     -1.1897985942     -0.2246509656
C      -0.8512986816      1.6276380233      0.2621182193
H       0.1276450326     -1.8443550890     -0.3723836329
H      -2.6219367949     -0.3803718393     -0.1529926563
H      -2.2386843533     -2.2397950349     -0.4934526375
H      -0.0779760434      2.3988805782      0.6968504574
H      -1.8076505551      1.4653640285      0.9574193827
H      -1.1844544884      1.9364061499     -0.8118105466
12
Frame=183  time=92.000fs  energy=-306.20101426Ha  molecule=COOCCCHHHHHH
C       0.0113730228      0.3439491712      0.0267446080
O       1.2860534799      0.4718529151      0.1987538813
O       2.1256677693     -0.5725249511     -0.0517449783
C      -0.5424693390     -0.9826826472     -0.2441399104
C      -1.9033204531     -1.1907427274     -0.2255193975
C      -0.8567611472      1.6316280362      0.2633871846
H       0.1374994976     -1.8451812118     -0.3810779719
H      -2.6402199633     -0.3855782650     -0.1519930191
H      -2.2484309617     -2.2393870493     -0.5007218152
H      -0.0666524635      2.3872285759      0.6942871173
H      -1.8105829627      1.4489963293      0.9584555600
H      -1.1938130940      1.9393762699     -0.8130987812
12
Frame=184  time=92.500fs  energy=-306.20037855Ha  molecule=COOCCCHHHHHH
C       0.0126777061      0.3422313577      0.0250869245
O       1.2883976114      0.4718532747      0.2017468696
O       2.1290066418     -0.5703261463     -0.0526892522
C      -0.5420132125     -0.9843556591     -0.2438284444
C      -1.9059396750     -1.1918803225     -0.2270281062
C      -0.8614838634      1.6352489946      0.2641901159
H       0.1469446007     -1.8434231515     -0.3898080135
H      -2.6595267121     -0.3898297255     -0.1486927264
H      -2.2602245727     -2.2391696049     -0.5052998162
H      -0.0585265082      2.3791631214      0.6928150346
H      -1.8126427646      1.4325858665      0.9616162710
H      -1.2019232668      1.9420345400     -0.8128464807
12
Frame=185  time=93.000fs  energy=-306.19992204Ha  molecule=COOCCCHHHHHH
C       0.0134926289      0.3405474602      0.0237259478
O       1.2905581099      0.4726808664      0.2045947647
O       2.1325126689     -0.5685800204     -0.0535806897
C      -0.5423933596     -0.9865960122     -0.2434950567
C      -1.9078580791     -1.1930465930     -0.2289747724
C      -0.8652200175      1.6384859341      0.2645169126
H       0.1553027554     -1.8395440208     -0.3984835877
H      -2.6792597937     -0.3940250796     -0.1439262076
H      -2.2726447196     -2.2390584947     -0.5079877304
H      -0.0542975368      2.3753018128      0.6925164316
H      -1.8141029761      1.4161018647      0.9669273681
H      -1.2086406054      1.9438204139     -0.8107686630
12
Frame=186  time=93.500fs  energy=-306.19968815Ha  molecule=COOCCCHHHHHH
C       0.0137876129      0.3384868496      0.0226466274
O       1.2923600987      0.4744886622      0.2072952453
O       2.1362058726     -0.5673566372     -0.0544177312
C      -0.5437023253     -0.9891989478     -0.2431795951
C      -1.9090966909     -1.1942603054     -0.2312726347
C      -0.8676709357      1.6413152050      0.2643970279
H       0.1623458514     -1.8337513427     -0.4070184390
H      -2.6977368867     -0.3985304429     -0.1380361765
H      -2.2845626417     -2.2388956047     -0.5091181276
H      -0.0552688308      2.3771359975      0.6934593873
H      -1.8152999815      1.3999973994      0.9738390771
H      -1.2142965527      1.9448476731     -0.8065131842
12
Frame=187  time=94.000fs  energy=-306.20003712Ha  molecule=COOCCCHHHHHH
C       0.0135600085      0.3350363607      0.0218419952
O       1.2940346415      0.4773079071      0.2098421419
O       2.1399642097     -0.5665615307     -0.0551974809
C      -0.5461639428     -0.9913886638     -0.2429054484
C      -1.9096535109     -1.1958012031     -0.2338959477
C      -0.8689227146      1.6435366206      0.2638899259
H       0.1682629739     -1.8256203058     -0.4153253434
H      -2.7119649957     -0.4029799480     -0.1311128514
H      -2.2953035220     -2.2385142511     -0.5087751912
H      -0.0625652505      2.3855673736      0.6957123810
H      -1.8164538696      1.3867287829      0.9814472194
H      -1.2194325527      1.9473530752     -0.7997588493
12
Frame=188  time=94.500fs  energy=-306.20048370Ha  molecule=COOCCCHHHHHH
C       0.0128936433      0.3312298361      0.0213141961
O       1.2956586919      0.4807747757      0.2122233099
O       2.1437512495     -0.5660292656     -0.0559144717
C      -0.5495532916     -0.9934696501     -0.2426985618
C      -1.9098131639     -1.1975959958     -0.2368269212
C      -0.8692546234      1.6450363171      0.2630815855
H       0.1733316963     -1.8163904456     -0.4233082274
H      -2.7222815921     -0.4083101933     -0.1232242790
H      -2.3050209638     -2.2372815283     -0.5070091869
H      -0.0746387802      2.3985251888      0.6993505016
H      -1.8167404277      1.3756566858      0.9899097626
H      -1.2238101298      1.9505312161     -0.7915634221
12
Frame=189  time=95.000fs  energy=-306.20099720Ha  molecule=COOCCCHHHHHH
C       0.0118513146      0.3278479697      0.0210701140
O       1.2971830943      0.4846899376      0.2144224870
O       2.1475682687     -0.5656901357     -0.0565613360
C      -0.5536986149     -0.9956897139     -0.2425885560
C      -1.9097969707     -1.1995652971     -0.2400489769
C      -0.8687710020      1.6457378765      0.2620884995
H       0.1777583884     -1.8074390216     -0.4308602823
H      -2.7289424812     -0.4151118775     -0.1144393614
H      -2.3135211223     -2.2348591394     -0.5038649713
H      -0.0904462306      2.4148630998      0.7044327608
H      -1.8154240376      1.3660619428      0.9989608671
H      -1.2275068608      1.9535493303     -0.7828867231
12
Frame=190  time=95.500fs  energy=-306.20186929Ha  molecule=COOCCCHHHHHH
C       0.0101939670      0.3255937197      0.0211183201
O       1.2988139851      0.4889090883      0.2164206611
O       2.1514093394     -0.5654832935     -0.0571292979
C      -0.5590921761     -0.9983516328     -0.2426089051
C      -1.9097536811     -1.2016337162     -0.2435420754
C      -0.8674089669      1.6452984320      0.2610540451
H       0.1821706000     -1.7995468085     -0.4378655541
H      -2.7293066216     -0.4217480862     -0.1048444361
H      -2.3176050360     -2.2327742819     -0.4994021800
H      -0.1098789405      2.4345412398      0.7109757091
H      -1.8120380632      1.3582032390      1.0076530059
H      -1.2310056066      1.9566030057     -0.7742558668
12
Frame=191  time=96.000fs  energy=-306.20279724Ha  molecule=COOCCCHHHHHH
C       0.0082452974      0.3241403088      0.0214704124
O       1.3002710661      0.4934526125      0.2181944810
O       2.1552429142     -0.5653986058     -0.0576074679
C      -0.5651568208     -1.0010517183     -0.2427984811
C      -1.9097670365     -1.2039404494     -0.2472824320
C      -0.8652719426      1.6438709932      0.2601359927
H       0.1862828053     -1.7939375035     -0.4441952909
H      -2.7251063420     -0.4288149128     -0.0945471256
H      -2.3194616627     -2.2300804055     -0.4936948791
H      -0.1322238240      2.4573283019      0.7189416697
H      -1.8061380910      1.3518744239      1.0152200584
H      -1.2348116925      1.9594374265     -0.7664547801
12
Frame=192  time=96.500fs  energy=-306.20370518Ha  molecule=COOCCCHHHHHH
C       0.0061683363      0.3235016081      0.0221357507
O       1.3014338561      0.4982634272      0.2197195895
O       2.1590364425     -0.5653926954     -0.0579841931
C      -0.5716074629     -1.0036427330     -0.2431991724
C      -1.9099240330     -1.2065656519     -0.2512366113
C      -0.8624395275      1.6414756015      0.2594838248
H       0.1899253419     -1.7913918571     -0.4497196625
H      -2.7170741574     -0.4354691772     -0.0836966974
H      -2.3197000047     -2.2271351627     -0.4868592619
H      -0.1566845832      2.4828625053      0.7281928362
H      -1.7974906964      1.3469328504      1.0209186829
H      -1.2393693134      1.9618663039     -0.7600571326
12
Frame=193  time=97.000fs  energy=-306.20442566Ha  molecule=COOCCCHHHHHH
C       0.0041047517      0.3237436110      0.0231172771
O       1.3022256694      0.5032498142      0.2209739803
O       2.1627512982     -0.5654030462     -0.0582485472
C      -0.5781720019     -1.0060694934     -0.2438519091
C      -1.9102978176     -1.2095674815     -0.2553586485
C      -0.8590105907      1.6381484259      0.2592034673
H       0.1927369669     -1.7921170049     -0.4543233870
H      -2.7060325799     -0.4402483283     -0.0724931149
H      -2.3187470742     -2.2248658547     -0.4790687286
H      -0.1823019131      2.5105245167      0.7384602060
H      -1.7862619849      1.3431977064      1.0243274528
H      -1.2449113783      1.9636432245     -0.7552958428
12
Frame=194  time=97.500fs  energy=-306.20479464Ha  molecule=COOCCCHHHHHH
C       0.0022118520      0.3248758110      0.0244079981
O       1.3025835214      0.5083038272      0.2219417576
O       2.1663429940     -0.5653556030     -0.0583921065
C      -0.5845161078     -1.0083196416     -0.2447911954
C      -1.9109460901     -1.2129796263     -0.2595900596
C      -0.8551115257      1.6339994123      0.2593260169
H       0.1940970941     -1.7956527443     -0.4579238855
H      -2.6931289596     -0.4416487354     -0.0611839606
H      -2.3172534094     -2.2243527943     -0.4705572143
H      -0.2080204835      2.5393738386      0.7493390461
H      -1.7731448151      1.3404339217      1.0255671296
H      -1.2513408078      1.9644290850     -0.7519423738
12
Frame=195  time=98.000fs  energy=-306.20474418Ha  molecule=COOCCCHHHHHH
C       0.0006443967      0.3268439907      0.0259893955
O       1.3024706215      0.5133099939      0.2226162224
O       2.1697650278     -0.5651709382     -0.0584104784
C      -0.5902918554     -1.0104193589     -0.2460398193
C      -1.9119208607     -1.2167935588     -0.2638633481
C      -0.8508844274      1.6292099099      0.2598022938
H       0.1932823143     -1.8009949591     -0.4604860649
H      -2.6795545202     -0.4386302086     -0.0500475083
H      -2.3159234501     -2.2264950515     -0.4616073632
H      -0.2328307440      2.5681855239      0.7603226900
H      -1.7593115700      1.3383759142      1.0253179952
H      -1.2582307509      1.9638367335     -0.7493339603
12
Frame=196  time=98.500fs  energy=-306.20432841Ha  molecule=COOCCCHHHHHH
C      -0.0004645966      0.3295365278      0.0278328999
O       1.3018836723      0.5181573378      0.2230007927
O       2.1729733856     -0.5647724126     -0.0583038126
C      -0.5952024047     -1.0124106752     -0.2476061937
C      -1.9132789427     -1.2209521450     -0.2681082261
C      -0.8464745355      1.6240106205      0.2605313090
H       0.1897180038     -1.8069555853     -0.4620271914
H      -2.6662202134     -0.4310698974     -0.0393669273
H      -2.3153000550     -2.2316480856     -0.4525255018
H      -0.2558800761      2.5955920663      0.7708670475
H      -1.7461679756      1.3367436991      1.0246035355
H      -1.2649632972      1.9615042548     -0.7465885664
12
Frame=197  time=99.000fs  energy=-306.20366640Ha  molecule=COOCCCHHHHHH
C      -0.0010186808      0.3327993077      0.0299035048
O       1.3008530565      0.5227504958      0.2231078037
O       2.1759303518     -0.5640936410     -0.0580762691
C      -0.5990532888     -1.0143232817     -0.2494848815
C      -1.9150808491     -1.2253579906     -0.2722582616
C      -0.8420220975      1.6186490358      0.2614072427
H       0.1831939865     -1.8125620361     -0.4626119042
H      -2.6535792950     -0.4198852947     -0.0294049300
H      -2.3156326432     -2.2394621151     -0.4436127436
H      -0.2765145310      2.6202816466      0.7804608047
H      -1.7350177973      1.3352491747      1.0244469461
H      -1.2709336928      1.9571671673     -0.7428976542
12
Frame=198  time=99.500fs  energy=-306.20288306Ha  molecule=COOCCCHHHHHH
C      -0.0009664795      0.3364528752      0.0321637281
O       1.2994376293      0.5270171359      0.2229562909
O       2.1786071240     -0.5630836849     -0.0577349951
C      -0.6017724672     -1.0161557379     -0.2516590325
C      -1.9173733600     -1.2298927742     -0.2762561282
C      -0.8376581227      1.6133580698      0.2623618583
H       0.1739495133     -1.8173078593     -0.4623415876
H      -2.6416867351     -0.4067379352     -0.0203846130
H      -2.3168955067     -2.2490228560     -0.4351404775
H      -0.2942691438      2.6411801021      0.7886813396
H      -1.7267794894      1.3336007976      1.0255602059
H      -1.2757275363      1.9507073915     -0.7377675441
12
Frame=199  time=100.000fs  energy=-306.20206365Ha  molecule=COOCCCHHHHHH
C      -0.0003026549      0.3403093079      0.0345769278
O       1.2977161707      0.5309105649      0.2225694155
O       2.1809849354     -0.5617092085     -0.0572889844
C      -0.6033991466     -1.0178728435     -0.2541036800
C      -1.9201684070     -1.2344392940     -0.2800565937
C      -0.8335014984      1.6083328797      0.2633862746
H       0.1626134941     -1.8211891665     -0.4613410189
H      -2.6303995535     -0.3935232996     -0.0124790235
H      -2.3188993683     -2.2591655381     -0.4273344979
H      -0.3088359762      2.6575642331      0.7952265698
H      -1.7218478488      1.3315162314      1.0281801904
H      -1.2792092452      1.9421670092     -0.7311283364
12
Frame=200  time=100.500fs  energy=-306.20138036Ha  molecule=COOCCCHHHHHH
C       0.0009645405      0.3447025866      0.0371096014
O       1.2957705215      0.5342797946      0.2219718922
O       2.1830649085     -0.5599147106     -0.0567479868
C      -0.6039363788     -1.0196708776     -0.2567892690
C      -1.9235109665     -1.2388206942     -0.2836270142
C      -0.8297411514      1.6037319081      0.2645277964
H       0.1500799650     -1.8249118972     -0.4597447716
H      -2.6203523471     -0.3822669855     -0.0058104719
H      -2.3216757119     -2.2686180803     -0.4203695631
H      -0.3193010250      2.6682031648      0.7999198008
H      -1.7198776912      1.3280646267      1.0324167999
H      -1.2812608436      1.9310464170     -0.7236247919
12
Frame=201  time=101.000fs  energy=-306.20079787Ha  molecule=COOCCCHHHHHH
C       0.0027684674      0.3493428412      0.0397329867
O       1.2936926644      0.5371488836      0.2211868833
O       2.1848413741     -0.5577040932     -0.0561211813
C      -0.6035722447     -1.0214229356     -0.2596858003
C      -1.9273041314     -1.2429810150     -0.2869444505
C      -0.8264471573      1.5996499852      0.2658709524
H       0.1372654604     -1.8289274656     -0.4576838418
H      -2.6113449760     -0.3740976426     -0.0004647903
H      -2.3249627293     -2.2765352270     -0.4143783123
H      -0.3257197538      2.6732625786      0.8026832833
H      -1.7204890706      1.3232096464      1.0376626506
H      -1.2822397445      1.9177762150     -0.7157396371
12
Frame=202  time=101.500fs  energy=-306.20042833Ha  molecule=COOCCCHHHHHH
C       0.0052640580      0.3531537668      0.0424228479
O       1.2913524702      0.5397137219      0.2202349576
O       2.1862970559     -0.5551405139     -0.0554167466
C      -0.6020978544     -1.0225193132     -0.2627644547
C      -1.9313382813     -1.2470293746     -0.2899929660
C      -0.8236946083      1.5963611685      0.2675152496
H       0.1246096513     -1.8336938368     -0.4552808558
H      -2.6047906701     -0.3706555908      0.0034970136
H      -2.3308637429     -2.2811830343     -0.4094617014
H      -0.3284481603      2.6736185075      0.8035129416
H      -1.7232691176      1.3172155333      1.0430772406
H      -1.2827247034      1.9030683282     -0.7079706551
12
Frame=203  time=102.000fs  energy=-306.20039802Ha  molecule=COOCCCHHHHHH
C       0.0084489984      0.3558405503      0.0451589956
O       1.2888168853      0.5419585163      0.2191327008
O       2.1874057940     -0.5521947886     -0.0546412410
C      -0.5995483504     -1.0227726550     -0.2659992048
C      -1.9354661519     -1.2509934707     -0.2927589759
C      -0.8216111261      1.5939443865      0.2695598399
H       0.1127914574     -1.8395745864     -0.4526474676
H      -2.6014509239     -0.3724464019      0.0060176620
H      -2.3401783455     -2.2818650189     -0.4057081075
H      -0.3273423062      2.6694545449      0.8024425461
H      -1.7275526880      1.3101096604      1.0480230829
H      -1.2830777644      1.8873419202     -0.7010289697
12
Frame=204  time=102.500fs  energy=-306.20051886Ha  molecule=COOCCCHHHHHH
C       0.0119091930      0.3578951742      0.0479240348
O       1.2867436634      0.5435219899      0.2178924731
O       2.1880535696     -0.5486145062     -0.0537994790
C      -0.5967980554     -1.0224222374     -0.2693666369
C      -1.9395908284     -1.2548784542     -0.2952274767
C      -0.8203969841      1.5920858434      0.2720944737
H       0.1033060373     -1.8459784083     -0.4498875559
H      -2.5984314601     -0.3771775505      0.0070268104
H      -2.3500699921     -2.2802039945     -0.4032101632
H      -0.3221555842      2.6604290944      0.7995208270
H      -1.7326323312      1.3025299315      1.0519094754
H      -1.2835247089      1.8715570376     -0.6955455374
12
Frame=205  time=103.000fs  energy=-306.20078549Ha  molecule=COOCCCHHHHHH
C       0.0155155912      0.3592886939      0.0507018563
O       1.2851334368      0.5444909529      0.2165242490
O       2.1882866021     -0.5444788337     -0.0528953807
C      -0.5940100451     -1.0215733813     -0.2728434811
C      -1.9435018082     -1.2585986511     -0.2973834396
C      -0.8199992629      1.5907065157      0.2751857451
H       0.0964384054     -1.8529827786     -0.4471038708
H      -2.5965598453     -0.3843853320      0.0064487490
H      -2.3602669485     -2.2765769815     -0.4020610174
H      -0.3132142697      2.6473306589      0.7948239177
H      -1.7380316127      1.2946589740      1.0541493153
H      -1.2843464981      1.8561327318     -0.6918918545
12
Frame=206  time=103.500fs  energy=-306.20107989Ha  molecule=COOCCCHHHHHH
C       0.0190791061      0.3599290237      0.0534767441
O       1.2838735543      0.5451311351      0.2150367262
O       2.1882235761     -0.5400080292     -0.0519325267
C      -0.5913482453     -1.0204398883     -0.2764048528
C      -1.9469331790     -1.2619764782     -0.2992131537
C      -0.8202755632      1.5898254749      0.2788625766
H       0.0920676558     -1.8605316330     -0.4444018109
H      -2.5970155672     -0.3934444430      0.0042093757
H      -2.3700252018     -2.2717896194     -0.4023499673
H      -0.3008875806      2.6311228955      0.7884664157
H      -1.7434223829      1.2863037521      1.0544291462
H      -1.2857004152      1.8410025388     -0.6902987853
12
Frame=207  time=104.000fs  energy=-306.20149428Ha  molecule=COOCCCHHHHHH
C       0.0223925780      0.3596675222      0.0562329824
O       1.2831266768      0.5456917798      0.2134384993
O       2.1879678842     -0.5354311122     -0.0509147595
C      -0.5889403437     -1.0190887099     -0.2800226978
C      -1.9496377910     -1.2648586762     -0.3007072131
C      -0.8215094080      1.5892968072      0.2831006235
H       0.0897983253     -1.8681013178     -0.4418908521
H      -2.6009990934     -0.4035819107      0.0002508559
H      -2.3786484009     -2.2668664584     -0.4041507884
H      -0.2847338195      2.6111706662      0.7806178885
H      -1.7484147463      1.2787315694      1.0529617903
H      -1.2873179255      1.8274227658     -0.6909520735
12
Frame=208  time=104.500fs  energy=-306.20199534Ha  molecule=COOCCCHHHHHH
C       0.0252952924      0.3584622211      0.0589547069
O       1.2829711957      0.5461999244      0.2117384407
O       2.1875370934     -0.5307786907     -0.0498464181
C      -0.5869040515     -1.0176442386     -0.2836650183
C      -1.9514102671     -1.2672048544     -0.3018619014
C      -0.8236796680      1.5890385458      0.2878152243
H       0.0893751572     -1.8747270541     -0.4396842645
H      -2.6090669362     -0.4137791857     -0.0054611910
H      -2.3860826628     -2.2626567472     -0.4075165445
H      -0.2652418891      2.5880331448      0.7715093629
H      -1.7529812588      1.2724432622      1.0501916303
H      -1.2888841341      1.8157338457     -0.6936260515
12
Frame=209  time=105.000fs  energy=-306.20247073Ha  molecule=COOCCCHHHHHH
C       0.0276488590      0.3563091234      0.0616260996
O       1.2834436537      0.5464498299      0.2099462679
O       2.1868472990     -0.5258630531     -0.0487326406
C      -0.5853155877     -1.0163668807     -0.2872953697
C      -1.9522076802     -1.2689945247     -0.3026816488
C      -0.8264441758      1.5890556273      0.2928626776
H       0.0916660702     -1.8787056623     -0.4378967688
H      -2.6213717605     -0.4230895029     -0.0129248785
H      -2.3927396326     -2.2597149029     -0.4124696521
H      -0.2439416521      2.5635831869      0.7614414365
H      -1.7574796497      1.2671723329      1.0467373702
H      -1.2900948564      1.8053678140     -0.6976580646
12
Frame=210  time=105.500fs  energy=-306.20290026Ha  molecule=COOCCCHHHHHH
C       0.0293348074      0.3533216645      0.0642318711
O       1.2845163764      0.5464470042      0.2080729352
O       2.1859307698     -0.5207152482     -0.0475795397
C      -0.5842579083     -1.0152974703     -0.2908730229
C      -1.9518691559     -1.2703001676     -0.3031811888
C      -0.8296725470      1.5892283675      0.2980546033
H       0.0953070277     -1.8795478471     -0.4366403232
H      -2.6371864096     -0.4309669198     -0.0220901443
H      -2.3985312800     -2.2585036407     -0.4189929193
H      -0.2218076144      2.5385152605      0.7507859132
H      -1.7621703891      1.2634023712      1.0436030276
H      -1.2903096669      1.7964042536     -0.7023388493
12
Frame=211  time=106.000fs  energy=-306.20326079Ha  molecule=COOCCCHHHHHH
C       0.0302148603      0.3495616348      0.0667579785
O       1.2861904949      0.5462286392      0.2061308498
O       2.1848258715     -0.5153886917     -0.0463942466
C      -0.5837492088     -1.0145343755     -0.2943540158
C      -1.9504271007     -1.2710854409     -0.3033869963
C      -0.8332407367      1.5894346332      0.3031854799
H       0.0998609020     -1.8767251145     -0.4360174761
H      -2.6557271368     -0.4375728035     -0.0328492368
H      -2.4029371200     -2.2591789825     -0.4270231747
H      -0.1999193612      2.5134756933      0.7399784619
H      -1.7673279245      1.2617813306      1.0418080045
H      -1.2888959813      1.7890534932     -0.7068675670
12
Frame=212  time=106.500fs  energy=-306.20351943Ha  molecule=COOCCCHHHHHH
C       0.0301844256      0.3451280097      0.0691923370
O       1.2884283313      0.5458392254      0.2041337413
O       2.1835790670     -0.5099477135     -0.0451847498
C      -0.5837759690     -1.0141281453     -0.2976928472
C      -1.9480216763     -1.2713243510     -0.3033370783
C      -0.8370105368      1.5895463886      0.3080691229
H       0.1050543156     -1.8702745691     -0.4361145229
H      -2.6757183955     -0.4435714552     -0.0450348019
H      -2.4052351666     -2.2615050516     -0.4364517444
H      -0.1793822330      2.4891129043      0.7295005133
H      -1.7730905704      1.2628856470      1.0421560625
H      -1.2853652073      1.7835100288     -0.7105369196
12
Frame=213  time=107.000fs  energy=-306.20365318Ha  molecule=COOCCCHHHHHH
C       0.0291873410      0.3401536696      0.0715255269
O       1.2911497636      0.5453287798      0.2020963780
O       2.1822430759     -0.5044650213     -0.0439596240
C      -0.5842957758     -1.0140744460     -0.3008447299
C      -1.9448780666     -1.2710122307     -0.3030798186
C      -0.8408434323      1.5894368584      0.3125745716
H       0.1108294183     -1.8608609362     -0.4369944910
H      -2.6955990128     -0.4498935670     -0.0584224667
H      -2.4046141011     -2.2649638007     -0.4471284536
H      -0.1611988505      2.4660738827      0.7198521102
H      -1.7793400553      1.2671393858      1.0450092520
H      -1.2795160639      1.7799603268     -0.7129031480
12
Frame=214  time=107.500fs  energy=-306.20366183Ha  molecule=COOCCCHHHHHH
C       0.0272254583      0.3347978744      0.0737512687
O       1.2942334509      0.5447502284      0.2000340884
O       2.1808742187     -0.4990179528     -0.0427276579
C      -0.5852380510     -1.0143205357     -0.3037679474
C      -1.9412672228     -1.2701759145     -0.3026717322
C      -0.8446138932      1.5889890561      0.3166489184
H       0.1173153063     -1.8496779312     -0.4386920225
H      -2.7138144891     -0.4574091230     -0.0727395136
H      -2.4003331986     -2.2689376832     -0.4588699161
H      -0.1461487867      2.4449931705      0.7115174278
H      -1.7856497322      1.2747528223      1.0501652289
H      -1.2715180928      1.7785807467     -0.7138917084
12
Frame=215  time=108.000fs  energy=-306.20356987Ha  molecule=COOCCCHHHHHH
C       0.0243595057      0.3292352077      0.0758665094
O       1.2975235263      0.5441565672      0.1979621792
O       2.1795294219     -0.4936843084     -0.0414974758
C      -0.5865026049     -1.0147834910     -0.3064256879
C      -1.9374614446     -1.2688796063     -0.3021745409
C      -0.8482182991      1.5881046308      0.3203173567
H       0.1247241596     -1.8382084108     -0.4412117187
H      -2.7291055884     -0.4666219404     -0.0876782660
H      -2.3918814150     -2.2729003914     -0.4714704435
H      -0.1347090342      2.4264715050      0.7049287841
H      -1.7913367925      1.2856980194      1.0568996420
H      -1.2618965950      1.7795210857     -0.7137924005
12
Frame=216  time=108.500fs  energy=-306.20341463Ha  molecule=COOCCCHHHHHH
C       0.0207013337      0.3236431891      0.0778711198
O       1.3008404465      0.5435984607      0.1958953903
O       2.1782634534     -0.4885386107     -0.0402772531
C      -0.5879582771     -1.0153745466     -0.3087869642
C      -1.9336959875     -1.2672240965     -0.3016522297
C      -0.8515774107      1.5867118187      0.3236615753
H       0.1332067532     -1.8279126686     -0.4445300166
H      -2.7407109449     -0.4774747630     -0.1029109472
H      -2.3790943282     -2.2765667927     -0.4847128812
H      -0.1270348426      2.4110436669      0.7004361004
H      -1.7956036150      1.2997235215      1.0641560132
H      -1.2514266200      1.7828776927     -0.7131500383
12
Frame=217  time=109.000fs  energy=-306.20322633Ha  molecule=COOCCCHHHHHH
C       0.0164009966      0.3181912203      0.0797673229
O       1.3039935900      0.5431225331      0.1938474892
O       2.1771267301     -0.4836492295     -0.0390745600
C      -0.5894448722     -1.0160227617     -0.3108266940
C      -1.9301444521     -1.2653387065     -0.3011685889
C      -0.8546332425      1.5847716191      0.3267863949
H       0.1427157383     -1.8199320183     -0.4485993123
H      -2.7484358283     -0.4893125486     -0.1181030372
H      -2.3622050280     -2.2799732165     -0.4983774813
H      -0.1229978794      2.3991377001      0.6982862490
H      -1.7977162176      1.3163963686      1.0708048904
H      -1.2409786461      1.7886650260     -0.7125965974
12
Frame=218  time=109.500fs  energy=-306.20301473Ha  molecule=COOCCCHHHHHH
C       0.0116330388      0.3130325277      0.0815590522
O       1.3067935097      0.5427701736      0.1918310122
O       2.1761636574     -0.4790762286     -0.0378962923
C      -0.5907809316     -1.0166919131     -0.3125254452
C      -1.9269100614     -1.2633677630     -0.3007853775
C      -0.8573431226      1.5822819995      0.3297852305
H       0.1529217179     -1.8148838932     -0.4533524716
H      -2.7525901284     -0.5010016261     -0.1329239111
H      -2.3418273677     -2.2834758862     -0.5122482480
H      -0.1222605423      2.3910290530      0.6986119040
H      -1.7971709541      1.3351554691      1.0758956309
H      -1.2313592579      1.7967916560     -0.7126730568
12
Frame=219  time=110.000fs  energy=-306.20277242Ha  molecule=COOCCCHHHHHH
C       0.0065845163      0.3082989421      0.0832513999
O       1.3090631248      0.5425764682      0.1898570755
O       2.1754111769     -0.4748694320     -0.0367486072
C      -0.5917786977     -1.0173863504     -0.3138694098
C      -1.9240300085     -1.2614550760     -0.3005608280
C      -0.8596738769      1.5792800951      0.3327120691
H       0.1632129599     -1.8127968603     -0.4587065486
H      -2.7538365806     -0.5111637959     -0.1470558296
H      -2.3188831337     -2.2876671474     -0.5261175983
H      -0.1243616001      2.3867956057      0.7014271562
H      -1.7938182337      1.3553647111      1.0788522992
H      -1.2231771306      1.8070445274     -0.7136791826
12
Frame=220  time=110.500fs  energy=-306.20249155Ha  molecule=COOCCCHHHHHH
C       0.0014447726      0.3040975500      0.0848501952
O       1.3106479028      0.5425690308      0.1879351855
O       2.1748973274     -0.4710664633     -0.0356368183
C      -0.5922652232     -1.0181447039     -0.3148507538
C      -1.9214889061     -1.2597296933     -0.3005481135
C      -0.8615981152      1.5758416159      0.3355660759
H       0.1727851216     -1.8131952988     -0.4645658377
H      -2.7529962431     -0.5184701697     -0.1602031203
H      -2.2944855973     -2.2932211421     -0.5397908467
H      -0.1287949550      2.3862857463      0.7066296855
H      -1.7879173638      1.3763598125      1.0795780472
H      -1.2167595029      1.8190878910     -0.7155876611
12
Frame=221  time=111.000fs  energy=-306.20217869Ha  molecule=COOCCCHHHHHH
C      -0.0036039774      0.3005088981      0.0863616421
O       1.3114243407      0.5427669633      0.1860730751
O       2.1746401187     -0.4676912406     -0.0345652780
C      -0.5921044851     -1.0190243927     -0.3154679411
C      -1.9192387273     -1.2582950937     -0.3007937629
C      -0.8630933787      1.5720761981      0.3382930146
H       0.1807941175     -1.8152982747     -0.4708251248
H      -2.7508483234     -0.5219358932     -0.1721015945
H      -2.2697941079     -2.3006992787     -0.5530912028
H      -0.1350694779      2.3891168138      0.7140126077
H      -1.7801014618      1.3974848461      1.0784407086
H      -1.2121394293      1.8324834322     -0.7180507686
12
Frame=222  time=111.500fs  energy=-306.20185226Ha  molecule=COOCCCHHHHHH
C      -0.0083953062      0.2975871581      0.0877919316
O       1.3113051220      0.5431804894      0.1842766738
O       2.1746472827     -0.4647537854     -0.0335373288
C      -0.5912130978     -1.0200828669     -0.3157254728
C      -1.9172220599     -1.2572233526     -0.3013364695
C      -0.8641437746      1.5681186620      0.3408020137
H       0.1865200740     -1.8182622479     -0.4773735479
H      -2.7479608296     -0.5211487201     -0.1825258213
H      -2.2458671969     -2.3103674574     -0.5658643843
H      -0.1427417638      2.3947140006      0.7232873000
H      -1.7712591273      1.4181146707      1.0761467625
H      -1.2091124616      1.8467293815     -0.7204941941
12
Frame=223  time=112.000fs  energy=-306.20152553Ha  molecule=COOCCCHHHHHH
C      -0.0127856103      0.2953620366      0.0891468557
O       1.3102403770      0.5438114897      0.1825502538
O       2.1749170220     -0.4622514857     -0.0325553527
C      -0.5895657102     -1.0213615551     -0.3156330399
C      -1.9153918150     -1.2565550624     -0.3022065930
C      -0.8647430549      1.5641182988      0.3429902452
H       0.1894935320     -1.8213928756     -0.4840984315
H      -2.7445953024     -0.5163652328     -0.1912925390
H      -2.2235540273     -2.3220859232     -0.5779816486
H      -0.1514208642      2.4023793142      0.7341120170
H      -1.7623747214      1.4376624678      1.0735549184
H      -1.2073338197      1.8613061056     -0.7222560118
12
Frame=224  time=112.500fs  energy=-306.20119494Ha  molecule=COOCCCHHHHHH
C      -0.0166421624      0.2938837591      0.0904315163
O       1.3081883022      0.5446566985      0.1808966491
O       2.1754468755     -0.4601789058     -0.0316208542
C      -0.5872073271     -1.0228261906     -0.3152046604
C      -1.9136713846     -1.2563568692     -0.3034260119
C      -0.8648990231      1.5602183139      0.3447677673
H       0.1890641321     -1.8245214550     -0.4908884105
H      -2.7404791915     -0.5083796366     -0.1982618771
H      -2.2035188291     -2.3352892738     -0.5893415672
H      -0.1607215070      2.4113193636      0.7461186170
H      -1.7543548821      1.4555514656      1.0715027972
H      -1.2064027302      1.8756902760     -0.7227407209
12
Frame=225  time=113.000fs  energy=-306.20086931Ha  molecule=COOCCCHHHHHH
C      -0.0198149819      0.2932747269      0.0916500731
O       1.3050700776      0.5455889562      0.1793175319
O       2.1761872666     -0.4584213778     -0.0307345854
C      -0.5842554733     -1.0243768318     -0.3144577380
C      -1.9119598503     -1.2567954240     -0.3050083507
C      -0.8644887537      1.5565900515      0.3460774612
H       0.1845581031     -1.8279605011     -0.4976357840
H      -2.7346031526     -0.4981871242     -0.2033362656
H      -2.1866166836     -2.3489480445     -0.5998705392
H      -0.1706325442      2.4213292807      0.7589356883
H      -1.7479904806      1.4707314616      1.0705863658
H      -1.2060360895      1.8889080354     -0.7214655302
12
Frame=226  time=113.500fs  energy=-306.20069525Ha  molecule=COOCCCHHHHHH
C      -0.0222416441      0.2934677724      0.0928053299
O       1.3009392866      0.5463316554      0.1778139489
O       2.1769892968     -0.4566948752     -0.0298968586
C      -0.5807921260     -1.0261713138     -0.3134111762
C      -1.9104318046     -1.2578186280     -0.3069606362
C      -0.8632353873      1.5534986337      0.3469059683
H       0.1784210099     -1.8309142821     -0.5042377155
H      -2.7268103770     -0.4871286700     -0.2064515156
H      -2.1735729506     -2.3618307335     -0.6095190990
H      -0.1817518721      2.4332275548      0.7722080952
H      -1.7440106373      1.4817772499      1.0709623327
H      -1.2062566138      1.8996631716     -0.7180253870
12
Frame=227  time=114.000fs  energy=-306.20069831Ha  molecule=COOCCCHHHHHH
C      -0.0239070776      0.2944063310      0.0939013219
O       1.2958804915      0.5469019756      0.1763866955
O       2.1778414436     -0.4549997191     -0.0291090663
C      -0.5769482944     -1.0281568862     -0.3120351306
C      -1.9090746378     -1.2593884770     -0.3094449370
C      -0.8612339976      1.5510593413      0.3472794587
H       0.1712906946     -1.8338105895     -0.5105876093
H      -2.7169241155     -0.4765918104     -0.2068773396
H      -2.1643780928     -2.3729517630     -0.6175949211
H      -0.1936214449      2.4463039535      0.7856307347
H      -1.7425808315      1.4883116868      1.0726853985
H      -1.2069761329      1.9078240651     -0.7124739287
12
Frame=228  time=114.500fs  energy=-306.20071216Ha  molecule=COOCCCHHHHHH
C      -0.0248895837      0.2959212856      0.0949368150
O       1.2900874942      0.5475903111      0.1750368419
O       2.1788409614     -0.4535840790     -0.0283711226
C      -0.5728480623     -1.0302363462     -0.3103550881
C      -1.9078306129     -1.2613317360     -0.3124368324
C      -0.8589283684      1.5492749047      0.3472768513
H       0.1634800688     -1.8374275300     -0.5165952075
H      -2.7055275198     -0.4680318365     -0.2046915673
H      -2.1581875601     -2.3817241572     -0.6241754218
H      -0.2048674309      2.4585610888      0.7989001459
H      -1.7434232520      1.4910755458      1.0756540578
H      -1.2080285412      1.9143836089     -0.7052725661
12
Frame=229  time=115.000fs  energy=-306.20078632Ha  molecule=COOCCCHHHHHH
C      -0.0252051127      0.2978687256      0.0959062665
O       1.2836686262      0.5484641367      0.1737656880
O       2.1799890871     -0.4524882530     -0.0276818992
C      -0.5685850130     -1.0323072363     -0.3084350694
C      -1.9066374801     -1.2636145176     -0.3157815739
C      -0.8564990767      1.5482428905      0.3470197295
H       0.1556379375     -1.8423522678     -0.5221822227
H      -2.6930711285     -0.4624445551     -0.2005377961
H      -2.1551145502     -2.3873218052     -0.6298749913
H      -0.2148186098      2.4693078780      0.8117240224
H      -1.7462161675      1.4899134394      1.0793966776
H      -1.2095157578      1.9194412699     -0.6969801337
12
Frame=230  time=115.500fs  energy=-306.20120161Ha  molecule=COOCCCHHHHHH
C      -0.0246658633      0.2999187409      0.0968042304
O       1.2765479690      0.5495485874      0.1725749933
O       2.1812572932     -0.4517045632     -0.0270416436
C      -0.5638326276     -1.0341144294     -0.3062948814
C      -1.9054177409     -1.2662914793     -0.3194633356
C      -0.8541459413      1.5482544576      0.3466464926
H       0.1481475486     -1.8492804857     -0.5272633071
H      -2.6818696724     -0.4614627482     -0.1944602575
H      -2.1575357860     -2.3880121693     -0.6347330407
H      -0.2225762408      2.4779315641      0.8238615329
H      -1.7504216665      1.4840451462      1.0834577658
H      -1.2115795822      1.9225380200     -0.6884628978
12
Frame=231  time=116.000fs  energy=-306.20177493Ha  molecule=COOCCCHHHHHH
C      -0.0236087255      0.3026647719      0.0976215671
O       1.2691095494      0.5507162244      0.1714680735
O       2.1826336870     -0.4511751252     -0.0264515528
C      -0.5592295438     -1.0360645497     -0.3039515497
C      -1.9041072719     -1.2692501785     -0.3234666283
C      -0.8519275934      1.5491427096      0.3463062815
H       0.1420588076     -1.8581894602     -0.5317453874
H      -2.6705866849     -0.4637739172     -0.1864962894
H      -2.1630295272     -2.3848971432     -0.6387899116
H      -0.2276701877      2.4840888493      0.8350912383
H      -1.7554612264      1.4731174512      1.0870615638
H      -1.2144243482      1.9236637955     -0.6804226888
12
Frame=232  time=116.500fs  energy=-306.20249051Ha  molecule=COOCCCHHHHHH
C      -0.0221599026      0.3057008565      0.0983453233
O       1.2615383580      0.5520443296      0.1704491665
O       2.1840843608     -0.4509060847     -0.0259133456
C      -0.5550185587     -1.0380115199     -0.3014220264
C      -1.9025096844     -1.2725521862     -0.3277722240
C      -0.8498988330      1.5509500607      0.3461463499
H       0.1378154949     -1.8686026640     -0.5355307988
H      -2.6593354684     -0.4685788989     -0.1766994699
H      -2.1715308255     -2.3782444035     -0.6420966352
H      -0.2301458068      2.4883116546      0.8452160733
H      -1.7609728159      1.4573094936      1.0892666002
H      -1.2184503591      1.9232955465     -0.6733814994
12
Frame=233  time=117.000fs  energy=-306.20330445Ha  molecule=COOCCCHHHHHH
C      -0.0204617358      0.3089373660      0.0989586776
O       1.2540442270      0.5535249911      0.1695227662
O       2.1855778860     -0.4508744707     -0.0254288719
C      -0.5513459697     -1.0400087275     -0.2987253281
C      -1.9004601458     -1.2762039058     -0.3323534404
C      -0.8481668363      1.5537063082      0.3462903984
H       0.1356469188     -1.8797996911     -0.5385225393
H      -2.6489049870     -0.4748703312     -0.1651620382
H      -2.1831988722     -2.3686306004     -0.6447233254
H      -0.2296777283      2.4906514579      0.8540779405
H      -1.7665203517      1.4365323187      1.0895400978
H      -1.2237795468      1.9215060624     -0.6679900392
12
Frame=234  time=117.500fs  energy=-306.20415657Ha  molecule=COOCCCHHHHHH
C      -0.0187099821      0.3121842953      0.0994411639
O       1.2468885107      0.5551586696      0.1686929120
O       2.1870718674     -0.4510506629     -0.0249997185
C      -0.5483520088     -1.0421151094     -0.2958841089
C      -1.8977915338     -1.2802004163     -0.3371730710
C      -0.8468600155      1.5575174938      0.3468108047
H       0.1355609365     -1.8905294381     -0.5406321585
H      -2.6399815723     -0.4812500299     -0.1520354433
H      -2.1980584275     -2.3570971459     -0.6467654269
H      -0.2258854504      2.4910278900      0.8615789600
H      -1.7718420193      1.4106445776      1.0878516594
H      -1.2302840342      1.9180759328     -0.6647925280
12
Frame=235  time=118.000fs  energy=-306.20491278Ha  molecule=COOCCCHHHHHH
C      -0.0170851857      0.3154408379      0.0997694464
O       1.2402949048      0.5569077361      0.1679624639
O       2.1885346580     -0.4513990591     -0.0246267968
C      -0.5460519686     -1.0444756824     -0.2929255705
C      -1.8944047030     -1.2844936901     -0.3421815050
C      -0.8460047192      1.5621967587      0.3477045387
H       0.1372868101     -1.8994219374     -0.5417898980
H      -2.6335059917     -0.4864990718     -0.1375460521
H      -2.2162826018     -2.3448010093     -0.6483466441
H      -0.2192482928      2.4898790371      0.8677050735
H      -1.7770285430      1.3806259377      1.0844452681
H      -1.2375913536      1.9135796987     -0.6637223529
12
Frame=236  time=118.500fs  energy=-306.20545046Ha  molecule=COOCCCHHHHHH
C      -0.0158022791      0.3186127016      0.0999193497
O       1.2345104869      0.5587415405      0.1673321775
O       2.1899257816     -0.4518769815     -0.0243097524
C      -0.5444347770     -1.0471947669     -0.2898820144
C      -1.8902903636     -1.2890049136     -0.3473163331
C      -0.8456287633      1.5676199590      0.3488861136
H       0.1405226405     -1.9050734743     -0.5419575249
H      -2.6298369268     -0.4896742626     -0.1220046984
H      -2.2376090939     -2.3329534208     -0.6496186972
H      -0.2103357758      2.4874605824      0.8725480417
H      -1.7824455555      1.3475228718      1.0802394003
H      -1.2449974055      1.9082955302     -0.6644350529
12
Frame=237  time=119.000fs  energy=-306.20563875Ha  molecule=COOCCCHHHHHH
C      -0.0150658095      0.3216155372      0.0998684546
O       1.2297540472      0.5606231206      0.1668002243
O       2.1912058166     -0.4524377431     -0.0240465871
C      -0.5434334029     -1.0503323042     -0.2867900700
C      -1.8855783498     -1.2936201117     -0.3525050281
C      -0.8457253702      1.5736089152      0.3502091193
H       0.1450764973     -1.9065385078     -0.5411371062
H      -2.6287008649     -0.4905819220     -0.1057982082
H      -2.2613200732     -2.3224042825     -0.6507541165
H      -0.2000380984      2.4840607783      0.8763109983
H      -1.7886407606      1.3127445027      1.0765056517
H      -1.2516057250      1.9025668739     -0.6662625623
12
Frame=238  time=119.500fs  energy=-306.20538382Ha  molecule=COOCCCHHHHHH
C      -0.0150407182      0.3243814744      0.0995993354
O       1.2261888079      0.5625128512      0.1663619673
O       2.1923398097     -0.4530344816     -0.0238334392
C      -0.5429407097     -1.0538763011     -0.2836890471
C      -1.8805372646     -1.2982061380     -0.3576698701
C      -0.8462640915      1.5799447279      0.3515118674
H       0.1509952349     -1.9036469776     -0.5393754197
H      -2.6291591270     -0.4898650932     -0.0893664045
H      -2.2862177526     -2.3134431558     -0.6519344611
H      -0.1894264628      2.4800038077      0.8792956325
H      -1.7961211359      1.2779007550      1.0745018666
H      -1.2565307024      1.8967950161     -0.6684072664
12
Frame=239  time=120.000fs  energy=-306.20470553Ha  molecule=COOCCCHHHHHH
C      -0.0158237667      0.3268636909      0.0991029264
O       1.2238981388      0.5643732103      0.1660100244
O       2.1933008392     -0.4536245092     -0.0236646657
C      -0.5428286946     -1.0577373718     -0.2806182924
C      -1.8755224128     -1.3026378294     -0.3627345484
C      -0.8472059056      1.5863895868      0.3526715398
H       0.1585637393     -1.8970752116     -0.5367626408
H      -2.6298578068     -0.4886914071     -0.0731660549
H      -2.3107975903     -2.3058685889     -0.6533346345
H      -0.1795581895      2.4756553511      0.8818712457
H      -1.8051128142      1.2445796287      1.0750577834
H      -1.2591315489      1.8914219265     -0.6701876486
12
Frame=240  time=120.500fs  energy=-306.20375394Ha  molecule=COOCCCHHHHHH
C      -0.0174273368      0.3290379007      0.0983806732
O       1.2228743377      0.5661732769      0.1657348177
O       2.1940725995     -0.4541731259     -0.0235334033
C      -0.5429644989     -1.0617706786     -0.2776137517
C      -1.8708935366     -1.3068252691     -0.3676312000
C      -0.8485158513      1.5927131641      0.3536434693
H       0.1681694434     -1.8881150780     -0.5334232098
H      -2.6294428024     -0.4882344802     -0.0576272273
H      -2.3335510894     -2.2992374423     -0.6551054561
H      -0.1712896983      2.4714174075      0.8844296586
H      -1.8154214362      1.2141266771      1.0783014001
H      -1.2591805854      1.8868990687     -0.6712404139
12
Frame=241  time=121.000fs  energy=-306.20273391Ha  molecule=COOCCCHHHHHH
C      -0.0197850364      0.3308998265      0.0974441680
O       1.2230286369      0.5678912581      0.1655256213
O       2.1946497023     -0.4546555415     -0.0234324835
C      -0.5432206804     -1.0658155957     -0.2747049962
C      -1.8669402458     -1.3107279088     -0.3723055956
C      -0.8501686609      1.5987158112      0.3544656632
H       0.1801123231     -1.8782487201     -0.5294997619
H      -2.6269282107     -0.4892467847     -0.0431159059
H      -2.3532535732     -2.2931300159     -0.6573603588
H      -0.1651659095      2.4677050853      0.8873367961
H      -1.8264764657      1.1875085165      1.0836760310
H      -1.2568792614      1.8836448425     -0.6715811553
12
Frame=242  time=121.500fs  energy=-306.20181290Ha  molecule=COOCCCHHHHHH
C      -0.0227755754      0.3324593534      0.0963122831
O       1.2242189158      0.5695142697      0.1653717863
O       2.1950354147     -0.4550562872     -0.0233553007
C      -0.5434808693     -1.0697331700     -0.2719142198
C      -1.8638430939     -1.3143505118     -0.3767184433
C      -0.8521478431      1.6042410264      0.3552313024
H       0.1944653403     -1.8687436453     -0.5251353955
H      -2.6218687084     -0.4918903627     -0.0299178314
H      -2.3691216147     -2.2873274655     -0.6601721596
H      -0.1614191263      2.4649096309      0.8908966292
H      -1.8375187856      1.1653041273      1.0902064793
H      -1.2527290980      1.8820067920     -0.6715118287
12
Frame=243  time=122.000fs  energy=-306.20108069Ha  molecule=COOCCCHHHHHH
C      -0.0262506287      0.3337338566      0.0950073857
O       1.2262809734      0.5710361085      0.1652636857
O       2.1952380245     -0.4553668270     -0.0232963109
C      -0.5436421217     -1.0734262657     -0.2692574619
C      -1.8616745082     -1.3177272101     -0.3808428008
C      -0.8544420282      1.6091751880      0.3560519256
H       0.2110341988     -1.8604303556     -0.5204608347
H      -2.6143248400     -0.4958076937     -0.0182469907
H      -2.3808143103     -2.2818721866     -0.6635798304
H      -0.1600484114      2.4633644723      0.8953379698
H      -1.8478021259      1.1477936496      1.0968179176
H      -1.2473551915      1.8822458283     -0.6714635263
12
Frame=244  time=122.500fs  energy=-306.20054697Ha  molecule=COOCCCHHHHHH
C      -0.0300545428      0.3347432056      0.0935524325
O       1.2290507244      0.5724545091      0.1651931298
O       2.1952675165     -0.4555827498     -0.0232511298
C      -0.5436151344     -1.0768415999     -0.2667469721
C      -1.8604225830     -1.3209042738     -0.3846596398
C      -0.8570414581      1.6134392100      0.3570298575
H       0.2293915438     -1.8536730375     -0.5155893741
H      -2.6047202750     -0.5003040669     -0.0082683287
H      -2.3883389372     -2.2770412137     -0.6675993578
H      -0.1609189861      2.4633261804      0.9008204929
H      -1.8567220940      1.1350750828      1.1025588537
H      -1.2413695351      1.8845419078     -0.6718634822
12
Frame=245  time=123.000fs  energy=-306.20012957Ha  molecule=COOCCCHHHHHH
C      -0.0340568887      0.3350368020      0.0919696230
O       1.2323808725      0.5738856423      0.1651533360
O       2.1951239584     -0.4557368715     -0.0232163942
C      -0.5434301402     -1.0797295900     -0.2643935353
C      -1.8599458452     -1.3239985437     -0.3881537075
C      -0.8598582141      1.6169669843      0.3582433180
H       0.2489100636     -1.8481397915     -0.5106177911
H      -2.5929837429     -0.5042103281     -0.0001216703
H      -2.3916945400     -2.2734250956     -0.6722330186
H      -0.1645023688      2.4657734692      0.9074482114
H      -1.8640958360      1.1277786305      1.1064088366
H      -1.2355189178      1.8896279898     -0.6727519735
12
Frame=246  time=123.500fs  energy=-306.20027165Ha  molecule=COOCCCHHHHHH
C      -0.0379355768      0.3356619013      0.0902797900
O       1.2359301732      0.5752634865      0.1651387910
O       2.1949325224     -0.4559269317     -0.0231895924
C      -0.5426477434     -1.0824746818     -0.2622090015
C      -1.8602513505     -1.3268915294     -0.3913090459
C      -0.8627307748      1.6185962818      0.3597410599
H       0.2683564463     -1.8445330989     -0.5056298489
H      -2.5821372053     -0.5078326821      0.0060505961
H      -2.3922147214     -2.2710107055     -0.6774778495
H      -0.1723711598      2.4718296695      0.9152871368
H      -1.8697837468      1.1293771873      1.1069732176
H      -1.2302665877      1.9010420832     -0.6734076981
12
Frame=247  time=124.000fs  energy=-306.20078119Ha  molecule=COOCCCHHHHHH
C      -0.0415553402      0.3367707955      0.0885022173
O       1.2396118641      0.5765333194      0.1651451768
O       2.1946887411     -0.4561221123     -0.0231689466
C      -0.5412015385     -1.0851847771     -0.2602111144
C      -1.8612553230     -1.3295781696     -0.3941007225
C      -0.8657545735      1.6184929871      0.3615446332
H       0.2870183328     -1.8424716528     -0.5007020843
H      -2.5730797019     -0.5103598238      0.0100536762
H      -2.3902214756     -2.2704702763     -0.6833373118
H      -0.1835112601      2.4806582995      0.9243914665
H      -1.8735806454      1.1389539323      1.1044361594
H      -1.2257146290      1.9178305156     -0.6743261561
12
Frame=248  time=124.500fs  energy=-306.20134060Ha  molecule=COOCCCHHHHHH
C      -0.0448909382      0.3376469404      0.0866529512
O       1.2434803728      0.5776824640      0.1651687593
O       2.1942814023     -0.4561933166     -0.0231510167
C      -0.5393426988     -1.0876367445     -0.2585026736
C      -1.8627637910     -1.3321923868     -0.3962389407
C      -0.8690722484      1.6176696090      0.3636555136
H       0.3045281091     -1.8406448758     -0.4959260746
H      -2.5647657154     -0.5101094294      0.0105300790
H      -2.3853769946     -2.2729249023     -0.6908771240
H      -0.1958950505      2.4909310568      0.9347532400
H      -1.8755578733      1.1531235037      1.0998466086
H      -1.2218531076      1.9363973406     -0.6764660089
12
Frame=249  time=125.000fs  energy=-306.20209372Ha  molecule=COOCCCHHHHHH
C      -0.0476915179      0.3381400977      0.0847567252
O       1.2474817192      0.5785173499      0.1652057155
O       2.1936042383     -0.4559512016     -0.0231346006
C      -0.5370433888     -1.0899224055     -0.2571169293
C      -1.8645691985     -1.3346113867     -0.3976710894
C      -0.8727297666      1.6163360017      0.3660201478
H       0.3193425897     -1.8389990147     -0.4913789381
H      -2.5582961809     -0.5068815127      0.0071360068
H      -2.3773383479     -2.2792205667     -0.7001655598
H      -0.2093469013      2.5025278130      0.9463443216
H      -1.8762382988      1.1718223118      1.0936843415
H      -1.2187364942      1.9565061319     -0.6796353859
12
Frame=250  time=125.500fs  energy=-306.20285687Ha  molecule=COOCCCHHHHHH
C      -0.0497897723      0.3382499368      0.0828499965
O       1.2514778189      0.5790731376      0.1652520295
O       2.1926692030     -0.4554170227     -0.0231213920
C      -0.5343396277     -1.0920132615     -0.2559924532
C      -1.8665262089     -1.3368495713     -0.3986645373
C      -0.8767011424      1.6145652375      0.3685260077
H       0.3307716439     -1.8370034118     -0.4871171527
H      -2.5539468667     -0.5007074953      0.0009024761
H      -2.3665922059     -2.2895843421     -0.7099352877
H      -0.2235004635      2.5148438918      0.9591080648
H      -1.8763044215      1.1946253670      1.0867868552
H      -1.2162000231      1.9776588772     -0.6834058321
12
Frame=251  time=126.000fs  energy=-306.20344657Ha  molecule=COOCCCHHHHHH
C      -0.0510791075      0.3380683510      0.0809710262
O       1.2552832251      0.5795188972      0.1653036757
O       2.1915586960     -0.4547352795     -0.0231110970
C      -0.5313317424     -1.0937956083     -0.2551525587
C      -1.8685351748     -1.3389939719     -0.3992167925
C      -0.8809134783      1.6123745799      0.3710423573
H       0.3387895326     -1.8340949193     -0.4832069955
H      -2.5513133171     -0.4921882483     -0.0082992078
H      -2.3540362629     -2.3035435866     -0.7200408924
H      -0.2378570266      2.5269317299      0.9728414544
H      -1.8766196295      1.2208231577      1.0802076006
H      -1.2138551651      1.9990691299     -0.6871689044
12
Frame=252  time=126.500fs  energy=-306.20372133Ha  molecule=COOCCCHHHHHH
C      -0.0514241464      0.3376001562      0.0791633400
O       1.2587722451      0.5798752180      0.1653569211
O       2.1902805005     -0.4539132191     -0.0231038705
C      -0.5281525486     -1.0951987488     -0.2546133713
C      -1.8704658104     -1.3410197302     -0.3993462049
C      -0.8853259840      1.6099352837      0.3734350755
H       0.3431929968     -1.8305903501     -0.4796968045
H      -2.5500658785     -0.4828690973     -0.0204794301
H      -2.3398799211     -2.3202209155     -0.7302866603
H      -0.2519973096      2.5379649558      0.9872320005
H      -1.8781203126      1.2495375283      1.0749746759
H      -1.2112993633      2.0199775875     -0.6902250956
12
Frame=253  time=127.000fs  energy=-306.20363645Ha  molecule=COOCCCHHHHHH
C      -0.0507531881      0.3368669769      0.0774717710
O       1.2618436112      0.5801701801      0.1654088937
O       2.1888502517     -0.4529668819     -0.0231004334
C      -0.5249734393     -1.0961315801     -0.2543800386
C      -1.8722058711     -1.3429087009     -0.3990942103
C      -0.8898974151      1.6074389084      0.3756078424
H       0.3441973075     -1.8272298211     -0.4766077441
H      -2.5496673149     -0.4746879807     -0.0355021790
H      -2.3242661910     -2.3382552515     -0.7404406968
H      -0.2654589562      2.5471564647      1.0018853989
H      -1.8815027855      1.2796067455      1.0717871166
H      -1.2081899766      2.0396167354     -0.6920002093
12
Frame=254  time=127.500fs  energy=-306.20328131Ha  molecule=COOCCCHHHHHH
C      -0.0490716119      0.3359053159      0.0759377886
O       1.2644334152      0.5804363059      0.1654580408
O       2.1872902319     -0.4519194730     -0.0231021046
C      -0.5219760470     -1.0965046524     -0.2544460459
C      -1.8736531353     -1.3446613123     -0.3985209838
C      -0.8945943884      1.6050720884      0.3775351856
H       0.3423344692     -1.8249603453     -0.4739298904
H      -2.5496166083     -0.4694564735     -0.0530969796
H      -2.3073402957     -2.3561254078     -0.7502607105
H      -0.2777512578      2.5538943046      1.0163782107
H      -1.8870267245      1.3096838631      1.0707854553
H      -1.2043725218      2.0573151762     -0.6922396420
12
Frame=255  time=128.000fs  energy=-306.20281049Ha  molecule=COOCCCHHHHHH
C      -0.0464558302      0.3347623274      0.0745962656
O       1.2665183059      0.5807064535      0.1655042471
O       2.1856266746     -0.4507980333     -0.0231106986
C      -0.5193209105     -1.0962547811     -0.2547958612
C      -1.8747060354     -1.3463012008     -0.3976970565
C      -0.8993939163      1.6029934212      0.3792683635
H       0.3382508079     -1.8246325408     -0.4716252349
H      -2.5496593139     -0.4684211241     -0.0729026483
H      -2.2893187056     -2.3724995231     -0.7595182411
H      -0.2883828520      2.5578198207      1.0303103102
H      -1.8944872893      1.3383839334      1.0715409755
H      -1.1999339046      2.0725663954     -0.6910825475
12
Frame=256  time=128.500fs  energy=-306.20235796Ha  molecule=COOCCCHHHHHH
C      -0.0430344021      0.3334917614      0.0734746612
O       1.2681094341      0.5810105244      0.1655486458
O       2.1838870200     -0.4496301516     -0.0231283603
C      -0.5171255770     -1.0953608538     -0.2554091343
C      -1.8752585634     -1.3478714356     -0.3966953120
C      -0.9042791135      1.6013205553      0.3809142057
H       0.3325105105     -1.8267591330     -0.4696351068
H      -2.5498792600     -0.4720695244     -0.0945180095
H      -2.2705311861     -2.3864706620     -0.7680110585
H      -0.2968962685      2.5588273624      1.0433365648
H      -1.9033470464      1.3644181788      1.0732443631
H      -1.1951639179      2.0850406852     -0.6889947280
12
Frame=257  time=129.000fs  energy=-306.20197962Ha  molecule=COOCCCHHHHHH
C      -0.0389675270      0.3321515468      0.0725940495
O       1.2692422773      0.5813738928      0.1655933309
O       2.1820981316     -0.4484419043     -0.0231574514
C      -0.5154563464     -1.0938471290     -0.2562643712
C      -1.8752011545     -1.3494257914     -0.3955860893
C      -0.9092313079      1.6001280703      0.3826029916
H       0.3254794651     -1.8314110132     -0.4678879199
H      -2.5506731260     -0.4801722346     -0.1175391071
H      -2.2514293491     -2.3976369403     -0.7755631782
H      -0.3029015894      2.5570113449      1.0551752470
H      -1.9129272598      1.3866755588      1.0749611852
H      -1.1904674192      2.0945562413     -0.6866288316
12
Frame=258  time=129.500fs  energy=-306.20175820Ha  molecule=COOCCCHHHHHH
C      -0.0345043414      0.3304776097      0.0719707267
O       1.2700578192      0.5818685478      0.1656411360
O       2.1802615685     -0.4472555168     -0.0232005271
C      -0.5144497452     -1.0916682097     -0.2573410592
C      -1.8743932475     -1.3510424664     -0.3944355838
C      -0.9143487825      1.5998600064      0.3844593630
H       0.3174286429     -1.8379560398     -0.4663045231
H      -2.5520241853     -0.4916138867     -0.1415768293
H      -2.2321105118     -2.4063097881     -0.7820182282
H      -0.3051761109      2.5518336913      1.0656030743
H      -1.9224787285      1.4030221585      1.0762800072
H      -1.1861773646      2.0998053968     -0.6851142918
12
Frame=259  time=130.000fs  energy=-306.20190903Ha  molecule=COOCCCHHHHHH
C      -0.0298878768      0.3282694018      0.0716190754
O       1.2706866877      0.5825536950      0.1656956038
O       2.1783821345     -0.4460916489     -0.0232604518
C      -0.5141806766     -1.0888247206     -0.2586214797
C      -1.8727080679     -1.3527899172     -0.3933066131
C      -0.9196901574      1.6008548291      0.3865818514
H       0.3084184846     -1.8454955151     -0.4648022577
H      -2.5541468598     -0.5050163188     -0.1662627904
H      -2.2128291903     -2.4131136271     -0.7872236264
H      -0.3027765698      2.5429632411      1.0744369584
H      -1.9314078839      1.4117337563      1.0769445580
H      -1.1825953131      2.0997589897     -0.6854342579
12
Frame=260  time=130.500fs  energy=-306.20211808Ha  molecule=COOCCCHHHHHH
C      -0.0251635293      0.3262533735      0.0715537178
O       1.2710051303      0.5833417380      0.1657611712
O       2.1765324336     -0.4449748314     -0.0233405894
C      -0.5143545858     -1.0856401391     -0.2600909880
C      -1.8701288373     -1.3546617271     -0.3922616732
C      -0.9249328735      1.6022701199      0.3890293089
H       0.2980294149     -1.8537221950     -0.4632954826
H      -2.5590677511     -0.5198230489     -0.1912385649
H      -2.1951801074     -2.4182218545     -0.7910141903
H      -0.2975168104      2.5322650667      1.0815170684
H      -1.9395926522      1.4147224862      1.0757951819
H      -1.1801894671      2.0968894088     -0.6872008519
12
Frame=261  time=131.000fs  energy=-306.20245804Ha  molecule=COOCCCHHHHHH
C      -0.0205218439      0.3245498209      0.0717864279
O       1.2710642213      0.5842392062      0.1658431706
O       2.1747399611     -0.4439259653     -0.0234447380
C      -0.5148704595     -1.0822409335     -0.2617351597
C      -1.8666177738     -1.3566795250     -0.3913644625
C      -0.9299673076      1.6040024328      0.3918054108
H       0.2860657081     -1.8617068843     -0.4616917108
H      -2.5674928361     -0.5348568539     -0.2161384579
H      -2.1798728043     -2.4224131124     -0.7932225198
H      -0.2896536453      2.5201954898      1.0867270291
H      -1.9469829625      1.4118059497      1.0728809296
H      -1.1790786092      2.0913870657     -0.6905936198
12
Frame=262  time=131.500fs  energy=-306.20290402Ha  molecule=COOCCCHHHHHH
C      -0.0161613378      0.3232780176      0.0723252399
O       1.2709197707      0.5852514357      0.1659479744
O       2.1730318666     -0.4429654199     -0.0235771513
C      -0.5156039965     -1.0787461903     -0.2635390595
C      -1.8622023729     -1.3588462044     -0.3906808087
C      -0.9346614530      1.6059262985      0.3948513487
H       0.2724239845     -1.8685752266     -0.4598911104
H      -2.5798312207     -0.5491729666     -0.2405831955
H      -2.1674941376     -2.4264529873     -0.7936794296
H      -0.2796500956      2.5072215470      1.0900027829
H      -1.9537877933      1.4030275981      1.0686729466
H      -1.1791692275      2.0834539518     -0.6954900744
12
Frame=263  time=132.000fs  energy=-306.20337323Ha  molecule=COOCCCHHHHHH
C      -0.0122826641      0.3225513734      0.0731725791
O       1.2706310695      0.5863825286      0.1660831286
O       2.1714342635     -0.4421125662     -0.0237424858
C      -0.5164152382     -1.0752526646     -0.2654861549
C      -1.8570019532     -1.3611439959     -0.3902784572
C      -0.9388676326      1.6078961912      0.3980477562
H       0.2572111161     -1.8736736062     -0.4577874195
H      -2.5960287114     -0.5622773364     -0.2641780327
H      -2.1583886631     -2.4309068263     -0.7922207426
H      -0.2681823020      2.4938214445      1.0913497006
H      -1.9604329915      1.3886771935      1.0640129280
H      -1.1801461318      2.0733060719     -0.7014445407
12
Frame=264  time=132.500fs  energy=-306.20372312Ha  molecule=COOCCCHHHHHH
C      -0.0090752499      0.3224687511      0.0743220329
O       1.2702583262      0.5876344897      0.1662573174
O       2.1699705767     -0.4413843336     -0.0239455838
C      -0.5171587717     -1.0718209874     -0.2675567419
C      -1.8512474988     -1.3635362395     -0.3902241855
C      -0.9424370559      1.6097499872      0.4012292115
H       0.2408525602     -1.8767289137     -0.4552729629
H      -2.6154466757     -0.5742713903     -0.2865227126
H      -2.1525375070     -2.4359756870     -0.7887057364
H      -0.2561163175      2.4804934681      1.0908689512
H      -1.9674597050      1.3693138772      1.0599703134
H      -1.1815086604      2.0611917580     -0.7077286727
12
Frame=265  time=133.000fs  energy=-306.20380549Ha  molecule=COOCCCHHHHHH
C      -0.0066944827      0.3231014487      0.0757547788
O       1.2698575292      0.5890058041      0.1664799895
O       2.1686588634     -0.4407927638     -0.0241910702
C      -0.5176984677     -1.0684674549     -0.2697265055
C      -1.8452749155     -1.3659753965     -0.3905772736
C      -0.9452425510      1.6113180537      0.4042151030
H       0.2241410712     -1.8779465694     -0.4522497303
H      -2.6368884253     -0.5858028144     -0.3072402957
H      -2.1494981373     -2.4414440935     -0.7830466027
H      -0.2444317444      2.4677590139      1.0887824594
H      -1.9753642189      1.3457622086      1.0575979042
H      -1.1826713772      2.0474173690     -0.7134633322
12
Frame=266  time=133.500fs  energy=-306.20361855Ha  molecule=COOCCCHHHHHH
C      -0.0052000411      0.3245372548      0.0774382323
O       1.2694242190      0.5903435252      0.1667607012
O       2.1674500353     -0.4402093526     -0.0244829046
C      -0.5179352420     -1.0651879185     -0.2719664681
C      -1.8394941846     -1.3684926959     -0.3913813879
C      -0.9470223929      1.6124916491      0.4068532432
H       0.2083928341     -1.8778331104     -0.4486433882
H      -2.6584901671     -0.5976180378     -0.3260181729
H      -2.1488933423     -2.4466243028     -0.7752357736
H      -0.2345663000      2.4569054007      1.0854348426
H      -1.9845221738      1.3184611349      1.0575525075
H      -1.1832310491      2.0317822174     -0.7177564469
12
Frame=267  time=134.000fs  energy=-306.20333174Ha  molecule=COOCCCHHHHHH
C      -0.0046050280      0.3267852080      0.0793336293
O       1.2689691306      0.5915857859      0.1671085907
O       2.1663249469     -0.4395841098     -0.0248263742
C      -0.5177975747     -1.0619445493     -0.2741628060
C      -1.8342966998     -1.3710861528     -0.3929281882
C      -0.9476877864      1.6131495404      0.4090444957
H       0.1948789234     -1.8771880308     -0.4443954855
H      -2.6786321958     -0.6104390509     -0.3414779095
H      -2.1498833580     -2.4508582466     -0.7642442777
H      -0.2274956627      2.4487262783      1.0813004095
H      -1.9948606417      1.2882471324      1.0600280488
H      -1.1829722069      2.0145706302     -0.7200407858
12
Frame=268  time=134.500fs  energy=-306.20310953Ha  molecule=COOCCCHHHHHH
C      -0.0049915168      0.3298514565      0.0813933188
O       1.2685010153      0.5930754820      0.1675325007
O       2.1654433106     -0.4392336764     -0.0252246551
C      -0.5172523752     -1.0585892273     -0.2762522913
C      -1.8300413159     -1.3737823758     -0.3953265601
C      -0.9474290294      1.6129810224      0.4107778747
H       0.1850390858     -1.8764241855     -0.4394882081
H      -2.6960282615     -0.6245665767     -0.3530432189
H      -2.1516786644     -2.4536343741     -0.7497912683
H      -0.2230969161      2.4425927300      1.0768662000
H      -2.0057257745      1.2566732893      1.0647825451
H      -1.1817335430      1.9968249665     -0.7202834892
12
Frame=269  time=135.000fs  energy=-306.20291642Ha  molecule=COOCCCHHHHHH
C      -0.0062494337      0.3335897157      0.0835600741
O       1.2680625887      0.5947543935      0.1680413690
O       2.1647675425     -0.4391018456     -0.0256769833
C      -0.5162685706     -1.0551416686     -0.2783039672
C      -1.8269221608     -1.3765116781     -0.3982473633
C      -0.9463886308      1.6119517168      0.4121320147
H       0.1792893221     -1.8762609623     -0.4339515476
H      -2.7102698632     -0.6399950141     -0.3620433867
H      -2.1530049406     -2.4549525720     -0.7333959323
H      -0.2216544561      2.4388828329      1.0725528188
H      -2.0164188982      1.2249660206      1.0710179409
H      -1.1797800690      1.9792437393     -0.7187371636
12
Frame=270  time=135.500fs  energy=-306.20280043Ha  molecule=COOCCCHHHHHH
C      -0.0082163560      0.3378398781      0.0857804290
O       1.2676784439      0.5965112439      0.1686441372
O       2.1642343409     -0.4390807820     -0.0261842428
C      -0.5148381903     -1.0516688398     -0.2803174194
C      -1.8250262039     -1.3792305933     -0.4015858830
C      -0.9446920489      1.6100790892      0.4132190427
H       0.1776935010     -1.8769568036     -0.4278164443
H      -2.7213494614     -0.6561705717     -0.3688482212
H      -2.1529128165     -2.4551412954     -0.7156418597
H      -0.2233949458      2.4381449392      1.0687932348
H      -2.0261056323      1.1940639273      1.0776714962
H      -1.1776249708      1.9624075364     -0.7158673742
12
Frame=271  time=136.000fs  energy=-306.20276742Ha  molecule=COOCCCHHHHHH
C      -0.0107408570      0.3424884851      0.0880024311
O       1.2673338282      0.5983308683      0.1693498333
O       2.1638284258     -0.4391488050     -0.0267477789
C      -0.5129869868     -1.0482290263     -0.2822719375
C      -1.8243636456     -1.3819697380     -0.4053031183
C      -0.9424544751      1.6073378698      0.4141653587
H       0.1802787004     -1.8780211270     -0.4211212355
H      -2.7293916490     -0.6719904356     -0.3735520536
H      -2.1511273686     -2.4547451899     -0.6968343694
H      -0.2283183075      2.4407175050      1.0659919798
H      -2.0339130053      1.1647191888      1.0836457444
H      -1.1758453585      1.9467860731     -0.7122638399
12
Frame=272  time=136.500fs  energy=-306.20281846Ha  molecule=COOCCCHHHHHH
C      -0.0136484807      0.3474072611      0.0901745635
O       1.2670092083      0.6001980995      0.1701675857
O       2.1635327800     -0.4392815816     -0.0273688963
C      -0.5107646191     -1.0449077456     -0.2841481877
C      -1.8248485500     -1.3847607845     -0.4093551155
C      -0.9397980062      1.6037356085      0.4150885147
H       0.1867481800     -1.8785756778     -0.4139146859
H      -2.7348170381     -0.6861105417     -0.3762776822
H      -2.1476724978     -2.4545891972     -0.6772939128
H      -0.2363153430      2.4468177754      1.0645000345
H      -2.0391175133      1.1376068146      1.0879995237
H      -1.1750087412      1.9327793275     -0.7085096053
12
Frame=273  time=137.000fs  energy=-306.20298005Ha  molecule=COOCCCHHHHHH
C      -0.0167475766      0.3524549351      0.0922458345
O       1.2666823106      0.6020980309      0.1711066241
O       2.1633290481     -0.4394528387     -0.0280489173
C      -0.5082469874     -1.0418021682     -0.2859278853
C      -1.8263184663     -1.3876297808     -0.4136935677
C      -0.9368448984      1.5993161618      0.4160734372
H       0.1965796014     -1.8775335265     -0.4062558764
H      -2.7382110118     -0.6971633165     -0.3771728804
H      -2.1428195337     -2.4556522479     -0.6573549010
H      -0.2472065100      2.4564982725      1.0646005893
H      -2.0412718450      1.1133405908      1.0901218121
H      -1.1755763166      1.9206941484     -0.7050590024
12
Frame=274  time=137.500fs  energy=-306.20329017Ha  molecule=COOCCCHHHHHH
C      -0.0198355518      0.3574804137      0.0941656086
O       1.2663301006      0.6040158934      0.1721765078
O       2.1631980316     -0.4396350043     -0.0287892890
C      -0.5055371127     -1.0390033787     -0.2875933590
C      -1.8285627585     -1.3905918055     -0.4182665033
C      -0.9337127197      1.5941609769      0.4171547901
H       0.2091524400     -1.8738172321     -0.3982145638
H      -2.7401704674     -0.7039941699     -0.3764060556
H      -2.1369986198     -2.4588991366     -0.6373657221
H      -0.2607754607      2.4696178807      1.0664970541
H      -2.0402918203      1.0924869994      1.0898529722
H      -1.1778262552      1.9107297203     -0.7021375761
12
Frame=275  time=138.000fs  energy=-306.20376242Ha  molecule=COOCCCHHHHHH
C      -0.0227095144      0.3622242383      0.0958830983
O       1.2659323198      0.6059617744      0.1733874934
O       2.1631180469     -0.4398072150     -0.0295916968
C      -0.5027887481     -1.0365295626     -0.2891270368
C      -1.8313382396     -1.3936625640     -0.4230184234
C      -0.9304965462      1.5883867849      0.4183090690
H       0.2238691267     -1.8665087494     -0.3898726645
H      -2.7409919663     -0.7058326008     -0.3741640697
H      -2.1306323215     -2.4651143367     -0.6176922729
H      -0.2769284934      2.4860037136      1.0703028695
H      -2.0365387228      1.0757059893      1.0874670138
H      -1.1818590354      1.9031082794     -0.6996196088
12
Frame=276  time=138.500fs  energy=-306.20432113Ha  molecule=COOCCCHHHHHH
C      -0.0251658369      0.3664465035      0.0973472461
O       1.2654724291      0.6079389764      0.1747506116
O       2.1630676546     -0.4399461623     -0.0304580361
C      -0.5001789471     -1.0343726484     -0.2905112096
C      -1.8344160894     -1.3968381511     -0.4278893557
C      -0.9272926483      1.5821501769      0.4194580955
H       0.2402650743     -1.8551327289     -0.3813274443
H      -2.7407201209     -0.7026063510     -0.3706563538
H      -2.1240792320     -2.4746495596     -0.5987236458
H      -0.2955061997      2.5052340924      1.0760273170
H      -2.0307414581      1.0635686119      1.0837189613
H      -1.1875307159      1.8979122521     -0.6971042774
12
Frame=277  time=139.000fs  energy=-306.20474318Ha  molecule=COOCCCHHHHHH
C      -0.0269988175      0.3701967305      0.0985090171
O       1.2649378913      0.6098783678      0.1762766007
O       2.1630312560     -0.4400071650     -0.0313900078
C      -0.4978454422     -1.0326148958     -0.2917288977
C      -1.8376408397     -1.4000576646     -0.4328132762
C      -0.9242470899      1.5756564527      0.4204853671
H       0.2580831358     -1.8400083991     -0.3726951554
H      -2.7394734858     -0.6952828164     -0.3661268920
H      -2.1176712755     -2.4871526746     -0.5808699542
H      -0.3158685178      2.5261911421      1.0835508086
H      -2.0237969047      1.0561399514      1.0798899979
H      -1.1943522693      1.8947349785     -0.6941427729
12
Frame=278  time=139.500fs  energy=-306.20482948Ha  molecule=COOCCCHHHHHH
C      -0.0280484338      0.3733571537      0.0993277066
O       1.2643318024      0.6117559969      0.1779732947
O       2.1629906590     -0.4399620256     -0.0323883278
C      -0.4959772554     -1.0311905290     -0.2927662979
C      -1.8408640382     -1.4032821883     -0.4377182350
C      -0.9214813282      1.5691429563      0.4212687295
H       0.2772384437     -1.8220235317     -0.3641100556
H      -2.7368057064     -0.6855011619     -0.3608645614
H      -2.1114343251     -2.5016524308     -0.5645374492
H      -0.3375042200      2.5479073088      1.0926015665
H      -2.0168273493      1.0534762162      1.0772321158
H      -1.2017847428      1.8933036051     -0.6900800877
12
Frame=279  time=140.000fs  energy=-306.20451351Ha  molecule=COOCCCHHHHHH
C      -0.0282179855      0.3758451558      0.0997777941
O       1.2636737696      0.6135488171      0.1798432577
O       2.1629307891     -0.4397883280     -0.0334521428
C      -0.4947426161     -1.0299908985     -0.2936153032
C      -1.8439663274     -1.4064802837     -0.4425303855
C      -0.9191204819      1.5628634048      0.4217250699
H       0.2977369134     -1.8026065366     -0.3557151585
H      -2.7322113744     -0.6753134904     -0.3551937970
H      -2.1052399694     -2.5166945002     -0.5500877674
H      -0.3597524475      2.5693575414      1.1027685385
H      -2.0108238583      1.0552815340      1.0767257740
H      -1.2092885909      1.8932670169     -0.6843928620
12
Frame=280  time=140.500fs  energy=-306.20389169Ha  molecule=COOCCCHHHHHH
C      -0.0274895427      0.3776207304      0.0998525982
O       1.2629991700      0.6152373748      0.1818829014
O       2.1628415440     -0.4394720325     -0.0345788522
C      -0.4942554358     -1.0288952096     -0.2942749140
C      -1.8468436667     -1.4096399878     -0.4471805095
C      -0.9172859222      1.5570586787      0.4218478505
H       0.3195150292     -1.7833455674     -0.3476486537
H      -2.7253925081     -0.6666243656     -0.3494477517
H      -2.0989249002     -2.5307208138     -0.5378010004
H      -0.3818410150      2.5896086290      1.1135534442
H      -2.0063887131      1.0609022477      1.0787705003
H      -1.2164824074      1.8942569775     -0.6768944433
12
Frame=281  time=141.000fs  energy=-306.20311718Ha  molecule=COOCCCHHHHHH
C      -0.0259201941      0.3786850460      0.0995630807
O       1.2623542566      0.6168073253      0.1840833596
O       2.1627187041     -0.4390080246     -0.0357643364
C      -0.4945525170     -1.0278055475     -0.2947509494
C      -1.8493957658     -1.4127717577     -0.4516100089
C      -0.9160852950      1.5519314561      0.4217162057
H       0.3422890506     -1.7655613157     -0.3400325587
H      -2.7164305046     -0.6607369245     -0.3439371923
H      -2.0924155731     -2.5424574783     -0.5278592954
H      -0.4029614515      2.6079327849      1.1244370265
H      -2.0036298277      1.0694203813      1.0831038036
H      -1.2232358534      1.8959443999     -0.6678153731
12
Frame=282  time=141.500fs  energy=-306.20229665Ha  molecule=COOCCCHHHHHH
C      -0.0236243548      0.3790736914      0.0989335160
O       1.2617896187      0.6182494016      0.1864322226
O       2.1625636994     -0.4383988881     -0.0370034456
C      -0.4955896955     -1.0266696496     -0.2950544747
C      -1.8515220148     -1.4159017549     -0.4557741524
C      -0.9156027276      1.5476324637      0.4214722891
H       0.3654916782     -1.7500375095     -0.3329666028
H      -2.7058074486     -0.6581696358     -0.3389280906
H      -2.0858066985     -2.5511631021     -0.5203509080
H      -0.4223533732      2.6238463136      1.1349333765
H      -2.0022453032      1.0797988306      1.0889673864
H      -1.2296520940      1.8980677644     -0.6577266423
12
Frame=283  time=142.000fs  energy=-306.20147800Ha  molecule=COOCCCHHHHHH
C      -0.0207523067      0.3788490387      0.0979968348
O       1.2613541837      0.6195586134      0.1889150782
O       2.1623825964     -0.4376530177     -0.0382905096
C      -0.4972546287     -1.0254846799     -0.2951999635
C      -1.8531260201     -1.4190607185     -0.4596428008
C      -0.9158908235      1.5442570610      0.4212827918
H       0.3883193762     -1.7369812023     -0.3265259630
H      -2.6943066615     -0.6587268336     -0.3346308695
H      -2.0793702145     -2.5566901843     -0.5152827538
H      -0.4393791196      2.6370881902      1.1446239786
H      -2.0017131549      1.0910203436      1.0953906663
H      -1.2359746166      1.9004346037     -0.6473733250
12
Frame=284  time=142.500fs  energy=-306.20069448Ha  molecule=COOCCCHHHHHH
C      -0.0174707208      0.3780934009      0.0967908953
O       1.2610905277      0.6207334403      0.1915165580
O       2.1621847439     -0.4367828219     -0.0396197269
C      -0.4993894454     -1.0242859148     -0.2952037948
C      -1.8541263712     -1.4222739269     -0.4631998444
C      -0.9169656092      1.5418477028      0.4213018773
H       0.4098606922     -1.7261580326     -0.3207608272
H      -2.6828518828     -0.6617184004     -0.3311974552
H      -2.0735023868     -2.5593935330     -0.5125932110
H      -0.4535797787      2.6475726190      1.1531758388
H      -2.0014846015      1.1021922909      1.1014591836
H      -1.2424781393      1.9029095785     -0.6375006211
12
Frame=285  time=143.000fs  energy=-306.19998428Ha  molecule=COOCCCHHHHHH
C      -0.0139461102      0.3769017094      0.0953552102
O       1.2610319906      0.6217750650      0.1942212415
O       2.1619813502     -0.4358030275     -0.0409854951
C      -0.5018170070     -1.0231286250     -0.2950829229
C      -1.8544678550     -1.4255550572     -0.4664414567
C      -0.9188070928      1.5404013843      0.4216452016
H       0.4292472958     -1.7171051314     -0.3156983162
H      -2.6723400249     -0.6662290110     -0.3287245471
H      -2.0686382417     -2.5599480003     -0.5121681392
H      -0.4647004618      2.6553344462      1.1603465256
H      -2.0011252333      1.1126108135      1.1064995327
H      -1.2493815901      1.9053995222     -0.6287197747
12
Frame=286  time=143.500fs  energy=-306.19936960Ha  molecule=COOCCCHHHHHH
C      -0.0103270086      0.3752159645      0.0937252958
O       1.2612751844      0.6226723415      0.1970147179
O       2.1617579771     -0.4347038252     -0.0423816345
C      -0.5043737306     -1.0220809132     -0.2948954015
C      -1.8540844700     -1.4288131454     -0.4692359807
C      -0.9215009523      1.5400179231      0.4223862590
H       0.4453675854     -1.7095812349     -0.3113569327
H      -2.6637819242     -0.6714803440     -0.3278552858
H      -2.0645294640     -2.5594029317     -0.5144294903
H      -0.4723230010      2.6600877295      1.1659530111
H      -2.0003616761      1.1218649005      1.1102749208
H      -1.2567515924      1.9078816230     -0.6215728242
12
Frame=287  time=144.000fs  energy=-306.19920166Ha  molecule=COOCCCHHHHHH
C      -0.0067155127      0.3727935336      0.0919291650
O       1.2619854283      0.6233191588      0.1998847978
O       2.1614348560     -0.4333728086     -0.0438016580
C      -0.5069273093     -1.0212324892     -0.2947425107
C      -1.8528848294     -1.4318531759     -0.4713050522
C      -0.9252153712      1.5409860306      0.4235628392
H       0.4568264572     -1.7037583207     -0.3077609512
H      -2.6582281753     -0.6769702324     -0.3298561557
H      -2.0601729789     -2.5590314816     -0.5204256324
H      -0.4759263420      2.6614081291      1.1698365380
H      -1.9991263653      1.1295943587      1.1129531091
H      -1.2645369393      1.9101794964     -0.6165334610
12
Frame=288  time=144.500fs  energy=-306.19913753Ha  molecule=COOCCCHHHHHH
C      -0.0031755108      0.3703352527      0.0899949060
O       1.2630633873      0.6235909032      0.2028219367
O       2.1610516421     -0.4317916331     -0.0452431694
C      -0.5091909968     -1.0208396062     -0.2946073876
C      -1.8509816485     -1.4346718559     -0.4727371816
C      -0.9297421858      1.5429512758      0.4251656556
H       0.4634195958     -1.6996192548     -0.3049274821
H      -2.6566674355     -0.6824754680     -0.3343930255
H      -2.0567693601     -2.5590085344     -0.5297185042
H      -0.4760493127      2.6596902540      1.1718915648
H      -1.9974554195      1.1357511471      1.1145245754
H      -1.2726149050      1.9124543943     -0.6134985066
12
Frame=289  time=145.000fs  energy=-306.19977179Ha  molecule=COOCCCHHHHHH
C       0.0001524041      0.3696064889      0.0879510935
O       1.2643871640      0.6233011958      0.2058184851
O       2.1607577157     -0.4300305607     -0.0467068339
C      -0.5107338044     -1.0215510011     -0.2943853433
C      -1.8487225212     -1.4372476363     -0.4738893284
C      -0.9350849972      1.5457481249      0.4271489494
H       0.4659111126     -1.6973348973     -0.3028783320
H      -2.6606353705     -0.6882363577     -0.3399605431
H      -2.0565542858     -2.5588820205     -0.5407851027
H      -0.4708147993      2.6525192903      1.1720313869
H      -1.9948055344      1.1376443789      1.1162418592
H      -1.2801104016      1.9122543610     -0.6132974441
12
Frame=290  time=145.500fs  energy=-306.20070420Ha  molecule=COOCCCHHHHHH
C       0.0030851398      0.3699544193      0.0858176945
O       1.2659864385      0.6226376946      0.2088679375
O       2.1605616941     -0.4281643641     -0.0481909551
C      -0.5115769581     -1.0230237064     -0.2940743560
C      -1.8460457664     -1.4396618616     -0.4747619807
C      -0.9410602570      1.5493366191      0.4294647192
H       0.4639009473     -1.6966573362     -0.3016917804
H      -2.6690955885     -0.6936912938     -0.3465842252
H      -2.0593152836     -2.5591646732     -0.5535966039
H      -0.4613801890      2.6411250866      1.1700632819
H      -1.9918885232      1.1361324847      1.1181242158
H      -1.2870984390      1.9105403479     -0.6152896992
12
Frame=291  time=146.000fs  energy=-306.20176817Ha  molecule=COOCCCHHHHHH
C       0.0053964084      0.3703061163      0.0836162970
O       1.2678970829      0.6218961944      0.2119636923
O       2.1604694930     -0.4263035898     -0.0496941540
C      -0.5118257761     -1.0246904796     -0.2936700188
C      -1.8428697411     -1.4420473172     -0.4753526912
C      -0.9474040882      1.5536647608      0.4320354950
H       0.4570665202     -1.6973723375     -0.3014727390
H      -2.6801271982     -0.6983162745     -0.3543012865
H      -2.0644573908     -2.5602717778     -0.5681473618
H      -0.4495599783      2.6274600338      1.1657740325
H      -1.9897620777      1.1326983901      1.1201242806
H      -1.2937292079      1.9088415397     -0.6184110851
12
Frame=292  time=146.500fs  energy=-306.20292712Ha  molecule=COOCCCHHHHHH
C       0.0069071745      0.3706616122      0.0813739692
O       1.2701274066      0.6211151916      0.2150973315
O       2.1605132937     -0.4244838969     -0.0512149145
C      -0.5113483048     -1.0264872117     -0.2931680007
C      -1.8393507677     -1.4443652022     -0.4756656786
C      -0.9540033601      1.5586775804      0.4347472096
H       0.4454387475     -1.7003083286     -0.3023286971
H      -2.6930399014     -0.7027029900     -0.3631249257
H      -2.0716366299     -2.5619750803     -0.5843986811
H      -0.4358151390      2.6117438551      1.1590116217
H      -1.9890711355      1.1275561716      1.1230466831
H      -1.2995289592      1.9072993003     -0.6220872881
12
Frame=293  time=147.000fs  energy=-306.20404021Ha  molecule=COOCCCHHHHHH
C       0.0074588844      0.3710186603      0.0791249554
O       1.2726596641      0.6203438745      0.2182574175
O       2.1607274913     -0.4227457002     -0.0527511859
C      -0.5100405053     -1.0283263595     -0.2925660089
C      -1.8357218192     -1.4465730423     -0.4757183652
C      -0.9607198854      1.5642723658      0.4374614538
H       0.4294601111     -1.7065442422     -0.3043466660
H      -2.7067480543     -0.7077626831     -0.3730154437
H      -2.0801351403     -2.5637044393     -0.6022405247
H      -0.4207883962      2.5943800844      1.1497659501
H      -1.9904144100      1.1211044713      1.1276880839
H      -1.3039874008      1.9060936134     -0.6255970407
12
Frame=294  time=147.500fs  energy=-306.20500704Ha  molecule=COOCCCHHHHHH
C       0.0069485757      0.3713719583      0.0769102702
O       1.2754389173      0.6196401381      0.2214292276
O       2.1611449765     -0.4211304156     -0.0543002298
C      -0.5078501210     -1.0301175861     -0.2918654650
C      -1.8322619858     -1.4486356818     -0.4755451370
C      -0.9674032671      1.5702918353      0.4400479940
H       0.4099769466     -1.7171485268     -0.3075706683
H      -2.7199359986     -0.7144640798     -0.3838602862
H      -2.0889146287     -2.5646655757     -0.6214707854
H      -0.4052589272      2.5759974914      1.1382351166
H      -1.9941235971      1.1139113094      1.1345492838
H      -1.3067062014      1.9054510162     -0.6282297908
12
Frame=295  time=148.000fs  energy=-306.20575511Ha  molecule=COOCCCHHHHHH
C       0.0053557586      0.3717127231      0.0747757741
O       1.2783696412      0.6190659848      0.2245953098
O       2.1617937396     -0.4196755971     -0.0558586751
C      -0.5047914197     -1.0318020970     -0.2910723723
C      -1.8292363050     -1.4505349503     -0.4751967715
C      -0.9739097497      1.5765314894      0.4424252817
H       0.3880656369     -1.7327865098     -0.3119890925
H      -2.7313555880     -0.7234536539     -0.3954710156
H      -2.0968077586     -2.5641013212     -0.6417996212
H      -0.3900459449      2.5574374860      1.1248453582
H      -2.0000600551      1.1066482373      1.1435531263
H      -1.3075652501      1.9056495179     -0.6294991071
12
Frame=296  time=148.500fs  energy=-306.20616229Ha  molecule=COOCCCHHHHHH
C       0.0027535138      0.3720285177      0.0727696419
O       1.2813210411      0.6186819675      0.2277364434
O       2.1626942203     -0.4184103224     -0.0574226705
C      -0.5009496056     -1.0333864684     -0.2901976137
C      -1.8268286710     -1.4522721039     -0.4747371250
C      -0.9801170128      1.5827559373      0.4445863717
H       0.3647812923     -1.7533345028     -0.3175309435
H      -2.7401274818     -0.7347204186     -0.4075928400
H      -2.1027816990     -2.5616109925     -0.6628687417
H      -0.3759116461      2.5396927382      1.1102256048
H      -2.0075385476      1.1000126381      1.1539275016
H      -1.3068250027      1.9070106498     -0.6293026182
12
Frame=297  time=149.000fs  energy=-306.20605554Ha  molecule=COOCCCHHHHHH
C      -0.0006949411      0.3723031692      0.0709390417
O       1.2841400864      0.6185409082      0.2308328902
O       2.1638565063     -0.4173509458     -0.0589880480
C      -0.4964787348     -1.0349579707     -0.2892570762
C      -1.8250919467     -1.4538623400     -0.4742386285
C      -0.9859308842      1.5887210518      0.4465947958
H       0.3409634652     -1.7776794723     -0.3240658514
H      -2.7459353508     -0.7474471911     -0.4199212803
H      -2.1061852810     -2.5574037720     -0.6842760923
H      -0.3634928776      2.5237975611      1.0951482419
H      -2.0154388048      1.0946652582      1.1643477193
H      -1.3051084313      1.9098623497     -0.6279444917
12
Frame=298  time=149.500fs  energy=-306.20535967Ha  molecule=COOCCCHHHHHH
C      -0.0047551845      0.3725171069      0.0693254597
O       1.2866716530      0.6186808441      0.2338661442
O       2.1652773686     -0.4164976605     -0.0605505112
C      -0.4915912364     -1.0366665335     -0.2882713056
C      -1.8239361280     -1.4553253435     -0.4737762684
C      -0.9912855223      1.5942033565      0.4485501472
H       0.3171919915     -1.8038775345     -0.3314097704
H      -2.7490464876     -0.7601417203     -0.4321280792
H      -2.1068916465     -2.5523493375     -0.7056080364
H      -0.3532626992      2.5106663680      1.0804353361
H      -2.0224964604      1.0911790542      1.1733266819
H      -1.3032519050      1.9144675210     -0.6260028373
12
Frame=299  time=150.000fs  energy=-306.20423823Ha  molecule=COOCCCHHHHHH
C      -0.0091570685      0.3726489891      0.0679596074
O       1.2887818083      0.6191191607      0.2368209832
O       2.1669389791     -0.4158336513     -0.0621059298
C      -0.4865335336     -1.0386755180     -0.2872639420
C      -1.8231658761     -1.4566765427     -0.4734198372
C      -0.9961399711      1.5990330028      0.4505379764
H       0.2938893526     -1.8296836416     -0.3393422695
H      -2.7501370305     -0.7710562004     -0.4438975823
H      -2.1052643895     -2.5477424685     -0.7264807970
H      -0.3455166318      2.5009160441      1.0668382758
H      -2.0276763553      1.0899906117      1.1797094243
H      -1.3020674023      1.9209405841     -0.6240899292
12
Frame=300  time=150.500fs  energy=-306.20299780Ha  molecule=COOCCCHHHHHH
C      -0.0136384543      0.3726788588      0.0668588626
O       1.2903749851      0.6198517005      0.2396868237
O       2.1688115930     -0.4153286188     -0.0636507370
C      -0.4815510434     -1.0411083262     -0.2862589157
C      -1.8225535149     -1.4579218819     -0.4732265879
C      -1.0004732757      1.6031152728      0.4525895446
H       0.2714651365     -1.8531858534     -0.3476346772
H      -2.7499820408     -0.7787377720     -0.4549630823
H      -2.1019477431     -2.5448627982     -0.7465794113
H      -0.3403833257      2.4947652687      1.0549320851
H      -2.0304495476      1.0913683991      1.1830196033
H      -1.3021184850      1.9292021212     -0.6226156058
12
Frame=301  time=151.000fs  energy=-306.20196472Ha  molecule=COOCCCHHHHHH
C      -0.0180048248      0.3720754585      0.0660298125
O       1.2914032688      0.6209864957      0.2424573082
O       2.1708495819     -0.4149844494     -0.0651821779
C      -0.4769753326     -1.0437681122     -0.2852779267
C      -1.8218292517     -1.4591347477     -0.4732384366
C      -1.0041937110      1.6064126757      0.4546728076
H       0.2503717047     -1.8728391507     -0.3560770678
H      -2.7483881236     -0.7820634218     -0.4651229301
H      -2.0973280753     -2.5447377435     -0.7656722192
H      -0.3385888698      2.4929669039      1.0450798690
H      -2.0310702576      1.0961046685      1.1831401286
H      -1.3038742762      1.9396877873     -0.6213504989
12
Frame=302  time=151.500fs  energy=-306.20137381Ha  molecule=COOCCCHHHHHH
C      -0.0221028804      0.3704879789      0.0654755835
O       1.2918428101      0.6225819664      0.2451278886
O       2.1730122505     -0.4147898521     -0.0666981050
C      -0.4730601932     -1.0464875716     -0.2843399750
C      -1.8208195416     -1.4603545121     -0.4734861150
C      -1.0072427539      1.6089334362      0.4567098501
H       0.2311697923     -1.8879003230     -0.3644896854
H      -2.7451005772     -0.7807378067     -0.4742239693
H      -2.0917076285     -2.5477988631     -0.7835884151
H      -0.3405477540      2.4957835436      1.0374839775
H      -2.0300715635      1.1046640493      1.1805063198
H      -1.3074437896      1.9525147192     -0.6199140570
12
Frame=303  time=152.000fs  energy=-306.20095962Ha  molecule=COOCCCHHHHHH
C      -0.0257544840      0.3688392192      0.0652020451
O       1.2916634833      0.6243814894      0.2476934319
O       2.1752886227     -0.4146403804     -0.0681965241
C      -0.4697435577     -1.0496882006     -0.2834627302
C      -1.8196122618     -1.4614257979     -0.4739955824
C      -1.0097682148      1.6107328530      0.4585979767
H       0.2145949618     -1.8989470502     -0.3727162318
H      -2.7414691295     -0.7758678784     -0.4821328932
H      -2.0858280965     -2.5536108109     -0.8001829521
H      -0.3448652577      2.5012416180      1.0322573884
H      -2.0275570914      1.1157901242      1.1765595314
H      -1.3121636823      1.9660934717     -0.6185717323
12
Frame=304  time=152.500fs  energy=-306.20070811Ha  molecule=COOCCCHHHHHH
C      -0.0288587015      0.3671679562      0.0652174785
O       1.2908579770      0.6263477902      0.2501482570
O       2.1776525054     -0.4144994118     -0.0696754669
C      -0.4671371982     -1.0533247220     -0.2826632915
C      -1.8182124885     -1.4623287827     -0.4747893958
C      -1.0117753178      1.6118552991      0.4602272794
H       0.2013875304     -1.9063227257     -0.3806160453
H      -2.7372818679     -0.7683633986     -0.4887304353
H      -2.0797909767     -2.5616028490     -0.8153280459
H      -0.3513555284      2.5088562494      1.0294386745
H      -2.0241218050      1.1293330121      1.1722268500
H      -1.3176918680      1.9799849789     -0.6169343775
12
Frame=305  time=153.000fs  energy=-306.20057562Ha  molecule=COOCCCHHHHHH
C      -0.0313845465      0.3654074851      0.0655323407
O       1.2894958839      0.6284393792      0.2524861683
O       2.1800612658     -0.4143126294     -0.0711328976
C      -0.4652918139     -1.0574445645     -0.2819584884
C      -1.8167750578     -1.4629284237     -0.4758874994
C      -1.0132720919      1.6123777790      0.4614957771
H       0.1934551132     -1.9100205881     -0.3880603839
H      -2.7327467421     -0.7595074695     -0.4939081894
H      -2.0734120638     -2.5709662053     -0.8289077752
H      -0.3598659639      2.5182606040      1.0290007653
H      -2.0203920089      1.1451326374      1.1683357055
H      -1.3236907788      1.9938133258     -0.6145605470
12
Frame=306  time=153.500fs  energy=-306.20064221Ha  molecule=COOCCCHHHHHH
C      -0.0333450443      0.3634454208      0.0661594338
O       1.2876833155      0.6306130811      0.2547003683
O       2.1824658796     -0.4140183907     -0.0725666224
C      -0.4642163049     -1.0621287973     -0.2813648369
C      -1.8155216904     -1.4630509414     -0.4773082027
C      -1.0142721562      1.6123934849      0.4623219071
H       0.1931261719     -1.9098952405     -0.3949316077
H      -2.7282709385     -0.7506943055     -0.4975649638
H      -2.0663757257     -2.5807509236     -0.8408116111
H      -0.3702206396      2.5291555366      1.0308594602
H      -2.0169291129      1.1629618027      1.1655444272
H      -1.3298523066      2.0072345297     -0.6110462835
12
Frame=307  time=154.000fs  energy=-306.20089055Ha  molecule=COOCCCHHHHHH
C      -0.0346878244      0.3617017423      0.0671224491
O       1.2851880975      0.6329433848      0.2567827950
O       2.1849471552     -0.4137167107     -0.0739774063
C      -0.4640556192     -1.0669468740     -0.2807767672
C      -1.8143365357     -1.4631772891     -0.4794680757
C      -1.0146249042      1.6117970819      0.4626333730
H       0.1992131100     -1.9072111533     -0.4010967790
H      -2.7215187229     -0.7422804119     -0.4978785593
H      -2.0599884777     -2.5893898848     -0.8492785024
H      -0.3820754026      2.5411072654      1.0349482542
H      -2.0139612341      1.1816296335      1.1643975771
H      -1.3358035030      2.0191835253     -0.6061605324
12
Frame=308  time=154.500fs  energy=-306.20155110Ha  molecule=COOCCCHHHHHH
C      -0.0353446643      0.3602948033      0.0684448345
O       1.2819538002      0.6351996091      0.2587234690
O       2.1874080621     -0.4131992701     -0.0753627905
C      -0.4648378410     -1.0717964649     -0.2801899671
C      -1.8132436015     -1.4634641664     -0.4824581159
C      -1.0141527127      1.6107224570      0.4624111505
H       0.2118253647     -1.9026151237     -0.4064475206
H      -2.7117196856     -0.7349245418     -0.4944333801
H      -2.0546873894     -2.5956827853     -0.8538825712
H      -0.3955584220      2.5545925385      1.0411145399
H      -2.0117814208      1.1998734610      1.1650333412
H      -1.3414389028      2.0285485252     -0.5997390803
12
Frame=309  time=155.000fs  energy=-306.20236691Ha  molecule=COOCCCHHHHHH
C      -0.0352731068      0.3591097750      0.0701494317
O       1.2780865621      0.6372129546      0.2605098290
O       2.1897514902     -0.4123041618     -0.0767160596
C      -0.4665018175     -1.0766692154     -0.2797339517
C      -1.8122137713     -1.4638067122     -0.4859404816
C      -1.0130160554      1.6093565241      0.4617026606
H       0.2302747648     -1.8969996366     -0.4109033162
H      -2.6994841564     -0.7295276582     -0.4886660911
H      -2.0496596083     -2.5991013795     -0.8559547971
H      -0.4100970888      2.5691661856      1.0490987561
H      -2.0104197131      1.2174142179      1.1673607792
H      -1.3466280880      2.0352202546     -0.5919712846
12
Frame=310  time=155.500fs  energy=-306.20316912Ha  molecule=COOCCCHHHHHH
C      -0.0345894663      0.3580808423      0.0722654346
O       1.2737083967      0.6391660117      0.2621283667
O       2.1920432742     -0.4111917778     -0.0780318121
C      -0.4689320517     -1.0814647076     -0.2794770220
C      -1.8112322294     -1.4641465369     -0.4897738723
C      -1.0115525283      1.6076991496      0.4606041419
H       0.2538591158     -1.8905780493     -0.4143832399
H      -2.6856306696     -0.7265008141     -0.4811653566
H      -2.0444907223     -2.5993862180     -0.8560042158
H      -0.4242966228      2.5832438059      1.0585930052
H      -2.0094563806      1.2342735192      1.1710397306
H      -1.3512048439      2.0396675648     -0.5834282270
12
Frame=311  time=156.000fs  energy=-306.20377956Ha  molecule=COOCCCHHHHHH
C      -0.0334101186      0.3572207209      0.0748191552
O       1.2688982338      0.6410161797      0.2635677142
O       2.1942589669     -0.4098211322     -0.0793060221
C      -0.4719449863     -1.0861325490     -0.2794431150
C      -1.8102736757     -1.4645475630     -0.4939397439
C      -1.0098438063      1.6058464257      0.4592684386
H       0.2816870646     -1.8830104498     -0.4168294863
H      -2.6708393337     -0.7254565058     -0.4719951658
H      -2.0396958298     -2.5965489483     -0.8540338336
H      -0.4373929172      2.5963770669      1.0691975649
H      -2.0084087570      1.2494013512      1.1752614994
H      -1.3553229605      2.0415632984     -0.5748463884
12
Frame=312  time=156.500fs  energy=-306.20402309Ha  molecule=COOCCCHHHHHH
C      -0.0319099921      0.3565332083      0.0778230755
O       1.2637708239      0.6427215794      0.2648217665
O       2.1963756936     -0.4081574144     -0.0805354983
C      -0.4752742366     -1.0906399888     -0.2796497234
C      -1.8092817610     -1.4650704200     -0.4984009971
C      -1.0079803584      1.6039055387      0.4578918239
H       0.3123437664     -1.8737185131     -0.4182342696
H      -2.6561228084     -0.7254704618     -0.4613102235
H      -2.0360626872     -2.5912288151     -0.8501391370
H      -0.4486308873      2.6081240530      1.0803998900
H      -2.0067064285      1.2617056657      1.1790338518
H      -1.3592342631      2.0406999547     -0.5671535864
12
Frame=313  time=157.000fs  energy=-306.20390432Ha  molecule=COOCCCHHHHHH
C      -0.0303066319      0.3560130267      0.0812706625
O       1.2584692026      0.6442461211      0.2658913919
O       2.1983747843     -0.4061774076     -0.0817182116
C      -0.4786046861     -1.0949586212     -0.2801055898
C      -1.8081880067     -1.4657603606     -0.5031024736
C      -1.0060461859      1.6019819139      0.4566700985
H       0.3441169382     -1.8621582617     -0.4186458770
H      -2.6426168031     -0.7253283615     -0.4493561665
H      -2.0345165664     -2.5845631881     -0.8445189000
H      -0.4574060416      2.6180687724      1.0916156949
H      -2.0038906705      1.2702449565      1.1814729407
H      -1.3631804807      2.0370257890     -0.5612434684
12
Frame=314  time=157.500fs  energy=-306.20359610Ha  molecule=COOCCCHHHHHH
C      -0.0288314283      0.3556480856      0.0851378467
O       1.2531475919      0.6455633428      0.2667835867
O       2.2002431851     -0.4038712514     -0.0828532548
C      -0.4816231861     -1.0990464829     -0.2808110372
C      -1.8069425052     -1.4666399353     -0.5079772699
C      -1.0041040373      1.6001642076      0.4557502503
H       0.3753373633     -1.8481129599     -0.4181579817
H      -2.6312834843     -0.7239259156     -0.4364406834
H      -2.0359003249     -2.5778404755     -0.8374504444
H      -0.4633693465      2.6258415268      1.1022553528
H      -1.9997960656      1.2743841188      1.1820776566
H      -1.3672638256      2.0306327944     -0.5577302124
12
Frame=315  time=158.000fs  energy=-306.20328883Ha  molecule=COOCCCHHHHHH
C      -0.0277034401      0.3554225406      0.0893893699
O       1.2479545106      0.6466571691      0.2675088452
O       2.2019728889     -0.4012399680     -0.0839405300
C      -0.4840588563     -1.1028348346     -0.2817602828
C      -1.8055419160     -1.4677097671     -0.5129543311
C      -1.0021895098      1.5985146220      0.4552029711
H       0.4046491485     -1.8318617800     -0.4168907185
H      -2.6226749086     -0.7206251879     -0.4228964722
H      -2.0407699880     -2.5721083570     -0.8292478924
H      -0.4664370074      2.6311354249      1.1117807298
H      -1.9946245010      1.2738387692      1.1808485292
H      -1.3713657058      2.0217084237     -0.5568152568
12
Frame=316  time=158.500fs  energy=-306.20306863Ha  molecule=COOCCCHHHHHH
C      -0.0271149424      0.3553190732      0.0939850925
O       1.2430233920      0.6475202970      0.2680786027
O       2.2035592236     -0.3982912720     -0.0849803308
C      -0.4857005054     -1.1062241531     -0.2829441422
C      -1.8040427364     -1.4689553146     -0.5179630692
C      -1.0003147510      1.5970662506      0.4550236546
H       0.4311151227     -1.8141951334     -0.4149752139
H      -2.6168437917     -0.7154214908     -0.4090573305
H      -2.0492809562     -2.5679150320     -0.8202304746
H      -0.4667272491      2.6337180634      1.1197326710
H      -1.9889031166      1.2686300549      1.1782370922
H      -1.3751467079      2.0104890199     -0.5583010638
12
Frame=317  time=159.000fs  energy=-306.20291909Ha  molecule=COOCCCHHHHHH
C      -0.0272242334      0.3553196672      0.0988826988
O       1.2384691066      0.6481526846      0.2685041359
O       2.2049995889     -0.3950369237     -0.0859730871
C      -0.4864005227     -1.1090900584     -0.2843514203
C      -1.8025562880     -1.4703552298     -0.5229345192
C      -0.9984767710      1.5958238100      0.4551503833
H       0.4541981543     -1.7963276733     -0.4125474381
H      -2.6133883649     -0.7089058084     -0.3952513464
H      -2.0611666805     -2.5652396092     -0.8107115484
H      -0.4644879881      2.6334475241      1.1257416707
H      -1.9833783062      1.2590260513      1.1750043165
H      -1.3781074971      1.9972424379     -0.5616869890
12
Frame=318  time=159.500fs  energy=-306.20280411Ha  molecule=COOCCCHHHHHH
C      -0.0281470670      0.3554053811      0.1040373874
O       1.2343848167      0.6485613040      0.2687967726
O       2.2062932547     -0.3914922859     -0.0869193641
C      -0.4860779491     -1.1112994060     -0.2859687945
C      -1.8012272867     -1.4718887267     -0.5278014097
C      -0.9966665646      1.5947649482      0.4554878181
H       0.4736898387     -1.7797352715     -0.4097480937
H      -2.6115864335     -0.7020771078     -0.3818003699
H      -2.0757848650     -2.5635735301     -0.8009989283
H      -0.4600436654      2.6302971459      1.1295423408
H      -1.9788808354      1.2455042728      1.1720440773
H      -1.3796843067      1.9822750591     -0.5662924138
12
Frame=319  time=160.000fs  energy=-306.20274030Ha  molecule=COOCCCHHHHHH
C      -0.0299468123      0.3555561246      0.1094013793
O       1.2308382202      0.6487600606      0.2689682755
O       2.2074414840     -0.3876762235     -0.0878199174
C      -0.4847203292     -1.1127333850     -0.2877805177
C      -1.8002022191     -1.4735408752     -0.5324986988
C      -0.9948778799      1.5938428425      0.4559338589
H       0.4896066728     -1.7659224098     -0.4067221404
H      -2.6105813851     -0.6960760865     -0.3690173447
H      -2.0922214556     -2.5620991896     -0.7913947113
H      -0.4537497131      2.6243740801      1.1309902689
H      -1.9761760265      1.2287126643      1.1701887062
H      -1.3793603687      1.9659417433     -0.5713966637
12
Frame=320  time=160.500fs  energy=-306.20279666Ha  molecule=COOCCCHHHHHH
C      -0.0326303186      0.3557506974      0.1149246476
O       1.2278707841      0.6487687179      0.2690306556
O       2.2084471237     -0.3836098664     -0.0886756012
C      -0.4823773587     -1.1133093709     -0.2897689220
C      -1.7995983377     -1.4753046611     -0.5369637278
C      -0.9931145375      1.5929907849      0.4564058916
H       0.5020538693     -1.7561725251     -0.4036162903
H      -2.6095715889     -0.6919261914     -0.3572044417
H      -2.1094326539     -2.5599108340     -0.7821937298
H      -0.4459482862      2.6159148177      1.1300656857
H      -1.9758297213      1.2094112488      1.1700284799
H      -1.3767651553      1.9486481693     -0.5763802222
12
Frame=321  time=161.000fs  energy=-306.20303008Ha  molecule=COOCCCHHHHHH
C      -0.0361512781      0.3559664640      0.1205558341
O       1.2255012659      0.6486113890      0.2689956684
O       2.2093137463     -0.3793148413     -0.0894871604
C      -0.4791472854     -1.1129955796     -0.2919152959
C      -1.7994814955     -1.4771791317     -0.5411347662
C      -0.9913951331      1.5921268683      0.4568610989
H       0.5110825170     -1.7513513405     -0.4005776328
H      -2.6079551701     -0.6903453706     -0.3466579597
H      -2.1263825938     -2.5562260420     -0.7736863313
H      -0.4369383280      2.6052632645      1.1268621485
H      -1.9781212312      1.1884155026      1.1717843714
H      -1.3717384257      1.9308524071     -0.5808350049
12
Frame=322  time=161.500fs  energy=-306.20340791Ha  molecule=COOCCCHHHHHH
C      -0.0404138822      0.3561781401      0.1262419168
O       1.2237294559      0.6483161319      0.2688747213
O       2.2100452383     -0.3748126814     -0.0902551271
C      -0.4751659054     -1.1118213773     -0.2942000265
C      -1.7998515282     -1.4791639622     -0.5449489481
C      -0.9897550245      1.5911569241      0.4573079396
H       0.5165830308     -1.7517732012     -0.3977552420
H      -2.6054203476     -0.6916267568     -0.3376764280
H      -2.1421499035     -2.5505686196     -0.7661654242
H      -0.4269724927      2.5928522583      1.1215781103
H      -1.9829996288      1.1665710086      1.1752403837
H      -1.3643644911      1.9130732682     -0.5846273948
12
Frame=323  time=162.000fs  energy=-306.20377218Ha  molecule=COOCCCHHHHHH
C      -0.0452705142      0.3563561378      0.1319269866
O       1.2225351455      0.6479162600      0.2686795503
O       2.2106466219     -0.3701263657     -0.0909800267
C      -0.4706050868     -1.1098881089     -0.2966015256
C      -1.8006301737     -1.4812513203     -0.5483430552
C      -0.9882452125      1.5899775094      0.4578082697
H       0.5182553830     -1.7571032872     -0.3953011496
H      -2.6020007546     -0.6955531205     -0.3305567234
H      -2.1560168397     -2.5429324596     -0.7599267944
H      -0.4162801972      2.5791954733      1.1145257538
H      -1.9900655408      1.1447567518      1.1797289615
H      -1.3549922093      1.8958954720     -0.5879167242
12
Frame=324  time=162.500fs  energy=-306.20389525Ha  molecule=COOCCCHHHHHH
C      -0.0505189094      0.3564659938      0.1375523910
O       1.2218727569      0.6474519582      0.2684232261
O       2.2111259194     -0.3652831006     -0.0916628446
C      -0.4656759737     -1.1073739364     -0.2990948062
C      -1.8016562001     -1.4834171700     -0.5512603423
C      -0.9869258063      1.5884836251      0.4584663375
H       0.5156901797     -1.7663391222     -0.3933640597
H      -2.5980882153     -0.7013640548     -0.3255635236
H      -2.1675564615     -2.5338965610     -0.7552487998
H      -0.4051061601      2.5648680931      1.1061439929
H      -1.9986003356      1.1238809701      1.1842072804
H      -1.3442243049      1.8799442230     -0.5911164550
12
Frame=325  time=163.000fs  energy=-306.20360605Ha  molecule=COOCCCHHHHHH
C      -0.0558761469      0.3564132772      0.1430584436
O       1.2216977493      0.6468818206      0.2681205608
O       2.2114499938     -0.3602345363     -0.0923046658
C      -0.4606133875     -1.1045568285     -0.3016804238
C      -1.8026762246     -1.4855571031     -0.5535670062
C      -0.9858758850      1.5866486222      0.4594046010
H       0.5082512294     -1.7782313524     -0.3920798139
H      -2.5945904683     -0.7079892756     -0.3232885590
H      -2.1763480912     -2.5247070183     -0.7527444204
H      -0.3938161287      2.5505697618      1.0969673777
H      -2.0077393094      1.1049234695      1.1874707348
H      -1.3328537459      1.8658673508     -0.5947697223
12
Frame=326  time=163.500fs  energy=-306.20320505Ha  molecule=COOCCCHHHHHH
C      -0.0610199378      0.3560172667      0.1483867371
O       1.2219978456      0.6461365986      0.2677873266
O       2.2115664223     -0.3549073213     -0.0929053890
C      -0.4556512152     -1.1017652377     -0.3044368276
C      -1.8033815926     -1.4874498970     -0.5548947090
C      -0.9852611813      1.5845210306      0.4607319280
H       0.4951508115     -1.7917548659     -0.3915661951
H      -2.5929080391     -0.7144352071     -0.3253294134
H      -2.1816969177     -2.5170994307     -0.7540107327
H      -0.3827043428      2.5367152579      1.0875410178
H      -2.0166724896      1.0891580244      1.1885069088
H      -1.3216323936      1.8544811286     -0.5994044567
12
Frame=327  time=164.000fs  energy=-306.20284802Ha  molecule=COOCCCHHHHHH
C      -0.0658029453      0.3552673593      0.1534958203
O       1.2226838675      0.6455788432      0.2674386456
O       2.2116370599     -0.3496285126     -0.0934694449
C      -0.4510496535     -1.0991312919     -0.3072964027
C      -1.8035844858     -1.4890240777     -0.5553740609
C      -0.9852744630      1.5819001630      0.4624764145
H       0.4769263237     -1.8054016343     -0.3918760196
H      -2.5936743677     -0.7196302495     -0.3311184810
H      -2.1839089250     -2.5124006368     -0.7585890268
H      -0.3715002346      2.5225707381      1.0784653382
H      -2.0245977007      1.0778429543      1.1868426713
H      -1.3109806985      1.8466854864     -0.6053813429
12
Frame=328  time=164.500fs  energy=-306.20255283Ha  molecule=COOCCCHHHHHH
C      -0.0700514146      0.3542632068      0.1583562400
O       1.2235812216      0.6453374800      0.2670882635
O       2.2117330133     -0.3445152493     -0.0940035336
C      -0.4470732150     -1.0967559212     -0.3101163044
C      -1.8031974364     -1.4903464250     -0.5553986020
C      -0.9857780406      1.5786895493      0.4645869763
H       0.4549276077     -1.8179035456     -0.3930197583
H      -2.5965894959     -0.7227050699     -0.3389437676
H      -2.1840040606     -2.5112325217     -0.7649319375
H      -0.3607445140      2.5085192022      1.0703232037
H      -2.0312095884      1.0710832937      1.1823922902
H      -1.3012520714      1.8422503232     -0.6126111338
12
Frame=329  time=165.000fs  energy=-306.20237130Ha  molecule=COOCCCHHHHHH
C      -0.0735335250      0.3530550839      0.1629379210
O       1.2245348475      0.6452751969      0.2667486591
O       2.2118014366     -0.3394415311     -0.0945114618
C      -0.4439529167     -1.0947655336     -0.3128625507
C      -1.8021856462     -1.4914469770     -0.5550185831
C      -0.9865176726      1.5749674992      0.4669695355
H       0.4304717393     -1.8288237099     -0.3950113514
H      -2.6011221404     -0.7234692630     -0.3485701453
H      -2.1825832773     -2.5137301500     -0.7729053378
H      -0.3514528962      2.4956363430      1.0635762342
H      -2.0367055135      1.0685967212      1.1754388039
H      -1.2926346403      1.8404015994     -0.6206581344
12
Frame=330  time=165.500fs  energy=-306.20230808Ha  molecule=COOCCCHHHHHH
C      -0.0760937272      0.3516243651      0.1672146136
O       1.2254622567      0.6454303572      0.2664312836
O       2.2118606171     -0.3344420488     -0.0949969082
C      -0.4418755664     -1.0932141000     -0.3155028583
C      -1.8005810781     -1.4922695575     -0.5542858875
C      -0.9874540818      1.5707674833      0.4694850879
H       0.4048074044     -1.8383275264     -0.3978524271
H      -2.6068384338     -0.7224873435     -0.3597488607
H      -2.1794852373     -2.5196598030     -0.7823641278
H      -0.3440092730      2.4840108347      1.0586184804
H      -2.0414056917      1.0707094183      1.1667117068
H      -1.2849637930      1.8409591838     -0.6289586969
12
Frame=331  time=166.000fs  energy=-306.20232991Ha  molecule=COOCCCHHHHHH
C      -0.0776112239      0.3499523455      0.1711635463
O       1.2262952463      0.6458386430      0.2661468746
O       2.2119286846     -0.3295510241     -0.0954634428
C      -0.4409875108     -1.0921195367     -0.3180063970
C      -1.7984893618     -1.4927706199     -0.5532541117
C      -0.9885497986      1.5661414041      0.4719697120
H       0.3792976225     -1.8468820953     -0.4015327004
H      -2.6130924498     -0.7207204753     -0.3722167633
H      -2.1743521927     -2.5282957222     -0.7931537167
H      -0.3387108736      2.4736919904      1.0557728289
H      -2.0457829345      1.0776211337      1.1571470764
H      -1.2779246988      1.8436523227     -0.6368175884
12
Frame=332  time=166.500fs  energy=-306.20245140Ha  molecule=COOCCCHHHHHH
C      -0.0780063363      0.3480217464      0.1747660580
O       1.2269821341      0.6465321314      0.2659056102
O       2.2120241529     -0.3248023095     -0.0959145558
C      -0.4413800362     -1.0914781957     -0.3203440494
C      -1.7960718024     -1.4929255926     -0.5519793655
C      -0.9897733413      1.5611589972      0.4742582807
H       0.3552955222     -1.8550756522     -0.4060277309
H      -2.6191701070     -0.7193016592     -0.3856922007
H      -2.1667279423     -2.5385736994     -0.8051080882
H      -0.3357355347      2.4647142366      1.0552808121
H      -2.0503499105      1.0893608146      1.1477272999
H      -1.2711384346      1.8481414780     -0.6435252470
12
Frame=333  time=167.000fs  energy=-306.20274068Ha  molecule=COOCCCHHHHHH
C      -0.0772434776      0.3458175859      0.1780071637
O       1.2274898869      0.6475391731      0.2657173244
O       2.2121664913     -0.3202297899     -0.0963536235
C      -0.4430791210     -1.0912819308     -0.3224882188
C      -1.7935226557     -1.4927316275     -0.5505200063
C      -0.9911028531      1.5559054665      0.4762090939
H       0.3340083127     -1.8634178794     -0.4112990924
H      -2.6244355930     -0.7193025913     -0.3998751522
H      -2.1561706974     -2.5492922726     -0.8180521031
H      -0.3351245982      2.4571211559      1.0572999536
H      -2.0555436797      1.1057599217      1.1393126399
H      -1.2642562375      1.8540515632     -0.6484818774
12
Frame=334  time=167.500fs  energy=-306.20326226Ha  molecule=COOCCCHHHHHH
C      -0.0753293853      0.3433270906      0.1808736524
O       1.2278051586      0.6488856908      0.2655919890
O       2.2123770720     -0.3158687633     -0.0967838699
C      -0.4460420120     -1.0915353988     -0.3244115921
C      -1.7910474200     -1.4922060124     -0.5489363905
C      -0.9925283743      1.5504792234      0.4777244214
H       0.3163889845     -1.8721573112     -0.4172967004
H      -2.6284495166     -0.7215406999     -0.4144462208
H      -2.1423608728     -2.5593194969     -0.8318048571
H      -0.3367852970      2.4509871994      1.0619127560
H      -2.0616263181      1.1264439162      1.1324971497
H      -1.2570472244      1.8610065020     -0.6513057484
12
Frame=335  time=168.000fs  energy=-306.20398734Ha  molecule=COOCCCHHHHHH
C      -0.0723145430      0.3405404452      0.1833527893
O       1.2279355160      0.6505960986      0.2655402349
O       2.2126804056     -0.3117575056     -0.0972083946
C      -0.4501521116     -1.0922686277     -0.3260858589
C      -1.7888455721     -1.4913834210     -0.5472922837
C      -0.9940520304      1.5449928209      0.4787666276
H       0.3030571777     -1.8811409145     -0.4239583782
H      -2.6310604954     -0.7264257712     -0.4290575702
H      -2.1252162019     -2.5677839990     -0.8461768266
H      -0.3404959669      2.4464262963      1.0691299326
H      -2.0686084335      1.1508078808      1.1275005586
H      -1.2494703775      1.8686494415     -0.6519236584
12
Frame=336  time=168.500fs  energy=-306.20472278Ha  molecule=COOCCCHHHHHH
C      -0.0683061620      0.3374551217      0.1854345361
O       1.2279124584      0.6526907193      0.2655732491
O       2.2131047195     -0.3079367139     -0.0976302159
C      -0.4552053032     -1.0935383555     -0.3274826365
C      -1.7870931653     -1.4903152099     -0.5456574507
C      -0.9956853196      1.5395761093      0.4793722676
H       0.2942171486     -1.8897408658     -0.4312030631
H      -2.6324867959     -0.7338143357     -0.4433206102
H      -2.1050374430     -2.5742668564     -0.8609592919
H      -0.3459011171      2.4435721440      1.0788650878
H      -2.0761983953      1.1779562969      1.1240930455
H      -1.2417259078      1.8766462608     -0.6506502769
12
Frame=337  time=169.000fs  energy=-306.20515139Ha  molecule=COOCCCHHHHHH
C      -0.0634875012      0.3340843890      0.1871179350
O       1.2277939417      0.6551784283      0.2657014705
O       2.2136804554     -0.3044447716     -0.0980521687
C      -0.4609000266     -1.0954105381     -0.3285780750
C      -1.7859196962     -1.4890697241     -0.5441082947
C      -0.9974418671      1.5343751836      0.4796573309
H       0.2895917951     -1.8969290722     -0.4389217150
H      -2.6333572599     -0.7429061090     -0.4568088627
H      -2.0826470553     -2.5789732713     -0.8759146656
H      -0.3525165090      2.4425197431      1.0908836087
H      -2.0838159924      1.2066552688      1.1216006393
H      -1.2342572298      1.8846823978     -0.6482153470
12
Frame=338  time=169.500fs  energy=-306.20503236Ha  molecule=COOCCCHHHHHH
C      -0.0581222299      0.3304656067      0.1884179137
O       1.2276603839      0.6580480672      0.2659324089
O       2.2144362514     -0.3013098437     -0.0984765966
C      -0.4668583124     -1.0979236746     -0.3293593667
C      -1.7853875993     -1.4877288910     -0.5427233980
C      -0.9993256430      1.5295411039      0.4797962147
H       0.2884773486     -1.9015865587     -0.4469766730
H      -2.6346208287     -0.7523259022     -0.4690915427
H      -2.0593894221     -2.5827515283     -0.8907807589
H      -0.3597854026      2.4432432644      1.1047685421
H      -2.0907333317      1.2353953948      1.1190850263
H      -1.2276536694      1.8924611508     -0.6456485110
12
Frame=339  time=170.000fs  energy=-306.20439331Ha  molecule=COOCCCHHHHHH
C      -0.0525279548      0.3266616903      0.1893672685
O       1.2276022357      0.6612647047      0.2662688106
O       2.2153939988     -0.2985430179     -0.0989050616
C      -0.4726851200     -1.1010513925     -0.3298289972
C      -1.7854943581     -1.4863782802     -0.5415745001
C      -1.0013203102      1.5252108966      0.4799699172
H       0.2899714033     -1.9029538669     -0.4552143572
H      -2.6372832161     -0.7604933000     -0.4797892610
H      -2.0368922464     -2.5868274988     -0.9052935394
H      -0.3671875345      2.4455375653      1.1199480220
H      -2.0963281977      1.2625990045      1.1156873318
H      -1.2224524785      1.8997046250     -0.6439979898
12
Frame=340  time=170.500fs  energy=-306.20348223Ha  molecule=COOCCCHHHHHH
C      -0.0470278532      0.3227539910      0.1900121491
O       1.2277049181      0.6647735904      0.2667082604
O       2.2165656133     -0.2961364541     -0.0993383082
C      -0.4780374936     -1.1046905040     -0.3300041539
C      -1.7862035269     -1.4850942392     -0.5407174532
C      -1.0033879684      1.5214900710      0.4803081265
H       0.2932580280     -1.9009454846     -0.4634839848
H      -2.6420709354     -0.7661600822     -0.4886222872
H      -2.0166690709     -2.5923219245     -0.9192185352
H      -0.3743393186      2.4490295107      1.1357796732
H      -2.1003162941      1.2868787161      1.1109519208
H      -1.2189322018      1.9061584051     -0.6440055850
12
Frame=341  time=171.000fs  energy=-306.20254538Ha  molecule=COOCCCHHHHHH
C      -0.0419057315      0.3188313043      0.1904035961
O       1.2280380040      0.6685094893      0.2672444608
O       2.2179533810     -0.2940675281     -0.0997764234
C      -0.4826673787     -1.1086810121     -0.3299118025
C      -1.7874844217     -1.4839361610     -0.5401885693
C      -1.0054782023      1.5184448665      0.4808589584
H       0.2977846030     -1.8961478857     -0.4716524852
H      -2.6492082041     -0.7688099417     -0.4954239106
H      -1.9997850157     -2.5998206701     -0.9323724333
H      -0.3810237998      2.4532581409      1.1516454749
H      -2.1028244288      1.3072051930      1.1049411188
H      -1.2170220169      1.9115988891     -0.6459249030
12
Frame=342  time=171.500fs  energy=-306.20169937Ha  molecule=COOCCCHHHHHH
C      -0.0373832999      0.3149812226      0.1905900807
O       1.2286510506      0.6724056267      0.2678691940
O       2.2195528468     -0.2923054807     -0.1002190243
C      -0.4864271080     -1.1128398569     -0.3295827827
C      -1.7893321782     -1.4829476983     -0.5400070359
C      -1.0075395626      1.5161047479      0.4815961694
H       0.3032749335     -1.8895834147     -0.4796109364
H      -2.6584163125     -0.7687059639     -0.5001211156
H      -1.9867495470     -2.6092321921     -0.9446257009
H      -0.3871545125      2.4577691017      1.1670128050
H      -2.1042997385      1.3229275914      1.0981309267
H      -1.2163589432      1.9158407071     -0.6495551554
12
Frame=343  time=172.000fs  energy=-306.20097084Ha  molecule=COOCCCHHHHHH
C      -0.0336166349      0.3112855810      0.1906139167
O       1.2295736024      0.6763986797      0.2685737340
O       2.2213555756     -0.2908162476     -0.1006653898
C      -0.4892543879     -1.1169899970     -0.3290480549
C      -1.7917605661     -1.4821627514     -0.5401791329
C      -1.0095272878      1.5144684734      0.4824464776
H       0.3096394367     -1.8824261263     -0.4872745192
H      -2.6690763743     -0.7666582790     -0.5027087407
H      -1.9776017722     -2.6199173536     -0.9558949205
H      -0.3927207327      2.4621778377      1.1814567151
H      -2.1053552406      1.3337117850      1.0912157344
H      -1.2164177053      1.9187459034     -0.6543993266
12
Frame=344  time=172.500fs  energy=-306.20035585Ha  molecule=COOCCCHHHHHH
C      -0.0307011377      0.3078182620      0.1905104389
O       1.2308167578      0.6804307832      0.2693495691
O       2.2233509591     -0.2895650419     -0.1011145456
C      -0.4911526145     -1.1209800505     -0.3283370388
C      -1.7947823366     -1.4816109574     -0.5407017365
C      -1.0114070067      1.5135100522      0.4833187519
H       0.3168623262     -1.8757688790     -0.4945797450
H      -2.6804320006     -0.7637102438     -0.5032296630
H      -1.9720699139     -2.6309339610     -0.9661337284
H      -0.3977434896      2.4661987686      1.1946614795
H      -2.1066279004      1.3394636919      1.0849239345
H      -1.2166407922      1.9202330290     -0.6598391743
12
Frame=345  time=173.000fs  energy=-306.19989964Ha  molecule=COOCCCHHHHHH
C      -0.0286730865      0.3046603943      0.1903136219
O       1.2323630543      0.6844136380      0.2701888307
O       2.2255133531     -0.2884852547     -0.1015678730
C      -0.4921726284     -1.1246987510     -0.3273816838
C      -1.7983982837     -1.4813419128     -0.5418755682
C      -1.0131087247      1.5131986503      0.4841112093
H       0.3249756020     -1.8704344202     -0.5014604517
H      -2.6916562461     -0.7608385022     -0.5004164913
H      -1.9698484153     -2.6412211406     -0.9740426363
H      -0.4023677039      2.4698429368      1.2064569279
H      -2.1086745506      1.3400465458      1.0798820992
H      -1.2165932062      1.9201764004     -0.6652366948
12
Frame=346  time=173.500fs  energy=-306.19981858Ha  molecule=COOCCCHHHHHH
C      -0.0274871313      0.3019891841      0.1900455119
O       1.2341017014      0.6880506491      0.2710850841
O       2.2277352902     -0.2873209913     -0.1020242058
C      -0.4924053866     -1.1280918132     -0.3261978820
C      -1.8026185279     -1.4815403889     -0.5437150772
C      -1.0142835330      1.5135671221      0.4847543010
H       0.3343680253     -1.8667073102     -0.5078757259
H      -2.7014390922     -0.7585743172     -0.4942351759
H      -1.9713653762     -2.6494992484     -0.9795106942
H      -0.4074554442      2.4743729287      1.2166971185
H      -2.1121168294      1.3344921842      1.0764150931
H      -1.2160911779      1.9175155669     -0.6699454761
12
Frame=347  time=174.000fs  energy=-306.20013707Ha  molecule=COOCCCHHHHHH
C      -0.0271262282      0.2999608712      0.1897158305
O       1.2360108934      0.6912236125      0.2720337864
O       2.2299916982     -0.2859963325     -0.1024792405
C      -0.4918963264     -1.1311634925     -0.3249013838
C      -1.8074121831     -1.4822321181     -0.5459008887
C      -1.0149113319      1.5145968952      0.4852174021
H       0.3448152657     -1.8649982422     -0.5138009433
H      -2.7094043153     -0.7576309082     -0.4860835088
H      -1.9763265733     -2.6549125949     -0.9838128266
H      -0.4129498524      2.4797653972      1.2252109974
H      -2.1172784455      1.3227067754      1.0748626502
H      -1.2148390978      1.9120239666     -0.6736596812
12
Frame=348  time=174.500fs  energy=-306.20073736Ha  molecule=COOCCCHHHHHH
C      -0.0276537235      0.2984675366      0.1893340359
O       1.2381467077      0.6941372523      0.2730319719
O       2.2323739146     -0.2847084770     -0.1029302670
C      -0.4907124952     -1.1337975805     -0.3235236750
C      -1.8126741468     -1.4833642912     -0.5483871807
C      -1.0152563662      1.5161585065      0.4854808993
H       0.3556196578     -1.8655148982     -0.5191813206
H      -2.7155349104     -0.7586353186     -0.4761645157
H      -1.9837993309     -2.6570614412     -0.9870979001
H      -0.4181696475      2.4850156865      1.2318738164
H      -2.1242265379      1.3057302457      1.0754371452
H      -1.2125928205      1.9047965172     -0.6762155941
12
Frame=349  time=175.000fs  energy=-306.20164434Ha  molecule=COOCCCHHHHHH
C      -0.0290939931      0.2975470704      0.1889061663
O       1.2405228479      0.6968701160      0.2740777837
O       2.2349412577     -0.2835632555     -0.1033739591
C      -0.4889127492     -1.1359555603     -0.3220856543
C      -1.8182801480     -1.4849315172     -0.5511679186
C      -1.0154887084      1.5181550089      0.4855545835
H       0.3660584817     -1.8681674919     -0.5239438214
H      -2.7198538835     -0.7619092697     -0.4645009991
H      -1.9933270307     -2.6556006051     -0.9893500919
H      -0.4225742776      2.4894949636      1.2365806608
H      -2.1328893259      1.2840473977      1.0781440084
H      -1.2092970251      1.8964775941     -0.6776146104
12
Frame=350  time=175.500fs  energy=-306.20275844Ha  molecule=COOCCCHHHHHH
C      -0.0314111305      0.2972955182      0.1884344914
O       1.2430948134      0.6993712359      0.2751697009
O       2.2377069809     -0.2825561962     -0.1038057145
C      -0.4865888699     -1.1376395563     -0.3206116943
C      -1.8240495677     -1.4869978394     -0.5542356411
C      -1.0156417888      1.5205174378      0.4854899193
H       0.3753876987     -1.8724296913     -0.5280032831
H      -2.7222779537     -0.7672644975     -0.4511220239
H      -2.0049716321     -2.6503818703     -0.9905532292
H      -0.4259958635      2.4932513858      1.2392777808
H      -2.1430562111      1.2577015778      1.0826202704
H      -1.2051996211      1.8873166811     -0.6779999876
12
Frame=351  time=176.000fs  energy=-306.20385433Ha  molecule=COOCCCHHHHHH
C      -0.0345106497      0.2978064206      0.1879172996
O       1.2457906632      0.7015843406      0.2763054484
O       2.2406830757     -0.2816791184     -0.1042194408
C      -0.4838785008     -1.1388832721     -0.3191320711
C      -1.8297128189     -1.4896195224     -0.5575736957
C      -1.0157641871      1.5231493208      0.4853870688
H       0.3826970766     -1.8774348276     -0.5312760758
H      -2.7229740243     -0.7740070083     -0.4361095952
H      -2.0189582200     -2.6417968693     -0.9907164100
H      -0.4282922715      2.4963950337      1.2400269434
H      -2.1542254237      1.2269137253      1.0881337341
H      -1.2008100352      1.8776840993     -0.6777652460
12
Frame=352  time=176.500fs  energy=-306.20470414Ha  molecule=COOCCCHHHHHH
C      -0.0381899130      0.2992147891      0.1873486164
O       1.2484614709      0.7034588551      0.2774809079
O       2.2438867434     -0.2809298000     -0.1046078033
C      -0.4810044130     -1.1396704623     -0.3176831354
C      -1.8348434034     -1.4929072702     -0.5611488028
C      -1.0159185974      1.5259067855      0.4853839665
H       0.3862973478     -1.8825043245     -0.5337016970
H      -2.7220060336     -0.7808256539     -0.4196444127
H      -2.0357200652     -2.6308692708     -0.9899005316
H      -0.4293745503      2.4990079198      1.2390696295
H      -2.1655968173      1.1921867507      1.0936628195
H      -1.1968353370      1.8680275739     -0.6775361327
12
Frame=353  time=177.000fs  energy=-306.20529436Ha  molecule=COOCCCHHHHHH
C      -0.0421567011      0.3016442771      0.1867182711
O       1.2509103529      0.7049565132      0.2786896993
O       2.2473306516     -0.2803056241     -0.1049628951
C      -0.4782566048     -1.1399533768     -0.3163046569
C      -1.8389478441     -1.4969690596     -0.5649091203
C      -1.0161713850      1.5286171517      0.4856196969
H       0.3843761266     -1.8872769343     -0.5352592760
H      -2.7193978345     -0.7860866716     -0.4020193814
H      -2.0557061693     -2.6191217319     -0.9882267838
H      -0.4293078661      2.5011367399      1.2368392048
H      -2.1762558722      1.1543842613      1.0981347169
H      -1.1940316726      1.8588322095     -0.6779842635
12
Frame=354  time=177.500fs  energy=-306.20552720Ha  molecule=COOCCCHHHHHH
C      -0.0461914536      0.3048744995      0.1860124188
O       1.2531247766      0.7060391783      0.2799235502
O       2.2509642660     -0.2797450750     -0.1052768653
C      -0.4758502112     -1.1400063250     -0.3150363762
C      -1.8419146655     -1.5015039693     -0.5687883188
C      -1.0165742911      1.5311758681      0.4861865703
H       0.3790366496     -1.8901792663     -0.5359701734
H      -2.7166874582     -0.7887799744     -0.3836172065
H      -2.0786667696     -2.6082977448     -0.9858637864
H      -0.4285862590      2.5031159926      1.2339115916
H      -2.1855676823      1.1148816646      1.1006580436
H      -1.1931183807      1.8507319724     -0.6794666629
12
Frame=355  time=178.000fs  energy=-306.20546833Ha  molecule=COOCCCHHHHHH
C      -0.0499959256      0.3088105680      0.1852148775
O       1.2549815177      0.7066943309      0.2811728549
O       2.2547593076     -0.2792181042     -0.1055425376
C      -0.4740554046     -1.1398622460     -0.3139148367
C      -1.8435624116     -1.5063882415     -0.5727111652
C      -1.0171672800      1.5334486204      0.4870925334
H       0.3709196860     -1.8912490461     -0.5358950756
H      -2.7140865852     -0.7882914846     -0.3648782609
H      -2.1041646393     -2.5995969415     -0.9830095875
H      -0.4277384562      2.5050243668      1.2309353388
H      -2.1931926022      1.0751791574      1.1009614695
H      -1.1943884693      1.8441420552     -0.6819857900
12
Frame=356  time=178.500fs  energy=-306.20508428Ha  molecule=COOCCCHHHHHH
C      -0.0532967950      0.3133174902      0.1843087503
O       1.2563751196      0.7069257961      0.2824273270
O       2.2586814705     -0.2786966907     -0.1057537499
C      -0.4730970751     -1.1395147613     -0.3129715528
C      -1.8438809173     -1.5114769922     -0.5765992974
C      -1.0179752056      1.5353233354      0.4882534372
H       0.3611255226     -1.8910824544     -0.5351254284
H      -2.7113006347     -0.7849169602     -0.3462662934
H      -2.1311958271     -2.5933904160     -0.9798732524
H      -0.4273677507      2.5069052627      1.2285601153
H      -2.1992327871      1.0368721974      1.0994086278
H      -1.1977189646      1.8393227640     -0.6850793801
12
Frame=357  time=179.000fs  energy=-306.20435529Ha  molecule=COOCCCHHHHHH
C      -0.0558753328      0.3182288095      0.1832789702
O       1.2572298536      0.7067543960      0.2836766312
O       2.2626930580     -0.2781572180     -0.1059059426
C      -0.4731170007     -1.1389347584     -0.3122307637
C      -1.8430270950     -1.5166240937     -0.5803766486
C      -1.0190113473      1.5367184207      0.4895169650
H       0.3509642339     -1.8905768950     -0.5337772953
H      -2.7076410350     -0.7797179634     -0.3282354526
H      -2.1582926286     -2.5892169666     -0.9766604352
H      -0.4280383785      2.5088037410      1.2273721989
H      -2.2041519891      1.0014821685      1.0968596269
H      -1.2026367378      1.8363676674     -0.6879492573
12
Frame=358  time=179.500fs  energy=-306.20340572Ha  molecule=COOCCCHHHHHH
C      -0.0575929580      0.3233597533      0.1821151457
O       1.2575102401      0.7062173382      0.2849112151
O       2.2667560666     -0.2775821996     -0.1059967397
C      -0.4741457017     -1.1380975560     -0.3117072048
C      -1.8412740991     -1.5217006143     -0.5839758834
C      -1.0202819251      1.5375901846      0.4907107023
H       0.3416371503     -1.8905633216     -0.5319833047
H      -2.7023323939     -0.7740708570     -0.3111914579
H      -2.1838324685     -2.5861132568     -0.9735577893
H      -0.4301666110      2.5107953947      1.2278301428
H      -2.2085791457      0.9702568879      1.0943705672
H      -1.2084880402      1.8352211290     -0.6897195823
12
Frame=359  time=180.000fs  energy=-306.20246692Ha  molecule=COOCCCHHHHHH
C      -0.0583993673      0.3285265850      0.1808128942
O       1.2572224246      0.7053628891      0.2861230900
O       2.2708357292     -0.2769608087     -0.1060258067
C      -0.4761029882     -1.1370052788     -0.3114063617
C      -1.8389345317     -1.5266050762     -0.5873435970
C      -1.0217913091      1.5379328986      0.4916940302
H       0.3339759597     -1.8914979176     -0.5298795720
H      -2.6948093357     -0.7691916908     -0.2954607333
H      -2.2063926552     -2.5830640124     -0.9707191617
H      -0.4339593360      2.5129949869      1.2302236975
H      -2.2130777628      0.9440287071      1.0928580471
H      -1.2146457754      1.8357288236     -0.6897019520
12
Frame=360  time=180.500fs  energy=-306.20172997Ha  molecule=COOCCCHHHHHH
C      -0.0583160831      0.3335626413      0.1793727036
O       1.2564036851      0.7042418597      0.2873060002
O       2.2749027400     -0.2762877720     -0.1059938434
C      -0.4788296285     -1.1356924491     -0.3113280778
C      -1.8362932342     -1.5312616490     -0.5904404248
C      -1.0235467817      1.5377687508      0.4923890350
H       0.3283659221     -1.8933651269     -0.5275926966
H      -2.6848543914     -0.7658638205     -0.2812895576
H      -2.2249576111     -2.5793406001     -0.9682622058
H      -0.4394298782      2.5155455165      1.2346837752
H      -2.2179897665      0.9232184923      1.0928872843
H      -1.2206594725      1.8377052043     -0.6875398748
12
Frame=361  time=181.000fs  energy=-306.20126513Ha  molecule=COOCCCHHHHHH
C      -0.0574088396      0.3383223377      0.1777975417
O       1.2551079574      0.7029009548      0.2884548894
O       2.2789330190     -0.2755613885     -0.1059013649
C      -0.4821264769     -1.1342178849     -0.3114713138
C      -1.8335742973     -1.5356104054     -0.5932362331
C      -1.0255615796      1.5371345180      0.4927839808
H       0.3248345055     -1.8957678115     -0.5252339041
H      -2.6725897851     -0.7643913162     -0.2688717909
H      -2.2389306752     -2.5746360508     -0.9662764923
H      -0.4464619169      2.5186003325      1.2412292816
H      -2.2233961072      0.9079520091      1.0946338276
H      -1.2263020070      1.8409861526     -0.6832116977
12
Frame=362  time=181.500fs  energy=-306.20103859Ha  molecule=COOCCCHHHHHH
C      -0.0557677780      0.3426759040      0.1760911719
O       1.2533968125      0.7013807113      0.2895651489
O       2.2829059065     -0.2747819078     -0.1057479523
C      -0.4857788909     -1.1326538149     -0.3118373358
C      -1.8309383382     -1.5395969026     -0.5957046107
C      -1.0278556109      1.5360734067      0.4929229541
H       0.3231867017     -1.8980733775     -0.5229008793
H      -2.6584211430     -0.7646639810     -0.2583809508
H      -2.2480550216     -2.5690632770     -0.9648347911
H      -0.4548685009      2.5223070472      1.2498092528
H      -2.2291490079      0.8981774795      1.0979411657
H      -1.2315460774      1.8454499424     -0.6769693099
12
Frame=363  time=182.000fs  energy=-306.20095580Ha  molecule=COOCCCHHHHHH
C      -0.0535015918      0.3465037583      0.1742579923
O       1.2513380039      0.6997168615      0.2906321461
O       2.2868024326     -0.2739508068     -0.1055321729
C      -0.4895656095     -1.1310771177     -0.3124303544
C      -1.8284917101     -1.5431658714     -0.5978202660
C      -1.0304535028      1.5346342404      0.4928944433
H       0.3231120780     -1.8995454197     -0.5206822980
H      -2.6429942553     -0.7662361469     -0.2499857404
H      -2.2523512048     -2.5631099466     -0.9639992222
H      -0.4644245926      2.5267902686      1.2603170456
H      -2.2349239832      0.8937174709      1.1023935611
H      -1.2365193588      1.8510119551     -0.6692781162
12
Frame=364  time=182.500fs  energy=-306.20085731Ha  molecule=COOCCCHHHHHH
C      -0.0507670274      0.3496544639      0.1723039411
O       1.2490444011      0.6980521600      0.2916511933
O       2.2906487779     -0.2731701384     -0.1052520014
C      -0.4932548812     -1.1295462978     -0.3132562007
C      -1.8262847521     -1.5462036187     -0.5995600311
C      -1.0335141937      1.5328351156      0.4928201937
H       0.3240917128     -1.8995660427     -0.5186603809
H      -2.6274109207     -0.7685258390     -0.2438445953
H      -2.2517739148     -2.5576993814     -0.9638198116
H      -0.4745284555      2.5315656923      1.2725825782
H      -2.2402008922      0.8946980097      1.1074510244
H      -1.2413754112      1.8580391389     -0.6608232194
12
Frame=365  time=183.000fs  energy=-306.20076072Ha  molecule=COOCCCHHHHHH
C      -0.0477592727      0.3518913096      0.1702332083
O       1.2467113653      0.6966338575      0.2926177400
O       2.2945080611     -0.2726379720     -0.1049033805
C      -0.4966017652     -1.1281109845     -0.3143910506
C      -1.8242979482     -1.5484746126     -0.6006759952
C      -1.0374050612      1.5306891114      0.4928519986
H       0.3251884463     -1.8979685852     -0.5169248897
H      -2.6134380353     -0.7710591086     -0.2410833034
H      -2.2458093427     -2.5542225358     -0.9652760748
H      -0.4840931575      2.5353220838      1.2863291258
H      -2.2443450821      0.9018343077      1.1125577454
H      -1.2461960404      1.8675468154     -0.6524744120
12
Frame=366  time=183.500fs  energy=-306.20131655Ha  molecule=COOCCCHHHHHH
C      -0.0447457593      0.3525400168      0.1680530424
O       1.2448022511      0.6952451708      0.2935270071
O       2.2981652699     -0.2720640531     -0.1044823700
C      -0.4992141860     -1.1274524177     -0.3158945138
C      -1.8230068542     -1.5492189375     -0.6009804457
C      -1.0421514175      1.5285480829      0.4931406710
H       0.3310022106     -1.8923127860     -0.5155563739
H      -2.6051700752     -0.7739373627     -0.2425661759
H      -2.2336496129     -2.5542202171     -0.9690966371
H      -0.4934810549      2.5389124036      1.3012241795
H      -2.2472248598      0.9149720811      1.1168483417
H      -1.2515226104      1.8797766415     -0.6447570408
12
Frame=367  time=184.000fs  energy=-306.20220475Ha  molecule=COOCCCHHHHHH
C      -0.0418520545      0.3517126307      0.1657785660
O       1.2432662603      0.6936806900      0.2943724749
O       2.3015183313     -0.2712449487     -0.1039865302
C      -0.5009420781     -1.1275560797     -0.3177092803
C      -1.8224322999     -1.5486196737     -0.6006814102
C      -1.0473547937      1.5265505221      0.4938095167
H       0.3419028230     -1.8822510306     -0.5146140953
H      -2.6025223159     -0.7759178947     -0.2474622285
H      -2.2171511616     -2.5582377372     -0.9743532448
H      -0.5034340550      2.5436556833      1.3169427323
H      -2.2486509839      0.9322009114      1.1196194960
H      -1.2577660670      1.8933295352     -0.6381315549
12
Frame=368  time=184.500fs  energy=-306.20301935Ha  molecule=COOCCCHHHHHH
C      -0.0391435638      0.3499912051      0.1634267783
O       1.2417821503      0.6921017400      0.2951460832
O       2.3046982126     -0.2703783018     -0.1034117542
C      -0.5018120795     -1.1277414239     -0.3197868173
C      -1.8220851048     -1.5474065536     -0.5999723719
C      -1.0528513906      1.5245639970      0.4949609317
H       0.3530397398     -1.8703298169     -0.5141619300
H      -2.6028945009     -0.7753996069     -0.2550168729
H      -2.1986749842     -2.5664457769     -0.9801603764
H      -0.5135564432      2.5489436083      1.3330729328
H      -2.2482015228      0.9520343859      1.1206774258
H      -1.2647968714      1.9072210324     -0.6332012772
12
Frame=369  time=185.000fs  energy=-306.20386301Ha  molecule=COOCCCHHHHHH
C      -0.0368299853      0.3473775456      0.1610156807
O       1.2404285157      0.6905357706      0.2958395459
O       2.3076858207     -0.2694716519     -0.1027523755
C      -0.5016953870     -1.1279022936     -0.3221366584
C      -1.8219468376     -1.5455924623     -0.5988641761
C      -1.0585892715      1.5226943630      0.4966580203
H       0.3642995365     -1.8575358479     -0.5142679572
H      -2.6065872917     -0.7723728020     -0.2652604230
H      -2.1788103458     -2.5790150608     -0.9863918119
H      -0.5237175168      2.5544419320      1.3490654855
H      -2.2459881155      0.9736281565      1.1200613673
H      -1.2724497548      1.9210670271     -0.6301660392
12
Frame=370  time=185.500fs  energy=-306.20454262Ha  molecule=COOCCCHHHHHH
C      -0.0351260722      0.3439172718      0.1585684253
O       1.2392859467      0.6890125742      0.2964450645
O       2.3104637728     -0.2685350093     -0.1020036727
C      -0.5005211954     -1.1279044659     -0.3247644355
C      -1.8220198634     -1.5432174269     -0.5973828356
C      -1.0644961175      1.5210538796      0.4988953168
H       0.3756878811     -1.8452384002     -0.5149833074
H      -2.6134594972     -0.7675663732     -0.2781413571
H      -2.1579273032     -2.5952949947     -0.9928759816
H      -0.5337721849      2.5597159394      1.3642751660
H      -2.2425005473      0.9960323877      1.1182781843
H      -1.2802783711      1.9343818304     -0.6288442702
12
Frame=371  time=186.000fs  energy=-306.20487075Ha  molecule=COOCCCHHHHHH
C      -0.0342238038      0.3397135280      0.1561129861
O       1.2384268770      0.6875621872      0.2969568265
O       2.3130194065     -0.2675802055     -0.1011634120
C      -0.4982979541     -1.1276138472     -0.3276676944
C      -1.8223139081     -1.5403594231     -0.5955737134
C      -1.0704833530      1.5197469025      0.5015937531
H       0.3872293695     -1.8349248105     -0.5163285918
H      -2.6229253218     -0.7623882646     -0.2934891937
H      -2.1361677983     -2.6137793021     -0.9993978434
H      -0.5435307706      2.5642879154      1.3780140036
H      -2.2385869871      1.0182309625      1.1162664934
H      -1.2875926517      1.9466179379     -0.6286745400
12
Frame=372  time=186.500fs  energy=-306.20482957Ha  molecule=COOCCCHHHHHH
C      -0.0342583375      0.3349282163      0.1536800530
O       1.2379021823      0.6862115043      0.2973723129
O       2.3153471735     -0.2666193587     -0.1002329980
C      -0.4951159746     -1.1269365908     -0.3308333100
C      -1.8228183885     -1.5371347559     -0.5935005697
C      -1.0764571655      1.5188517363      0.5046233811
H       0.3988144919     -1.8277849488     -0.5182846636
H      -2.6341290990     -0.7585536991     -0.3110047310
H      -2.1135494402     -2.6324294993     -1.0057151827
H      -0.5527354281      2.5677255609      1.3896424626
H      -2.2352851469      1.0392185821      1.1151691333
H      -1.2936179941      1.9572502315     -0.6288722564
12
Frame=373  time=187.000fs  energy=-306.20458021Ha  molecule=COOCCCHHHHHH
C      -0.0352860878      0.3297666394      0.1512999713
O       1.2377313105      0.6849816476      0.2976924534
O       2.3174484164     -0.2656631442     -0.0992172143
C      -0.4911241270     -1.1258500360     -0.3342389903
C      -1.8234779584     -1.5336837797     -0.5912389430
C      -1.0823319742      1.5184081685      0.5078487477
H       0.4100732915     -1.8243573421     -0.5207951663
H      -2.6462097351     -0.7575863461     -0.3302915393
H      -2.0901327204     -2.6492283676     -1.0115824062
H      -0.5610570922      2.5697200758      1.3986533176
H      -2.2335560875      1.0580809246      1.1159922281
H      -1.2977161501      1.9658628936     -0.6286865133
12
Frame=374  time=187.500fs  energy=-306.20430880Ha  molecule=COOCCCHHHHHH
C      -0.0372844721      0.3244555637      0.1490004345
O       1.2379005673      0.6838876902      0.2979206924
O       2.3193287589     -0.2647197810     -0.0981228287
C      -0.4864989192     -1.1244072960     -0.3378575679
C      -1.8241804726     -1.5301518078     -0.5888685378
C      -1.0880389325      1.5184162107      0.5111734891
H       0.4203563242     -1.8244391374     -0.5237777306
H      -2.6585174022     -0.7604452765     -0.3509048425
H      -2.0661700573     -2.6626663302     -1.0167674429
H      -0.5681178248      2.5701153243      1.4047094533
H      -2.2340493801      1.0740350848      1.1193187168
H      -1.2995578808      1.9721949584     -0.6276252435
12
Frame=375  time=188.000fs  energy=-306.20409017Ha  molecule=COOCCCHHHHHH
C      -0.0401651924      0.3192261726      0.1468055996
O       1.2383674036      0.6829402618      0.2980618416
O       2.3209950183     -0.2637948921     -0.0969572250
C      -0.4814260319     -1.1227189952     -0.3416607686
C      -1.8247556991     -1.5266763857     -0.5864685878
C      -1.0935268549      1.5188424511      0.5145646259
H       0.4288255829     -1.8272493346     -0.5271348195
H      -2.6707178103     -0.7673680544     -0.3723873372
H      -2.0421878343     -2.6719894317     -1.0210564194
H      -0.5735312667      2.5688905743      1.4076427888
H      -2.2369854341      1.0864308199      1.1251771650
H      -1.2991899112      1.9761411010     -0.6255644339
12
Frame=376  time=188.500fs  energy=-306.20387819Ha  molecule=COOCCCHHHHHH
C      -0.0437872865      0.3143035696      0.1447357647
O       1.2390655874      0.6821473545      0.2981215150
O       2.3224534674     -0.2628918068     -0.0957278544
C      -0.4760970811     -1.1209261846     -0.3456205662
C      -1.8249838553     -1.5233820871     -0.5841162565
C      -1.0987585420      1.5196270364      0.5180527802
H       0.4346083446     -1.8317005950     -0.5307590403
H      -2.6827916031     -0.7778773446     -0.3942831048
H      -2.0189931764     -2.6772389028     -1.0242536210
H      -0.5769569967      2.5661263506      1.4074488764
H      -2.2421514768      1.0947534214      1.1330574347
H      -1.2970119029      1.9777341544     -0.6227406082
12
Frame=377  time=189.000fs  energy=-306.20359498Ha  molecule=COOCCCHHHHHH
C      -0.0479667697      0.3098961920      0.1428065662
O       1.2399100109      0.6815153206      0.2981062031
O       2.3237097589     -0.2620119190     -0.0944423814
C      -0.4707115377     -1.1191720516     -0.3497087887
C      -1.8246180635     -1.5203776044     -0.5818854994
C      -1.1037060947      1.5206891008      0.5217134386
H       0.4369814539     -1.8366841684     -0.5345350138
H      -2.6949557327     -0.7908991095     -0.4161428259
H      -1.9976007261     -2.6791537777     -1.0261863614
H      -0.5781691544      2.5619721907      1.4042931216
H      -2.2489795678      1.0986594782      1.1420376704
H      -1.2936915230      1.9771268369     -0.6196563514
12
Frame=378  time=189.500fs  energy=-306.20307541Ha  molecule=COOCCCHHHHHH
C      -0.0524893827      0.3061817577      0.1410278575
O       1.2408035127      0.6810492901      0.2980234394
O       2.3247694170     -0.2611550345     -0.0931088910
C      -0.4654731544     -1.1175752974     -0.3538967666
C      -1.8234225847     -1.5177523261     -0.5798446523
C      -1.1083463287      1.5219332935      0.5256359742
H       0.4355486227     -1.8413292652     -0.5383426817
H      -2.7075258488     -0.8049951983     -0.4375350745
H      -1.9790763129     -2.6789439122     -1.0267151071
H      -0.5771223824      2.5566151432      1.3985091670
H      -2.2566936786      1.0980291427      1.1510043682
H      -1.2900284638      1.9745665156     -0.6169238089
12
Frame=379  time=190.000fs  energy=-306.20292270Ha  molecule=COOCCCHHHHHH
C      -0.0569460985      0.3037515059      0.1394033662
O       1.2413432613      0.6807764153      0.2978815592
O       2.3257193649     -0.2604047592     -0.0917356993
C      -0.4607403081     -1.1156803039     -0.3581560489
C      -1.8207001563     -1.5161375576     -0.5780537990
C      -1.1126658659      1.5231482272      0.5298900136
H       0.4250256457     -1.8477633039     -0.5420634428
H      -2.7182423580     -0.8179981047     -0.4580630213
H      -1.9650505906     -2.6777293915     -1.0257399345
H      -0.5736333426      2.5497311998      1.3905654366
H      -2.2643042980      1.0927091959      1.1590747135
H      -1.2865977427      1.9700735905     -0.6152414134
12
Frame=380  time=190.500fs  energy=-306.20298283Ha  molecule=COOCCCHHHHHH
C      -0.0611671270      0.3025825927      0.1379337522
O       1.2415172675      0.6806971243      0.2976884292
O       2.3265382435     -0.2597354908     -0.0903305078
C      -0.4566497363     -1.1136672327     -0.3624602328
C      -1.8164902621     -1.5154325523     -0.5765680535
C      -1.1166313096      1.5242653416      0.5345044235
H       0.4072950152     -1.8552482638     -0.5455818980
H      -2.7278311656     -0.8288885683     -0.4773573244
H      -1.9559807807     -2.6766918045     -1.0231773827
H      -0.5681236990      2.5416286864      1.3809871696
H      -2.2712112946      1.0830740029      1.1654322816
H      -1.2840691843      1.9640120535     -0.6148985245
12
Frame=381  time=191.000fs  energy=-306.20302053Ha  molecule=COOCCCHHHHHH
C      -0.0650932132      0.3023725974      0.1366175743
O       1.2414876284      0.6808023083      0.2974513645
O       2.3271546886     -0.2590739292     -0.0889004841
C      -0.4532270901     -1.1119750574     -0.3667844348
C      -1.8112173243     -1.5152162683     -0.5754396569
C      -1.1201938509      1.5252793582      0.5394516341
H       0.3875140765     -1.8619854345     -0.5487845643
H      -2.7380766866     -0.8374975761     -0.4950653505
H      -1.9515637868     -2.6766777374     -1.0189529423
H      -0.5613368783      2.5328835795      1.3703344286
H      -2.2771551331      1.0698061131      1.1695554621
H      -1.2829996117      1.9568636705     -0.6158048451
12
Frame=382  time=191.500fs  energy=-306.20300812Ha  molecule=COOCCCHHHHHH
C      -0.0685011354      0.3031939642      0.1354501944
O       1.2411428861      0.6809550892      0.2971776457
O       2.3274982007     -0.2582784269     -0.0874526444
C      -0.4505982381     -1.1106238051     -0.3711044517
C      -1.8050422596     -1.5155697391     -0.5747154629
C      -1.1231264094      1.5261548840      0.5446367913
H       0.3672257129     -1.8683062401     -0.5515628628
H      -2.7480900838     -0.8435529439     -0.5108605830
H      -1.9520047239     -2.6775909887     -1.0130145379
H      -0.5543272086      2.5244394063      1.3592018186
H      -2.2821216536      1.0529654162      1.1714235145
H      -1.2836357835      1.9482751257     -0.6175701170
12
Frame=383  time=192.000fs  energy=-306.20300401Ha  molecule=COOCCCHHHHHH
C      -0.0711661482      0.3051200543      0.1344232811
O       1.2403525471      0.6809279430      0.2968747462
O       2.3274603736     -0.2571245486     -0.0859939890
C      -0.4488456043     -1.1096267654     -0.3753965951
C      -1.7982486323     -1.5166173021     -0.5744340709
C      -1.1250904119      1.5268919391      0.5499020221
H       0.3481976344     -1.8745676028     -0.5538177158
H      -2.7564058286     -0.8472288792     -0.5244559569
H      -1.9573124847     -2.6786399868     -1.0053443456
H      -0.5484942574      2.5177454860      1.3482039426
H      -2.2864458007      1.0324079299      1.1714179794
H      -1.2860269539      1.9374952394     -0.6194437144
12
Frame=384  time=192.500fs  energy=-306.20297194Ha  molecule=COOCCCHHHHHH
C      -0.0730521443      0.3081767038      0.1335312728
O       1.2390520398      0.6809928248      0.2965504522
O       2.3271564102     -0.2558457163     -0.0845347728
C      -0.4479826326     -1.1088688027     -0.3795159732
C      -1.7912277068     -1.5184309242     -0.5750190583
C      -1.1261037783      1.5272469985      0.5550269928
H       0.3322198811     -1.8808034852     -0.5554437462
H      -2.7616296747     -0.8491584998     -0.5339084480
H      -1.9668792130     -2.6787578149     -0.9943313493
H      -0.5440386147      2.5124150359      1.3380114474
H      -2.2903358395      1.0091693704      1.1704826882
H      -1.2897541468      1.9249432589     -0.6206475648
12
Frame=385  time=193.000fs  energy=-306.20287140Ha  molecule=COOCCCHHHHHH
C      -0.0741779763      0.3121677708      0.1327585623
O       1.2373271962      0.6815487273      0.2962129850
O       2.3267403168     -0.2547901593     -0.0830822156
C      -0.4479156662     -1.1082739364     -0.3834234111
C      -1.7843419091     -1.5208536205     -0.5765383333
C      -1.1265496412      1.5269901556      0.5598000570
H       0.3199547433     -1.8873080257     -0.5563820273
H      -2.7633525299     -0.8505026034     -0.5388247580
H      -1.9787090732     -2.6772566467     -0.9798267427
H      -0.5403471322      2.5069897439      1.3292045428
H      -2.2939734619      0.9854920394      1.1698259531
H      -1.2941300132      1.9120973869     -0.6205366877
12
Frame=386  time=193.500fs  energy=-306.20265581Ha  molecule=COOCCCHHHHHH
C      -0.0744090686      0.3167917613      0.1320780128
O       1.2352785588      0.6823732857      0.2958708642
O       2.3260844076     -0.2537392045     -0.0816391679
C      -0.4484735505     -1.1079698725     -0.3872263167
C      -1.7778799672     -1.5236822738     -0.5785724285
C      -1.1265163330      1.5262453040      0.5640625189
H       0.3111370565     -1.8944775248     -0.5566316391
H      -2.7614661438     -0.8522866532     -0.5409338642
H      -1.9906899229     -2.6737042616     -0.9636842678
H      -0.5379578205      2.5021393616      1.3222203688
H      -2.2978561806      0.9625965556      1.1703405429
H      -1.2987934204      1.8993331226     -0.6184533370
12
Frame=387  time=194.000fs  energy=-306.20251243Ha  molecule=COOCCCHHHHHH
C      -0.0737573141      0.3218748336      0.1314664058
O       1.2329506568      0.6834744915      0.2955325029
O       2.3251845695     -0.2526901923     -0.0802104116
C      -0.4494660382     -1.1079976805     -0.3909376588
C      -1.7721456140     -1.5268614161     -0.5810036837
C      -1.1260488289      1.5249800468      0.5676992522
H       0.3059298914     -1.9016576446     -0.5561991473
H      -2.7555874629     -0.8548415214     -0.5406760800
H      -2.0018662015     -2.6677834088     -0.9464988918
H      -0.5370922057      2.4982675238      1.3174518724
H      -2.3021600965      0.9413099307      1.1726526834
H      -1.3034599428      1.8868960773     -0.6140314582
12
Frame=388  time=194.500fs  energy=-306.20249658Ha  molecule=COOCCCHHHHHH
C      -0.0722738217      0.3272295095      0.1309017380
O       1.2304061616      0.6848589567      0.2952061761
O       2.3240364576     -0.2516396366     -0.0788008135
C      -0.4506785331     -1.1084126716     -0.3945476001
C      -1.7673667879     -1.5303280313     -0.5837851335
C      -1.1252055371      1.5231792285      0.5706621859
H       0.3042157983     -1.9079277742     -0.5551052583
H      -2.7457259949     -0.8580488280     -0.5381957121
H      -2.0116481590     -2.6597040842     -0.9285663932
H      -0.5378648866      2.4958025924      1.3152157649
H      -2.3067808485      0.9222594665      1.1769840350
H      -1.3080439159      1.8750641547     -0.6072445750
12
Frame=389  time=195.000fs  energy=-306.20258499Ha  molecule=COOCCCHHHHHH
C      -0.0700423251      0.3326591919      0.1303623964
O       1.2277241079      0.6865334751      0.2949001307
O       2.3226346089     -0.2505835769     -0.0774149028
C      -0.4518906534     -1.1092717150     -0.3980459703
C      -1.7636922184     -1.5340128661     -0.5868669978
C      -1.1240548382      1.5208451533      0.5729733763
H       0.3057282316     -1.9122791160     -0.5533848957
H      -2.7322662530     -0.8613541872     -0.5336537809
H      -2.0198242917     -2.6501947747     -0.9101915952
H      -0.5403180353      2.4951627659      1.3157454764
H      -2.3113353402      0.9058840441      1.1831298031
H      -1.3126556939      1.8641425669     -0.5983992463
12
Frame=390  time=195.500fs  energy=-306.20268815Ha  molecule=COOCCCHHHHHH
C      -0.0671779435      0.3379603810      0.1298271495
O       1.2249995305      0.6885044700      0.2946226136
O       2.3209731447     -0.2495178064     -0.0760569517
C      -0.4528920136     -1.1106175322     -0.4014221905
C      -1.7611912341     -1.5378404317     -0.5901960410
C      -1.1226730887      1.5180013974      0.5747176352
H       0.3101619735     -1.9138061998     -0.5510879316
H      -2.7159310904     -0.8638503336     -0.5272307605
H      -2.0265279280     -2.6404224224     -0.8916909882
H      -0.5444487208      2.4967083920      1.3191782775
H      -2.3152103654      0.8924355184      1.1905073530
H      -1.3175643749      1.8544581624     -0.5880844432
12
Frame=391  time=196.000fs  energy=-306.20274914Ha  molecule=COOCCCHHHHHH
C      -0.0639147152      0.3427073755      0.1292752306
O       1.2224886312      0.6907653393      0.2943817132
O       2.3190076246     -0.2483968675     -0.0747308988
C      -0.4534214612     -1.1127207612     -0.4046657220
C      -1.7601069696     -1.5414574579     -0.5937146072
C      -1.1211367818      1.5147508508      0.5760271666
H       0.3198429052     -1.9106454391     -0.5482817746
H      -2.6989210641     -0.8647722239     -0.5191341036
H      -2.0318153441     -2.6319300802     -0.8733929826
H      -0.5503981036      2.5009340483      1.3255321053
H      -2.3177594635      0.8821164652      1.1981965292
H      -1.3232198853      1.8464735193     -0.5770011054
12
Frame=392  time=196.500fs  energy=-306.20345357Ha  molecule=COOCCCHHHHHH
C      -0.0605459840      0.3463865919      0.1286863381
O       1.2205204040      0.6933037193      0.2941854732
O       2.3166774862     -0.2471583008     -0.0734405904
C      -0.4532269797     -1.1159224119     -0.4077651504
C      -1.7607293481     -1.5443959960     -0.5973616379
C      -1.1195194352      1.5112435333      0.5770546738
H       0.3383129990     -1.9008314159     -0.5450498984
H      -2.6840696627     -0.8635102323     -0.5095901827
H      -2.0357371018     -2.6263333582     -0.8556377599
H      -0.5583817754      2.5082901227      1.3347108320
H      -2.3183766129      0.8750396773      1.2051611184
H      -1.3301080120      1.8406905725     -0.5658748583
12
Frame=393  time=197.000fs  energy=-306.20419437Ha  molecule=COOCCCHHHHHH
C      -0.0571028976      0.3491779489      0.1280397813
O       1.2189768022      0.6961433919      0.2940425215
O       2.3140441600     -0.2458689167     -0.0721904575
C      -0.4523477977     -1.1197204756     -0.4107057094
C      -1.7625364046     -1.5470443068     -0.6010726886
C      -1.1179044999      1.5074839831      0.5779446390
H       0.3612439193     -1.8867790325     -0.5414902328
H      -2.6703875164     -0.8586329903     -0.4988333466
H      -2.0394125839     -2.6246987340     -0.8387904485
H      -0.5681182751      2.5182931413      1.3465291019
H      -2.3162740640      0.8708092234      1.2106949825
H      -1.3383278186      1.8371682082     -0.5556024728
12
Frame=394  time=197.500fs  energy=-306.20499386Ha  molecule=COOCCCHHHHHH
C      -0.0536835136      0.3511478343      0.1273143016
O       1.2178329427      0.6992997556      0.2939616890
O       2.3111477993     -0.2445726471     -0.0709852754
C      -0.4508351812     -1.1237183726     -0.4134703992
C      -1.7651310305     -1.5496404606     -0.6047769094
C      -1.1163684125      1.5035335705      0.5788097463
H       0.3859230834     -1.8706995859     -0.5377225006
H      -2.6573985543     -0.8494489766     -0.4871274040
H      -2.0435875585     -2.6275971591     -0.8232444337
H      -0.5794218814      2.5304065957      1.3606740140
H      -2.3109962608      0.8690210583      1.2143340270
H      -1.3478225412      1.8359793362     -0.5468307184
12
Frame=395  time=198.000fs  energy=-306.20568566Ha  molecule=COOCCCHHHHHH
C      -0.0504784762      0.3521865463      0.1264887887
O       1.2172019812      0.7027712511      0.2939512349
O       2.3079967694     -0.2432759200     -0.0698297471
C      -0.4487320661     -1.1277255067     -0.4160417095
C      -1.7683439740     -1.5521783949     -0.6083962843
C      -1.1149780317      1.4995290778      0.5797050450
H       0.4120847277     -1.8540857131     -0.5338928201
H      -2.6454109503     -0.8364437926     -0.4747799973
H      -2.0483411787     -2.6347916556     -0.8094104450
H      -0.5922085615      2.5441111818      1.3766739278
H      -2.3026305510      0.8693147262      1.2160351872
H      -1.3583013924      1.8372056052     -0.5397796066
12
Frame=396  time=198.500fs  energy=-306.20596508Ha  molecule=COOCCCHHHHHH
C      -0.0476737058      0.3522331759      0.1255442106
O       1.2171855424      0.7065440723      0.2940175532
O       2.3046080425     -0.2419852868     -0.0687276857
C      -0.4461426362     -1.1315470334     -0.4184047993
C      -1.7720074222     -1.5546625804     -0.6118485233
C      -1.1137928355      1.4956249230      0.5806137487
H       0.4393877379     -1.8386105623     -0.5301721093
H      -2.6343431822     -0.8210615803     -0.4621449997
H      -2.0533347609     -2.6450012722     -0.7976843443
H      -0.6062688256      2.5587011887      1.3938899853
H      -2.2918302134      0.8712544168      1.2163660813
H      -1.3691161339      1.8407651466     -0.5342288390
12
Frame=397  time=199.000fs  energy=-306.20565210Ha  molecule=COOCCCHHHHHH
C      -0.0454238900      0.3512959219      0.1244666508
O       1.2178530954      0.7105874523      0.2941635537
O       2.3010099361     -0.2407063341     -0.0676807468
C      -0.4432127661     -1.1350283604     -0.4205522699
C      -1.7759459512     -1.5571077499     -0.6150550700
C      -1.1128620834      1.4919746785      0.5814609054
H       0.4672444702     -1.8256842437     -0.5267435169
H      -2.6238503974     -0.8053936753     -0.4496035912
H      -2.0579349192     -2.6561837418     -0.7883921302
H      -0.6212068672      2.5733761128      1.4115542789
H      -2.2797459682      0.8743416438      1.2164063416
H      -1.3793764147      1.8463988221     -0.5295850001
12
Frame=398  time=199.500fs  energy=-306.20484999Ha  molecule=COOCCCHHHHHH
C      -0.0438246962      0.3494563431      0.1232495127
O       1.2192248248      0.7148539230      0.2943878930
O       2.2972408375     -0.2394423651     -0.0666876391
C      -0.4400961709     -1.1380952592     -0.4224870727
C      -1.7799666604     -1.5595328632     -0.6179513163
C      -1.1122239169      1.4887080574      0.5821559980
H       0.4947293254     -1.8160297718     -0.5237811027
H      -2.6135626093     -0.7915644816     -0.4375227704
H      -2.0614941243     -2.6661889505     -0.7817414517
H      -0.6364384737      2.5873808815      1.4288669485
H      -2.2677351925      0.8780450205      1.2173937917
H      -1.3882031309      1.8537200859     -0.5251140022
12
Frame=399  time=200.000fs  energy=-306.20384108Ha  molecule=COOCCCHHHHHH
C      -0.0428997519      0.3468542777      0.1218935225
O       1.2212677547      0.7192848582      0.2946855556
O       2.2933445706     -0.2381937858     -0.0657444845
C      -0.4369269055     -1.1407625254     -0.4242212491
C      -1.7838577145     -1.5619526460     -0.6204934471
C      -1.1119070625      1.4859150374      0.5826416450
H       0.5206649240     -1.8095701189     -0.5214303298
H      -2.6032942244     -0.7811589860     -0.4262121269
H      -2.0636202875     -2.6734116541     -0.7778053438
H      -0.6512613866      2.6001206398      1.4451121879
H      -2.2569912829      0.8818361567      1.2202916077
H      -1.3949806264      1.8623051300     -0.5202205703
12
Frame=400  time=200.500fs  energy=-306.20287204Ha  molecule=COOCCCHHHHHH
C      -0.0426095531      0.3436616921      0.1204047353
O       1.2239068967      0.7238182961      0.2950493421
O       2.2893650947     -0.2369586141     -0.0648460278
C      -0.4338107775     -1.1431081578     -0.4257716722
C      -1.7873954539     -1.5643728776     -0.6226585612
C      -1.1119335391      1.4836438536      0.5829220722
H       0.5438411335     -1.8056707990     -0.5197998011
H      -2.5931414267     -0.7749449555     -0.4159016638
H      -2.0642962794     -2.6771187141     -0.7765443788
H      -0.6649634354      2.6111955642      1.4597379202
H      -2.2482879696      0.8852208153      1.2255141094
H      -1.3994783620      1.8717745358     -0.5146312586
12
Frame=401  time=201.000fs  energy=-306.20205339Ha  molecule=COOCCCHHHHHH
C      -0.0428808024      0.3400467677      0.1187918646
O       1.2270530651      0.7284248179      0.2954713881
O       2.2853549307     -0.2357605320     -0.0639868270
C      -0.4308277078     -1.1452312452     -0.4271558167
C      -1.7903533241     -1.5667751317     -0.6244396147
C      -1.1123571651      1.4818993025      0.5830628878
H       0.5631712578     -1.8035364838     -0.5189653038
H      -2.5835303156     -0.7729489643     -0.4067459224
H      -2.0637526978     -2.6774433102     -0.7778499063
H      -0.6768163436      2.6202118488      1.4723729733
H      -2.2419041342      0.8878777924      1.2329213564
H      -1.4017998169      1.8819505424     -0.5084361734
12
Frame=402  time=201.500fs  energy=-306.20138076Ha  molecule=COOCCCHHHHHH
C      -0.0436323001      0.3361511404      0.1170642881
O       1.2306244094      0.7331318413      0.2959440781
O       2.2813827674     -0.2346694521     -0.0631619166
C      -0.4280379265     -1.1472194595     -0.4283893808
C      -1.7925127614     -1.5691081331     -0.6258396273
C      -1.1132904160      1.4806465287      0.5831725876
H       0.5777660199     -1.8025158962     -0.5189789773
H      -2.5751773997     -0.7746961806     -0.3988409919
H      -2.0622840840     -2.6751737091     -0.7815813521
H      -0.6860535904      2.6266099301      1.4828027089
H      -2.2376992842      0.8897570553      1.2419756916
H      -1.4022568350      1.8929407042     -0.5020148755
12
Frame=403  time=202.000fs  energy=-306.20069590Ha  molecule=COOCCCHHHHHH
C      -0.0446243853      0.3324393543      0.1152309620
O       1.2343007359      0.7378174345      0.2964603903
O       2.2774936538     -0.2336529778     -0.0623670121
C      -0.4256012110     -1.1488462168     -0.4294855259
C      -1.7933904056     -1.5717394750     -0.6268674963
C      -1.1146395946      1.4798340384      0.5833795855
H       0.5841450181     -1.8035977580     -0.5198777292
H      -2.5669831887     -0.7788000357     -0.3922415562
H      -2.0611830686     -2.6711008752     -0.7875884747
H      -0.6923935650      2.6304357663      1.4909344846
H      -2.2352964399      0.8900509251      1.2519017661
H      -1.4012954584      1.9040793016     -0.4958886692
12
Frame=404  time=202.500fs  energy=-306.20095891Ha  molecule=COOCCCHHHHHH
C      -0.0455635236      0.3294523873      0.1132970577
O       1.2377060908      0.7423906910      0.2970141625
O       2.2737579053     -0.2327220282     -0.0615976577
C      -0.4237109324     -1.1497100298     -0.4304950403
C      -1.7923613843     -1.5751483983     -0.6273987599
C      -1.1163890847      1.4793812868      0.5838205650
H       0.5772929202     -1.8089941705     -0.5217035509
H      -2.5573286051     -0.7836818152     -0.3875629517
H      -2.0616247006     -2.6661613266     -0.7962902420
H      -0.6954180972      2.6313370250      1.4967316862
H      -2.2341423592      0.8882158707      1.2619197793
H      -1.3992903039      1.9148882227     -0.4907060797
12
Frame=405  time=203.000fs  energy=-306.20136398Ha  molecule=COOCCCHHHHHH
C      -0.0465068712      0.3269973901      0.1112697172
O       1.2409601066      0.7468225986      0.2976001385
O       2.2701593098     -0.2318390482     -0.0608528841
C      -0.4222970723     -1.1502390030     -0.4313901885
C      -1.7897057493     -1.5789016071     -0.6275398876
C      -1.1185216544      1.4793355195      0.5846147914
H       0.5614995668     -1.8166987890     -0.5245007245
H      -2.5486462845     -0.7889068269     -0.3844078267
H      -2.0636985265     -2.6615373383     -0.8071724785
H      -0.6952015680      2.6295231656      1.5002104244
H      -2.2339515254      0.8842295321      1.2710355130
H      -1.3968831585      1.9254592137     -0.4868562897
12
Frame=406  time=203.500fs  energy=-306.20192311Ha  molecule=COOCCCHHHHHH
C      -0.0475122305      0.3248151600      0.1091537641
O       1.2442180271      0.7510417964      0.2982132599
O       2.2666572310     -0.2309246794     -0.0601321608
C      -0.4212671101     -1.1509061551     -0.4321604170
C      -1.7857784211     -1.5824856925     -0.6273260798
C      -1.1210239875      1.4797845824      0.5858692603
H       0.5416243556     -1.8248517954     -0.5283304562
H      -2.5436081456     -0.7942937974     -0.3826796883
H      -2.0671264065     -2.6583288403     -0.8200254850
H      -0.6919587214      2.6252491635      1.5014098625
H      -2.2345319622      0.8782022864      1.2783129110
H      -1.3946790657      1.9359194631     -0.4846543012
12
Frame=407  time=204.000fs  energy=-306.20274205Ha  molecule=COOCCCHHHHHH
C      -0.0484877683      0.3230079302      0.1069536715
O       1.2473856115      0.7549911801      0.2988479728
O       2.2632787952     -0.2299670991     -0.0594353766
C      -0.4206445860     -1.1517440073     -0.4328031437
C      -1.7805967968     -1.5858309324     -0.6267602679
C      -1.1238791966      1.4807252651      0.5876595143
H       0.5185691671     -1.8338952356     -0.5332612577
H      -2.5426842372     -0.7993872845     -0.3824186483
H      -2.0719209913     -2.6571514229     -0.8347740523
H      -0.6857433785      2.6183362548      1.5004250584
H      -2.2356570207      0.8701390382      1.2831203979
H      -1.3930124564      1.9461404817     -0.4843931271
12
Frame=408  time=204.500fs  energy=-306.20376741Ha  molecule=COOCCCHHHHHH
C      -0.0493235443      0.3219264752      0.1046755132
O       1.2503512807      0.7585480515      0.2994976383
O       2.2600607141     -0.2289367470     -0.0587631380
C      -0.4203731492     -1.1528897338     -0.4333144411
C      -1.7743193534     -1.5888311082     -0.6258483707
C      -1.1270953064      1.4821505196      0.5900074610
H       0.4934870215     -1.8446242061     -0.5393610819
H      -2.5463648598     -0.8043189131     -0.3836505990
H      -2.0778317731     -2.6580652308     -0.8513252361
H      -0.6763932392      2.6081899563      1.4974348565
H      -2.2371773746      0.8598755132      1.2852920198
H      -1.3919173113      1.9556191754     -0.4862794569
12
Frame=409  time=205.000fs  energy=-306.20472619Ha  molecule=COOCCCHHHHHH
C      -0.0499339054      0.3214016044      0.1023291165
O       1.2529979948      0.7617160844      0.3001539301
O       2.2570334901     -0.2278443856     -0.0581165851
C      -0.4204685375     -1.1542178606     -0.4336910699
C      -1.7671630633     -1.5914624116     -0.6246047538
C      -1.1305749670      1.4840195500      0.5928572684
H       0.4676963804     -1.8575148098     -0.5466799751
H      -2.5538918522     -0.8093789439     -0.3863635084
H      -2.0838695685     -2.6606849453     -0.8695385989
H      -0.6646320009      2.5951799295      1.4927414296
H      -2.2394455477      0.8481424156      1.2847845542
H      -1.3914172731      1.9644721134     -0.4898436111
12
Frame=410  time=205.500fs  energy=-306.20534166Ha  molecule=COOCCCHHHHHH
C      -0.0502327488      0.3214802954      0.0999306692
O       1.2552046603      0.7644479758      0.3008066317
O       2.2542326560     -0.2266861777     -0.0574967505
C      -0.4208256542     -1.1557249966     -0.4339344856
C      -1.7595287580     -1.5936798135     -0.6230604339
C      -1.1342361420      1.4862626641      0.5960610642
H       0.4425689211     -1.8729136815     -0.5552187475
H      -2.5643550149     -0.8154358911     -0.3904696026
H      -2.0887578747     -2.6640056511     -0.8891886279
H      -0.6510261403      2.5794706382      1.4868057068
H      -2.2429439626      0.8356092402      1.2822544090
H      -1.3911432437      1.9724591825     -0.4943806902
12
Frame=411  time=206.000fs  energy=-306.20546762Ha  molecule=COOCCCHHHHHH
C      -0.0501640970      0.3221608762      0.0975036681
O       1.2568683363      0.7667164763      0.3014443098
O       2.2516888217     -0.2254635092     -0.0569038719
C      -0.4212690930     -1.1574227321     -0.4340539702
C      -1.7519095332     -1.5954601793     -0.6212660426
C      -1.1379792784      1.4887715078      0.5994018408
H       0.4192507880     -1.8905563455     -0.5649101276
H      -2.5764940917     -0.8234542387     -0.3957890509
H      -2.0910848037     -2.6668242575     -0.9099595894
H      -0.6362740053      2.5615334261      1.4802251502
H      -2.2482611124      0.8231524079      1.2787819134
H      -1.3905462182      1.9793576122     -0.4989261661
12
Frame=412  time=206.500fs  energy=-306.20516649Ha  molecule=COOCCCHHHHHH
C      -0.0497151596      0.3233910671      0.0950778396
O       1.2579201641      0.7685178519      0.3020554956
O       2.2494241697     -0.2241826047     -0.0563370478
C      -0.4215734071     -1.1593443553     -0.4340671423
C      -1.7447949990     -1.5968002261     -0.6192880030
C      -1.1417031924      1.4914090115      0.6026502089
H       0.3984707623     -1.9094751316     -0.5756220773
H      -2.5890318841     -0.8340908945     -0.4020637124
H      -2.0896870871     -2.6682303079     -0.9314736338
H      -0.6210911029      2.5421398003      1.4736637731
H      -2.2558563653      0.8117051492      1.2755460668
H      -1.3890899662      1.9850134320     -0.5025426137
12
Frame=413  time=207.000fs  energy=-306.20460801Ha  molecule=COOCCCHHHHHH
C      -0.0489186591      0.3250784736      0.0926870226
O       1.2583318866      0.7698696091      0.3026297273
O       2.2474514669     -0.2228532468     -0.0557944786
C      -0.4215037749     -1.1615331090     -0.4339977738
C      -1.7385801211     -1.5977119351     -0.6172008541
C      -1.1453198880      1.4940276905      0.6056260437
H       0.3805463392     -1.9282273115     -0.5871760207
H      -2.6009904140     -0.8473970443     -0.4089880548
H      -2.0839450104     -2.6679727660     -0.9533311353
H      -0.6061144615      2.5222658577      1.4677745520
H      -2.2658440105      0.8020910212      1.2734464216
H      -1.3864428007      1.9893783702     -0.5046140926
12
Frame=414  time=207.500fs  energy=-306.20392869Ha  molecule=COOCCCHHHHHH
C      -0.0478452497      0.3271056567      0.0903670393
O       1.2581131525      0.7708054002      0.3031581307
O       2.2457750465     -0.2214874209     -0.0552739875
C      -0.4208604501     -1.1640187593     -0.4338726678
C      -1.7335116034     -1.5982201201     -0.6150797327
C      -1.1487622170      1.4964886546      0.6082368869
H       0.3655381994     -1.9452952966     -0.5993683102
H      -2.6118577764     -0.8627403147     -0.4162406561
H      -2.0738824106     -2.6665501832     -0.9751447932
H      -0.5918666246      2.5029524386      1.4631388208
H      -2.2778948044      0.7949098974      1.2728527464
H      -1.3825807640      1.9925212981     -0.5050081143
12
Frame=415  time=208.000fs  energy=-306.20297325Ha  molecule=COOCCCHHHHHH
C      -0.0465917141      0.3293417802      0.0881539027
O       1.2573054876      0.7713696969      0.3036336238
O       2.2443919902     -0.2200977873     -0.0547734001
C      -0.4195114687     -1.1667991441     -0.4337191935
C      -1.7296802809     -1.5983596507     -0.6129951857
C      -1.1519838898      1.4986767907      0.6104821531
H       0.3534567310     -1.9594368126     -0.6119881515
H      -2.6215926112     -0.8789488559     -0.4235079332
H      -2.0600808558     -2.6650417169     -0.9965613485
H      -0.5787700700      2.4851711273      1.4602250355
H      -2.2912869956      0.7904992893      1.2735721710
H      -1.3777745452      1.9946137911     -0.5040553632
12
Frame=416  time=208.500fs  energy=-306.20248778Ha  molecule=COOCCCHHHHHH
C      -0.0454826184      0.3311186694      0.0860821629
O       1.2563294148      0.7715869928      0.3040509740
O       2.2431974273     -0.2185970123     -0.0542906948
C      -0.4172195527     -1.1704538883     -0.4335636548
C      -1.7276492594     -1.5975152926     -0.6110100855
C      -1.1549438508      1.5006394281      0.6124303298
H       0.3506290905     -1.9668682123     -0.6248311574
H      -2.6334375874     -0.8954009001     -0.4305003628
H      -2.0426481302     -2.6650422378     -1.0172740287
H      -0.5675833750      2.4703236996      1.4593622001
H      -2.3052967368      0.7892780196      1.2748160414
H      -1.3727153354      1.9962235715     -0.5022110854
12
Frame=417  time=209.000fs  energy=-306.20219168Ha  molecule=COOCCCHHHHHH
C      -0.0445666773      0.3324637450      0.0841862413
O       1.2551543039      0.7715154325      0.3044058519
O       2.2422097599     -0.2170258876     -0.0538244970
C      -0.4140660884     -1.1747204584     -0.4334297052
C      -1.7271207700     -1.5959312312     -0.6091804761
C      -1.1576209512      1.5022869954      0.6141800258
H       0.3555076574     -1.9682117379     -0.6377115980
H      -2.6469973297     -0.9104482876     -0.4369544241
H      -2.0228755171     -2.6677520864     -1.0370103714
H      -0.5585196206      2.4588386675      1.4607663430
H      -2.3188728680      0.7910797283      1.2758625626
H      -1.3678536065      1.9975094384     -0.5002798566
12
Frame=418  time=209.500fs  energy=-306.20184191Ha  molecule=COOCCCHHHHHH
C      -0.0437631463      0.3337273551      0.0825006990
O       1.2535441845      0.7712271900      0.3046945554
O       2.2415039570     -0.2154833093     -0.0533739960
C      -0.4103065464     -1.1789387239     -0.4333388602
C      -1.7273994649     -1.5942484602     -0.6075567410
C      -1.1600017756      1.5034817534      0.6158312736
H       0.3630244103     -1.9662949169     -0.6504605208
H      -2.6601353667     -0.9222196449     -0.4426295166
H      -2.0024866387     -2.6739055276     -1.0555251011
H      -0.5515519016      2.4505901302      1.4645458666
H      -2.3309314710      0.7954311263      1.2761117050
H      -1.3634532309      1.9984235904     -0.4991260771
12
Frame=419  time=210.000fs  energy=-306.20164596Ha  molecule=COOCCCHHHHHH
C      -0.0431557118      0.3348463640      0.0810592501
O       1.2515493562      0.7707715102      0.3049141032
O       2.2410778808     -0.2139878882     -0.0529387471
C      -0.4060932007     -1.1829258064     -0.4333110434
C      -1.7282625225     -1.5925902636     -0.6061830980
C      -1.1620653606      1.5042158007      0.6174633191
H       0.3731405068     -1.9618432269     -0.6629238273
H      -2.6728995911     -0.9299587298     -0.4473105841
H      -1.9823509354     -2.6839180733     -1.0726034833
H      -0.5469633827      2.4457293564      1.4706959696
H      -2.3407843546      0.8020359888      1.2749792613
H      -1.3598207749      1.9991458325     -0.4992861009
12
Frame=420  time=210.500fs  energy=-306.20155162Ha  molecule=COOCCCHHHHHH
C      -0.0428233509      0.3357657317      0.0798967511
O       1.2492220713      0.7701934063      0.3050615564
O       2.2409302677     -0.2125566637     -0.0525188136
C      -0.4016018332     -1.1864976965     -0.4333652483
C      -1.7295147890     -1.5910795853     -0.6051001321
C      -1.1637890678      1.5045013440      0.6191179717
H       0.3858817637     -1.9556968153     -0.6749584288
H      -2.6851129836     -0.9334743685     -0.4507987935
H      -1.9630626695     -2.6976099279     -1.0880453922
H      -0.5450267627      2.4442627081      1.4791271131
H      -2.3480159121      0.8105652528      1.2721385015
H      -1.3570765414      1.9998067499     -0.5010416791
12
Frame=421  time=211.000fs  energy=-306.20176035Ha  molecule=COOCCCHHHHHH
C      -0.0428918148      0.3354355872      0.0790506429
O       1.2466288852      0.7697821998      0.3051336888
O       2.2410416150     -0.2112808424     -0.0521147855
C      -0.3972434879     -1.1889835093     -0.4335203593
C      -1.7308457008     -1.5899900962     -0.6043467587
C      -1.1649834340      1.5043402598      0.6207917315
H       0.4012004810     -1.9480084425     -0.6864276238
H      -2.6948313085     -0.9324599945     -0.4529036853
H      -1.9444190166     -2.7145252076     -1.1016542975
H      -0.5474007433      2.4478132267      1.4896793581
H      -2.3529831728      0.8219997318      1.2669274559
H      -1.3556128880      2.0018030806     -0.5037497065
12
Frame=422  time=211.500fs  energy=-306.20210430Ha  molecule=COOCCCHHHHHH
C      -0.0434083686      0.3339709987      0.0785635282
O       1.2437932372      0.7694632954      0.3051265329
O       2.2413863251     -0.2100938044     -0.0517278880
C      -0.3931807924     -1.1902921210     -0.4337963597
C      -1.7321599920     -1.5894700830     -0.6039629240
C      -1.1655424065      1.5038012614      0.6224343231
H       0.4191453070     -1.9394524300     -0.6971935697
H      -2.7013907824     -0.9277490164     -0.4534316555
H      -1.9268144720     -2.7332937655     -1.1132215337
H      -0.5543788597      2.4564269970      1.5021345322
H      -2.3558546516      0.8355107248      1.2596752111
H      -1.3551492676      2.0046727817     -0.5071732117
12
Frame=423  time=212.000fs  energy=-306.20235822Ha  molecule=COOCCCHHHHHH
C      -0.0444102925      0.3324646927      0.0784858336
O       1.2406901615      0.7690351767      0.3050361601
O       2.2420094910     -0.2089516353     -0.0513623378
C      -0.3893812987     -1.1907552433     -0.4341177490
C      -1.7335518404     -1.5896075608     -0.6042996354
C      -1.1654719757      1.5029109213      0.6239380954
H       0.4399904275     -1.9307335529     -0.7071030117
H      -2.7050259300     -0.9209957455     -0.4508461559
H      -1.9113870612     -2.7517670398     -1.1212506535
H      -0.5648295735      2.4684429626      1.5162413782
H      -2.3566104695      0.8488923030      1.2516139232
H      -1.3548069841      2.0066586009     -0.5113850979
12
Frame=424  time=212.500fs  energy=-306.20267338Ha  molecule=COOCCCHHHHHH
C      -0.0460224382      0.3310396858      0.0788620587
O       1.2373681745      0.7687427212      0.3048600834
O       2.2430258484     -0.2080773666     -0.0510214834
C      -0.3859898077     -1.1902631817     -0.4344426124
C      -1.7349634436     -1.5905296547     -0.6055857341
C      -1.1648743136      1.5015975202      0.6251760828
H       0.4634306843     -1.9216989181     -0.7160276798
H      -2.7049860910     -0.9136049497     -0.4441413619
H      -1.8982628112     -2.7681636154     -1.1247562978
H      -0.5780714910      2.4826592459      1.5316349762
H      -2.3557967222      0.8618922710      1.2437219620
H      -1.3538901017      2.0079347421     -0.5158154582
12
Frame=425  time=213.000fs  energy=-306.20285321Ha  molecule=COOCCCHHHHHH
C      -0.0482128909      0.3296547984      0.0797216572
O       1.2339604846      0.7684938568      0.3045976787
O       2.2443773138     -0.2073826039     -0.0507046010
C      -0.3830899423     -1.1889050659     -0.4348779886
C      -1.7362378647     -1.5921619590     -0.6075472326
C      -1.1639006820      1.5000329672      0.6260468123
H       0.4878953714     -1.9126038592     -0.7238926243
H      -2.7014053300     -0.9072671591     -0.4344882282
H      -1.8866334119     -2.7812722053     -1.1248391798
H      -0.5935550466      2.4984249248      1.5477990338
H      -2.3542911755      0.8743874701      1.2369705121
H      -1.3518178631      2.0086858744     -0.5198552713
12
Frame=426  time=213.500fs  energy=-306.20297682Ha  molecule=COOCCCHHHHHH
C      -0.0509310914      0.3283476403      0.0810850331
O       1.2305507544      0.7681948412      0.3042504322
O       2.2460097809     -0.2067782206     -0.0504108588
C      -0.3807488417     -1.1867977894     -0.4355266222
C      -1.7372219818     -1.5944835810     -0.6099018682
C      -1.1626234341      1.4983676154      0.6264796976
H       0.5119532758     -1.9031831928     -0.7306509685
H      -2.6943795923     -0.9031662822     -0.4230972672
H      -1.8763222054     -2.7902045635     -1.1226464167
H      -0.6106753719      2.5153193115      1.5641708167
H      -2.3529850701      0.8859045522      1.2321417461
H      -1.3481874421      2.0088139216     -0.5229912263
12
Frame=427  time=214.000fs  energy=-306.20311416Ha  molecule=COOCCCHHHHHH
C      -0.0541307667      0.3272146554      0.0829680687
O       1.2271871030      0.7678314066      0.3038217142
O       2.2479082619     -0.2062484008     -0.0501414248
C      -0.3790181441     -1.1840517254     -0.4364100546
C      -1.7377601750     -1.5975038602     -0.6126106665
C      -1.1611114321      1.4966917317      0.6264470060
H       0.5344137056     -1.8928494996     -0.7362673068
H      -2.6841504598     -0.9018455395     -0.4101313403
H      -1.8677123450     -2.7946235393     -1.1183309359
H      -0.6285994347      2.5328157580      1.5802148521
H      -2.3525485513      0.8958336779      1.2296844036
H      -1.3428420925      2.0082510716     -0.5249576875
12
Frame=428  time=214.500fs  energy=-306.20316458Ha  molecule=COOCCCHHHHHH
C      -0.0576893789      0.3264775225      0.0853789039
O       1.2238265705      0.7673921836      0.3033165341
O       2.2500769361     -0.2057972729     -0.0498974865
C      -0.3779746987     -1.1806437779     -0.4375468493
C      -1.7375334365     -1.6013628315     -0.6156261457
C      -1.1594512844      1.4950665890      0.6259890939
H       0.5527488228     -1.8818281852     -0.7407299557
H      -2.6706552235     -0.9030705965     -0.3957942645
H      -1.8616237882     -2.7948252548     -1.1120885482
H      -0.6463091709      2.5502548711      1.5954117973
H      -2.3533275876      0.9034658728      1.2296214562
H      -1.3358670709      2.0069206113     -0.5258535083
12
Frame=429  time=215.000fs  energy=-306.20367102Ha  molecule=COOCCCHHHHHH
C      -0.0613672580      0.3265938342      0.0883185984
O       1.2202608058      0.7668753201      0.3027414108
O       2.2525600957     -0.2054707892     -0.0496803433
C      -0.3777655061     -1.1762689458     -0.4389525954
C      -1.7359476271     -1.6064746410     -0.6188942792
C      -1.1577452052      1.4934976224      0.6252133634
H       0.5619173523     -1.8719746409     -0.7440491992
H      -2.6528567846     -0.9057053242     -0.3803230770
H      -1.8594228284     -2.7915884267     -1.1041477655
H      -0.6625907522      2.5666966830      1.6092778532
H      -2.3552620945      0.9079391826      1.2315738821
H      -1.3275279603      2.0046642357     -0.5261733916
12
Frame=430  time=215.500fs  energy=-306.20409068Ha  molecule=COOCCCHHHHHH
C      -0.0651649979      0.3273800234      0.0917829583
O       1.2167010355      0.7662452300      0.3021041598
O       2.2552858276     -0.2051937570     -0.0494916033
C      -0.3782994753     -1.1713510081     -0.4406408618
C      -1.7331509624     -1.6124500770     -0.6223559633
C      -1.1560869788      1.4921486502      0.6242798308
H       0.5646873894     -1.8619225541     -0.7462526749
H      -2.6334689065     -0.9091825818     -0.3639826301
H      -1.8615366080     -2.7863955887     -1.0947598216
H      -0.6767679903      2.5818832558      1.6213731841
H      -2.3583028051      0.9087968097      1.2345451595
H      -1.3185833681      2.0017643405     -0.5264352370
12
Frame=431  time=216.000fs  energy=-306.20440124Ha  molecule=COOCCCHHHHHH
C      -0.0690629664      0.3286535510      0.0957552024
O       1.2133457390      0.7654674941      0.3014147768
O       2.2581799901     -0.2048913401     -0.0493328679
C      -0.3794660905     -1.1662842935     -0.4426194787
C      -1.7293443597     -1.6188955778     -0.6259448626
C      -1.1545684224      1.4911807784      0.6233787835
H       0.5641596947     -1.8508426382     -0.7474007756
H      -2.6152426068     -0.9127250394     -0.3470768698
H      -1.8682450698     -2.7808645092     -1.0842160595
H      -0.6883030127      2.5954932093      1.6313403807
H      -2.3622106347      0.9056858766      1.2372962767
H      -1.3099162091      1.9985293409     -0.5272849183
12
Frame=432  time=216.500fs  energy=-306.20471363Ha  molecule=COOCCCHHHHHH
C      -0.0729350978      0.3304544972      0.1002024710
O       1.2102275748      0.7645231685      0.3006855746
O       2.2612072066     -0.2045333712     -0.0492055860
C      -0.3812057070     -1.1611681691     -0.4448883640
C      -1.7245705737     -1.6256985134     -0.6295884724
C      -1.1532744539      1.4906893582      0.6226925186
H       0.5610888918     -1.8396811437     -0.7475921794
H      -2.5994589122     -0.9153373461     -0.3299452115
H      -1.8797850318     -2.7762542024     -1.0728467716
H      -0.6967115085      2.6069067424      1.6389435596
H      -2.3665978303      0.8983222047      1.2386822858
H      -1.3022837861      1.9951230803     -0.5293913910
12
Frame=433  time=217.000fs  energy=-306.20505919Ha  molecule=COOCCCHHHHHH
C      -0.0766502799      0.3328078301      0.1050782652
O       1.2073706393      0.7633988790      0.2999306834
O       2.2643307703     -0.2040921759     -0.0491112389
C      -0.3834203214     -1.1560886159     -0.4474407554
C      -1.7190102831     -1.6327431764     -0.6332104959
C      -1.1522725664      1.4907550338      0.6223552670
H       0.5564784896     -1.8296312435     -0.7469561775
H      -2.5869708051     -0.9165189912     -0.3129522790
H      -1.8958081592     -2.7732162441     -1.0610072777
H      -0.7017619364      2.6155113092      1.6440772849
H      -2.3711937875      0.8866924425      1.2378453520
H      -1.2962598634      1.9916759630     -0.5331781300
12
Frame=434  time=217.500fs  energy=-306.20540285Ha  molecule=COOCCCHHHHHH
C      -0.0800617434      0.3360400805      0.1103238054
O       1.2047877096      0.7620091805      0.2991657968
O       2.2675203545     -0.2035196501     -0.0490514533
C      -0.3858937017     -1.1512928026     -0.4502640420
C      -1.7130405893     -1.6398634738     -0.6367320745
C      -1.1516641153      1.4914450723      0.6224227176
H       0.5514056708     -1.8220672857     -0.7456476505
H      -2.5785436859     -0.9166870638     -0.2964824014
H      -1.9154801529     -2.7715306641     -1.0490709577
H      -0.7030044013      2.6202140359      1.6467686604
H      -2.3758241924      0.8706752058      1.2346340950
H      -1.2919603484      1.9878399123     -0.5388847171
12
Frame=435  time=218.000fs  energy=-306.20559815Ha  molecule=COOCCCHHHHHH
C      -0.0830408640      0.3402452899      0.1158677128
O       1.2024889651      0.7603298675      0.2984080639
O       2.2707420871     -0.2027881620     -0.0490279413
C      -0.3884047701     -1.1469484353     -0.4533392727
C      -1.7071320530     -1.6469191143     -0.6400732272
C      -1.1514982047      1.4927910556      0.6228572927
H       0.5467822599     -1.8178768882     -0.7438454504
H      -2.5740761986     -0.9167732248     -0.2809323306
H      -1.9372952383     -2.7703807833     -1.0374244869
H      -0.7004800209      2.6204332535      1.6471834636
H      -2.3807181626      0.8507669278      1.2293782969
H      -1.2892325541      1.9834780761     -0.5461700048
12
Frame=436  time=218.500fs  energy=-306.20538791Ha  molecule=COOCCCHHHHHH
C      -0.0855113579      0.3448501608      0.1216255923
O       1.2004880041      0.7585066753      0.2976756587
O       2.2739509745     -0.2019245681     -0.0490422059
C      -0.3908288644     -1.1429448677     -0.4566393348
C      -1.7017231899     -1.6538569651     -0.6431570572
C      -1.1517020256      1.4947662460      0.6235360271
H       0.5431421418     -1.8168870535     -0.7417500875
H      -2.5721089486     -0.9176538664     -0.2666893305
H      -1.9591065951     -2.7688472912     -1.0264535144
H      -0.6952853295      2.6169443055      1.6456366530
H      -2.3866525968      0.8286370652      1.2225761656
H      -1.2878814547      1.9792413855     -0.5539067836
12
Frame=437  time=219.000fs  energy=-306.20480323Ha  molecule=COOCCCHHHHHH
C      -0.0874108171      0.3497068104      0.1275033643
O       1.1987860350      0.7565846097      0.2969865599
O       2.2771150215     -0.2009298461     -0.0490951516
C      -0.3929186070     -1.1394236007     -0.4601277852
C      -1.6972929063     -1.6605504236     -0.6459178170
C      -1.1522618680      1.4973047762      0.6242868281
H       0.5406179272     -1.8184829879     -0.7395728974
H      -2.5717250659     -0.9204644307     -0.2540888706
H      -1.9790768015     -2.7660595348     -1.0165098164
H      -0.6879769329      2.6100979326      1.6425841329
H      -2.3942459729      0.8055856447      1.2153584646
H      -1.2872782537      1.9751548662     -0.5611000943
12
Frame=438  time=219.500fs  energy=-306.20401844Ha  molecule=COOCCCHHHHHH
C      -0.0887214467      0.3546506780      0.1334059710
O       1.1973801531      0.7546170620      0.2963571534
O       2.2802082628     -0.1998127499     -0.0491870154
C      -0.3944539787     -1.1365257923     -0.4637616006
C      -1.6941963545     -1.6668787935     -0.6483075231
C      -1.1531549277      1.5002987100      0.6249443793
H       0.5390075226     -1.8215365047     -0.7375165144
H      -2.5721560413     -0.9258976329     -0.2433792749
H      -1.9958155256     -2.7617151906     -1.0078779995
H      -0.6791275364      2.6005731483      1.6385676728
H      -2.4039365698      0.7829465692      1.2088224019
H      -1.2867839681      1.9712502900     -0.5668914336
12
Frame=439  time=220.000fs  energy=-306.20322352Ha  molecule=COOCCCHHHHHH
C      -0.0894649621      0.3595212877      0.1392457711
O       1.1962661381      0.7526596886      0.2958014577
O       2.2832116217     -0.1985872687     -0.0493175211
C      -0.3952835481     -1.1343632506     -0.4674957019
C      -1.6926158283     -1.6727388373     -0.6502977385
C      -1.1543568623      1.5036174716      0.6253973868
H       0.5379793093     -1.8248122626     -0.7357587833
H      -2.5729810520     -0.9340151032     -0.2347111422
H      -2.0085641807     -2.7561946426     -1.0007611788
H      -0.6692608596      2.5892468889      1.6341447219
H      -2.4158108401      0.7619004111      1.2037127288
H      -1.2859299515      1.9675858528     -0.5707837945
12
Frame=440  time=220.500fs  energy=-306.20242189Ha  molecule=COOCCCHHHHHH
C      -0.0896895022      0.3641746668      0.1449468613
O       1.1954408713      0.7507663932      0.2953312466
O       2.2861120639     -0.1972699021     -0.0494861812
C      -0.3953427765     -1.1330011126     -0.4712867587
C      -1.6925667232     -1.6780517798     -0.6518765021
C      -1.1558460356      1.5071277546      0.6256083852
H       0.5372578112     -1.8273068885     -0.7344465928
H      -2.5741639896     -0.9442963334     -0.2281519551
H      -2.0171554292     -2.7504268792     -0.9952891061
H      -0.6588354797      2.5770448306      1.6298342999
H      -2.4295665698      0.7433811174      1.2002849217
H      -1.2845012103      1.9642549682     -0.5727101096
12
Frame=441  time=221.000fs  energy=-306.20185604Ha  molecule=COOCCCHHHHHH
C      -0.0896009731      0.3681297429      0.1504455704
O       1.1951405711      0.7489699075      0.2949565608
O       2.2888370823     -0.1958111751     -0.0496925572
C      -0.3945249432     -1.1328699249     -0.4750949518
C      -1.6943393896     -1.6823246829     -0.6530441378
C      -1.1575957551      1.5107930174      0.6256077612
H       0.5408943094     -1.8263927361     -0.7336973155
H      -2.5779363978     -0.9563651265     -0.2237068464
H      -2.0212892278     -2.7458100132     -0.9915341091
H      -0.6485355750      2.5652378820      1.6260898391
H      -2.4447367726      0.7282880469      1.1982204684
H      -1.2826751398      1.9616013821     -0.5728508093
12
Frame=442  time=221.500fs  energy=-306.20173948Ha  molecule=COOCCCHHHHHH
C      -0.0892446357      0.3711419929      0.1556814139
O       1.1954475615      0.7472058631      0.2946872345
O       2.2913117087     -0.1941139110     -0.0499343373
C      -0.3928792010     -1.1340692980     -0.4789720981
C      -1.6977830129     -1.6853741788     -0.6535187880
C      -1.1596159425      1.5146038431      0.6254871489
H       0.5493263766     -1.8218229238     -0.7336270899
H      -2.5854042227     -0.9693717788     -0.2225968501
H      -2.0209173149     -2.7438073930     -0.9907289181
H      -0.6388930138      2.5548012896      1.6232529989
H      -2.4606059716      0.7172901639      1.1969735011
H      -1.2806858571      1.9598548431     -0.5717370192
12
Frame=443  time=222.000fs  energy=-306.20160742Ha  molecule=COOCCCHHHHHH
C      -0.0884821312      0.3735591061      0.1606029726
O       1.1960684866      0.7455145767      0.2945338806
O       2.2935975107     -0.1922518240     -0.0502123277
C      -0.3907034619     -1.1360090553     -0.4828820837
C      -1.7021277784     -1.6877470835     -0.6533131613
C      -1.1619055221      1.5183788388      0.6253498060
H       0.5572035575     -1.8165290568     -0.7343244670
H      -2.5946011842     -0.9815381629     -0.2247690793
H      -2.0171685027     -2.7453938377     -0.9928875943
H      -0.6299916697      2.5458786893      1.6216527640
H      -2.4760840778      0.7105030820      1.1960438856
H      -1.2786323496      1.9589161663     -0.5702001636
12
Frame=444  time=222.500fs  energy=-306.20153766Ha  molecule=COOCCCHHHHHH
C      -0.0874303041      0.3754181174      0.1651699591
O       1.1969426888      0.7440949361      0.2945068618
O       2.2957731918     -0.1903849642     -0.0505301156
C      -0.3882048520     -1.1384940696     -0.4866991681
C      -1.7071364284     -1.6895947765     -0.6527431655
C      -1.1643979628      1.5219233032      0.6252923866
H       0.5650678600     -1.8107480193     -0.7358445342
H      -2.6054305192     -0.9916634292     -0.2288554779
H      -2.0111361049     -2.7511739391     -0.9967703183
H      -0.6221375091      2.5387255113      1.6215923529
H      -2.4901844011      0.7079887337      1.1947727602
H      -1.2767867500      1.9588496358     -0.5689505087
12
Frame=445  time=223.000fs  energy=-306.20162129Ha  molecule=COOCCCHHHHHH
C      -0.0861493841      0.3766699282      0.1693421317
O       1.1980596981      0.7429993309      0.2946165228
O       2.2978428010     -0.1885384905     -0.0508892405
C      -0.3855967766     -1.1413765738     -0.4903877594
C      -1.7125376175     -1.6909902634     -0.6518403537
C      -1.1670546736      1.5251673932      0.6254150229
H       0.5730430565     -1.8052807523     -0.7382462356
H      -2.6180356836     -0.9990843349     -0.2347125248
H      -2.0032226125     -2.7614622350     -1.0023113829
H      -0.6157758258      2.5336574359      1.6232508112
H      -2.5021206164      0.7098661872      1.1925716649
H      -1.2753985685      1.9597669868     -0.5686305002
12
Frame=446  time=223.500fs  energy=-306.20175037Ha  molecule=COOCCCHHHHHH
C      -0.0847014737      0.3772695556      0.1730812525
O       1.1994122805      0.7422796656      0.2948741509
O       2.2998099127     -0.1867364077     -0.0512918223
C      -0.3831000623     -1.1445034398     -0.4939126314
C      -1.7180936494     -1.6920189236     -0.6506388111
C      -1.1698277657      1.5280553682      0.6257914955
H       0.5812547019     -1.8009620745     -0.7415809031
H      -2.6323277149     -1.0035951683     -0.2421834646
H      -1.9936105102     -2.7760162524     -1.0094373145
H      -0.6113673755      2.5308753643      1.6267304458
H      -2.5112982755      0.7161923168      1.1890543631
H      -1.2746071004      1.9617471586     -0.5697177540
12
Frame=447  time=224.000fs  energy=-306.20240663Ha  molecule=COOCCCHHHHHH
C      -0.0832231236      0.3757415642      0.1763488286
O       1.2010163300      0.7423442981      0.2952927921
O       2.3016485066     -0.1851095302     -0.0517407531
C      -0.3812559672     -1.1470202150     -0.4972377315
C      -1.7233876699     -1.6929896346     -0.6491749576
C      -1.1724256283      1.5305065613      0.6264577528
H       0.5896538773     -1.7975837031     -0.7458960499
H      -2.6457846654     -1.0045317489     -0.2510999253
H      -1.9815094463     -2.7944685978     -1.0180714113
H      -0.6113872357      2.5329446180      1.6320552403
H      -2.5180496426      0.7288732581      1.1831979491
H      -1.2750729562      1.9667152318     -0.5715373839
12
Frame=448  time=224.500fs  energy=-306.20336083Ha  molecule=COOCCCHHHHHH
C      -0.0817670595      0.3723316076      0.1790997381
O       1.2028680700      0.7431801167      0.2958895007
O       2.3033655414     -0.1836594534     -0.0522401892
C      -0.3802100922     -1.1489378247     -0.5003227614
C      -1.7283005352     -1.6939554882     -0.6474870167
C      -1.1748308036      1.5324871512      0.6274064123
H       0.5981016982     -1.7958617782     -0.7512457895
H      -2.6582180999     -1.0028688780     -0.2612867023
H      -1.9668197282     -2.8154558430     -1.0281449430
H      -0.6158767501      2.5394286993      1.6391765868
H      -2.5221457682      0.7475398561      1.1754129281
H      -1.2764479573      1.9742763937     -0.5742449005
12
Frame=449  time=225.000fs  energy=-306.20415053Ha  molecule=COOCCCHHHHHH
C      -0.0803376110      0.3683567558      0.1812889757
O       1.2049482858      0.7445103001      0.2966835802
O       2.3049892393     -0.1823070050     -0.0527950858
C      -0.3798487373     -1.1508140920     -0.5031253482
C      -1.7328969902     -1.6948142970     -0.6456211203
C      -1.1771914710      1.5339981489      0.6285779554
H       0.6062212850     -1.7968257990     -0.7576746842
H      -2.6707932745     -1.0007414143     -0.2725292962
H      -1.9499138380     -2.8368999094     -1.0395694396
H      -0.6232911802      2.5480044237      1.6479287377
H      -2.5231929857      0.7703298603      1.1671709521
H      -1.2776648776      1.9825624061     -0.5783420244
12
Frame=450  time=225.500fs  energy=-306.20474244Ha  molecule=COOCCCHHHHHH
C      -0.0790002053      0.3639609241      0.1828872832
O       1.2072456339      0.7463406021      0.2976916735
O       2.3065257056     -0.1810583789     -0.0534100622
C      -0.3802793130     -1.1526482905     -0.5056085202
C      -1.7370715855     -1.6956442070     -0.6436362193
C      -1.1794566442      1.5350304244      0.6298619927
H       0.6132175570     -1.8001563255     -0.7651859234
H      -2.6827336456     -0.9997303327     -0.2845434633
H      -1.9306787447     -2.8569606793     -1.0521996806
H      -0.6335354209      2.5583045747      1.6579805418
H      -2.5217700243      0.7967296452      1.1595067515
H      -1.2780559886      1.9911989251     -0.5832234496
12
Frame=451  time=226.000fs  energy=-306.20509215Ha  molecule=COOCCCHHHHHH
C      -0.0778107773      0.3593202936      0.1838878033
O       1.2097354836      0.7486540147      0.2989253663
O       2.3079830397     -0.1799122748     -0.0540888848
C      -0.3815411276     -1.1544740752     -0.5077451248
C      -1.7407224266     -1.6965134569     -0.6416019125
C      -1.1815835904      1.5355975006      0.6311244809
H       0.6180437213     -1.8050337337     -0.7737292315
H      -2.6933526727     -1.0012947192     -0.2969826475
H      -1.9093348499     -2.8741097510     -1.0658306479
H      -0.6461871027      2.5698772274      1.6688499646
H      -2.5187410636      0.8259423451      1.1535655539
H      -1.2769249052      1.9997487421     -0.5880935097
12
Frame=452  time=226.500fs  energy=-306.20522826Ha  molecule=COOCCCHHHHHH
C      -0.0768069723      0.3546272446      0.1843067856
O       1.2123784543      0.7514121855      0.3003904469
O       2.3093701316     -0.1788597350     -0.0548342813
C      -0.3836088903     -1.1563380345     -0.5095198049
C      -1.7437395447     -1.6974766473     -0.6395936469
C      -1.1835448562      1.5357335590      0.6322496054
H       0.6196237466     -1.8104066458     -0.7832016519
H      -2.7022577672     -1.0063725853     -0.3094609334
H      -1.8865465550     -2.8875110245     -1.0802105951
H      -0.6605116885      2.5822326164      1.6799556716
H      -2.5150321834      0.8569144492      1.1502833299
H      -1.2737386219      2.0077782594     -0.5921935252
12
Frame=453  time=227.000fs  energy=-306.20516422Ha  molecule=COOCCCHHHHHH
C      -0.0760040840      0.3500743135      0.1841802558
O       1.2151218713      0.7545599122      0.3020873343
O       2.3106952806     -0.1778850442     -0.0556479371
C      -0.3864078085     -1.1582727291     -0.5109288842
C      -1.7460028835     -1.6985764208     -0.6376878908
C      -1.1853306825      1.5354897990      0.6331791570
H       0.6171074664     -1.8153441544     -0.7934561108
H      -2.7094689011     -1.0151347207     -0.3215782056
H      -1.8634114701     -2.8971844552     -1.0950596969
H      -0.6755513541      2.5948686801      1.6906793801
H      -2.5113926099      0.8883946096      1.1501015349
H      -1.2682895575      2.0149192062     -0.5950218196
12
Frame=454  time=227.500fs  energy=-306.20485138Ha  molecule=COOCCCHHHHHH
C      -0.0753958503      0.3458414219      0.1835604304
O       1.2179034009      0.7580293497      0.3040114052
O       2.3119652206     -0.1769668451     -0.0565304445
C      -0.3898287781     -1.1602756088     -0.5119799134
C      -1.7473965910     -1.6998484510     -0.6359579049
C      -1.1869462748      1.5349317506      0.6339341081
H       0.6100807893     -1.8193259676     -0.8043108047
H      -2.7154198469     -1.0269536177     -0.3329428083
H      -1.8413286542     -2.9039214410     -1.1100866462
H      -0.6902551708      2.6072697587      1.7004241154
H      -2.5082375895      0.9190114156      1.1528162617
H      -1.2607771894      2.0209099638     -0.5964686620
12
Frame=455  time=228.000fs  energy=-306.20429194Ha  molecule=COOCCCHHHHHH
C      -0.0749230138      0.3421718823      0.1825130736
O       1.2205981306      0.7617478752      0.3061526493
O       2.3132004552     -0.1760957660     -0.0574810963
C      -0.3937702568     -1.1621981733     -0.5126917294
C      -1.7477397266     -1.7014352837     -0.6344690581
C      -1.1884065202      1.5341154824      0.6346095213
H       0.5976627549     -1.8228862648     -0.8155588510
H      -2.7203634553     -1.0404440013     -0.3431965687
H      -1.8218964698     -2.9089496507     -1.1250045335
H      -0.7035628118      2.6188000928      1.7086706787
H      -2.5055873810      0.9473333932      1.1576526028
H      -1.2517470465      2.0255598243     -0.5968572800
12
Frame=456  time=228.500fs  energy=-306.20355803Ha  molecule=COOCCCHHHHHH
C      -0.0745439631      0.3392009539      0.1811130494
O       1.2231319117      0.7656350565      0.3084958528
O       2.3144064165     -0.1752463846     -0.0584977455
C      -0.3980899871     -1.1639406737     -0.5130934619
C      -1.7470027569     -1.7033910826     -0.6332742501
C      -1.1897230290      1.5331209293      0.6353434116
H       0.5803565622     -1.8266574803     -0.8269828412
H      -2.7250450948     -1.0540574237     -0.3520408098
H      -1.8063644181     -2.9135829420     -1.1395494502
H      -0.7146692936      2.6288973720      1.7150263914
H      -2.5032403196      0.9721164674      1.1634526213
H      -1.2420279974      2.0288386423     -0.5967689005
12
Frame=457  time=229.000fs  energy=-306.20275426Ha  molecule=COOCCCHHHHHH
C      -0.0742642186      0.3368919485      0.1794379580
O       1.2255249405      0.7696060423      0.3110218256
O       2.3155634900     -0.1743689745     -0.0595768961
C      -0.4025921228     -1.1655390433     -0.5132218684
C      -1.7453959382     -1.7056097086     -0.6324110836
C      -1.1908954985      1.5320572633      0.6362732587
H       0.5605461860     -1.8308285275     -0.8383725702
H      -2.7307677529     -1.0665964323     -0.3592548718
H      -1.7952940285     -2.9188344488     -1.1534975129
H      -0.7231552170      2.6371752781      1.7192527446
H      -2.5009664988      0.9924754382      1.1689918266
H      -1.2325641507      2.0308797252     -0.5968230355
12
Frame=458  time=229.500fs  energy=-306.20183448Ha  molecule=COOCCCHHHHHH
C      -0.0740457050      0.3352764174      0.1775613622
O       1.2277353632      0.7735892059      0.3137096415
O       2.3166702987     -0.1734362255     -0.0607141557
C      -0.4071181452     -1.1669096618     -0.5131171617
C      -1.7430982693     -1.7081152580     -0.6319024853
C      -1.1919146387      1.5309964014      0.6374987935
H       0.5394581283     -1.8362136783     -0.8495399641
H      -2.7378874144     -1.0771880433     -0.3646971366
H      -1.7888374728     -2.9250637406     -1.1666726999
H      -0.7288048221      2.6431998639      1.7212603222
H      -2.4985584845      1.0078013371      1.1733446014
H      -1.2241312151      2.0317879988     -0.5975605583
12
Frame=459  time=230.000fs  energy=-306.20164429Ha  molecule=COOCCCHHHHHH
C      -0.0737642403      0.3361253517      0.1755476108
O       1.2297044188      0.7770851692      0.3165395266
O       2.3177602315     -0.1722910840     -0.0619050746
C      -0.4111122058     -1.1688621658     -0.5128183342
C      -1.7406257476     -1.7106602060     -0.6317618345
C      -1.1930515728      1.5300378292      0.6390644780
H       0.5182947558     -1.8445825953     -0.8603232983
H      -2.7490196125     -1.0867392524     -0.3682814830
H      -1.7875830788     -2.9315103526     -1.1789393879
H      -0.7291215946      2.6436039516      1.7210679133
H      -2.4951222205      1.0154531712      1.1771108545
H      -1.2164394140      2.0293305554     -0.6004129483
12
Frame=460  time=230.500fs  energy=-306.20175379Ha  molecule=COOCCCHHHHHH
C      -0.0734196198      0.3388281475      0.1734497669
O       1.2314066498      0.7801914146      0.3194961994
O       2.3188168271     -0.1709556800     -0.0631463434
C      -0.4145495935     -1.1710562949     -0.5123584230
C      -1.7381638118     -1.7133506352     -0.6320053671
C      -1.1941777827      1.5292066674      0.6409646384
H       0.4979018175     -1.8558419024     -0.8705700109
H      -2.7628795508     -1.0950038172     -0.3699147290
H      -1.7906587870     -2.9377315216     -1.1901674804
H      -0.7250243031      2.6391328215      1.7187213950
H      -2.4910627990      1.0160417636      1.1797295235
H      -1.2101207314      2.0243591359     -0.6050283804
12
Frame=461  time=231.000fs  energy=-306.20185864Ha  molecule=COOCCCHHHHHH
C      -0.0730525802      0.3420138700      0.1713142980
O       1.2328260908      0.7831959999      0.3225671431
O       2.3198066583     -0.1695080243     -0.0644354248
C      -0.4175621051     -1.1728079327     -0.5117673798
C      -1.7358100864     -1.7163960573     -0.6326520882
C      -1.1950345490      1.5284949744      0.6431426437
H       0.4788615338     -1.8690303533     -0.8801268412
H      -2.7767905822     -1.1015652129     -0.3694958117
H      -1.7966560158     -2.9432762545     -1.2002247767
H      -0.7185367906      2.6318841823      1.7142999389
H      -2.4873142539      1.0112814629      1.1804955519
H      -1.2059644270      2.0186744961     -0.6103045875
12
Frame=462  time=231.500fs  energy=-306.20200362Ha  molecule=COOCCCHHHHHH
C      -0.0726442855      0.3455402385      0.1691847833
O       1.2339328513      0.7860817823      0.3257400773
O       2.3207207477     -0.1679326371     -0.0657701204
C      -0.4199935473     -1.1740857016     -0.5110616467
C      -1.7338639408     -1.7197976725     -0.6337622255
C      -1.1955685353      1.5279083324      0.6454872079
H       0.4615897208     -1.8835671116     -0.8888443425
H      -2.7897775656     -1.1070840748     -0.3667546889
H      -1.8047089006     -2.9472689854     -1.2088056098
H      -0.7099929381      2.6219587982      1.7079661723
H      -2.4843565238      1.0014310504      1.1798350839
H      -1.2039504453      2.0124170647     -0.6156750218
12
Frame=463  time=232.000fs  energy=-306.20217321Ha  molecule=COOCCCHHHHHH
C      -0.0721800510      0.3492571773      0.1671024243
O       1.2347030145      0.7888331537      0.3290021606
O       2.3215501930     -0.1662140236     -0.0671483391
C      -0.4216938663     -1.1749018701     -0.5102409306
C      -1.7326044858     -1.7235287622     -0.6354470667
C      -1.1957358174      1.5274326161      0.6478437749
H       0.4462828160     -1.8984757726     -0.8965815592
H      -2.8008355528     -1.1122977308     -0.3612123322
H      -1.8139657481     -2.9489921338     -1.2153858356
H      -0.6997606463      2.6096187338      1.6999805176
H      -2.4827266043      0.9869321118      1.1784340125
H      -1.2038665472      2.0057128272     -0.6203860537
12
Frame=464  time=232.500fs  energy=-306.20238457Ha  molecule=COOCCCHHHHHH
C      -0.0716260813      0.3530479682      0.1650999219
O       1.2350874146      0.7913365496      0.3323399602
O       2.3222462848     -0.1642466008     -0.0685653534
C      -0.4225475557     -1.1753172883     -0.5093856137
C      -1.7322648764     -1.7275863997     -0.6375493008
C      -1.1953852334      1.5270692952      0.6500519098
H       0.4331461955     -1.9124381139     -0.9032307476
H      -2.8088500824     -1.1177205148     -0.3535638468
H      -1.8239948585     -2.9479518096     -1.2205422647
H      -0.6885447149      2.5958165071      1.6906516217
H      -2.4830154129      0.9680420638      1.1770285698
H      -1.2054170576      1.9982443384     -0.6235748019
12
Frame=465  time=233.000fs  energy=-306.20267557Ha  molecule=COOCCCHHHHHH
C      -0.0709823113      0.3567539818      0.1632085375
O       1.2350815016      0.7935859629      0.3357395580
O       2.3228033696     -0.1620212831     -0.0700171582
C      -0.4224779159     -1.1753986881     -0.5085305299
C      -1.7329815925     -1.7318902599     -0.6400537129
C      -1.1945128381      1.5267622392      0.6519505495
H       0.4221848988     -1.9241730350     -0.9086933240
H      -2.8132105229     -1.1236942107     -0.3439035596
H      -1.8342788670     -2.9442303185     -1.2242566978
H      -0.6767070924      2.5811308289      1.6803892395
H      -2.4855633647      0.9455351084      1.1763782207
H      -1.2082061147      1.9901499917     -0.6244950333
12
Frame=466  time=233.500fs  energy=-306.20301919Ha  molecule=COOCCCHHHHHH
C      -0.0702811929      0.3601805732      0.1614554920
O       1.2347224975      0.7956730491      0.3391867359
O       2.3232548269     -0.1596166299     -0.0714992105
C      -0.4214645484     -1.1752026802     -0.5077110916
C      -1.7347762897     -1.7362955051     -0.6429373470
C      -1.1932501830      1.5264037789      0.6534108114
H       0.4133370169     -1.9326303694     -0.9128877588
H      -2.8138799206     -1.1302540980     -0.3323724461
H      -1.8442896454     -2.9385119501     -1.2265354456
H      -0.6643025377      2.5657906670      1.6696703827
H      -2.4903748423      0.9206415501      1.1770908370
H      -1.2118290943      1.9819831855     -0.6226524269
12
Frame=467  time=234.000fs  energy=-306.20335235Ha  molecule=COOCCCHHHHHH
C      -0.0695409719      0.3631734858      0.1598636017
O       1.2340266869      0.7975955808      0.3426668254
O       2.3235961059     -0.1570254368     -0.0730062863
C      -0.4195738326     -1.1747867434     -0.5069632116
C      -1.7375637021     -1.7407009673     -0.6461686148
C      -1.1916288690      1.5259081241      0.6543590140
H       0.4068633800     -1.9370138869     -0.9157528865
H      -2.8110042449     -1.1368650097     -0.3191628901
H      -1.8540411886     -2.9318219895     -1.2274122887
H      -0.6517248120      2.5506237886      1.6590316031
H      -2.4971651454      0.8942600554      1.1793795419
H      -1.2160951208      1.9739722503     -0.6178240920
12
Frame=468  time=234.500fs  energy=-306.20355805Ha  molecule=COOCCCHHHHHH
C      -0.0687907195      0.3655890140      0.1584499949
O       1.2330234414      0.7993551057      0.3461645947
O       2.3238247933     -0.1542442177     -0.0745323383
C      -0.4169609807     -1.1741859378     -0.5063222394
C      -1.7411425697     -1.7450100363     -0.6497055326
C      -1.1896968242      1.5251833606      0.6547931760
H       0.4032357824     -1.9370326634     -0.9172583699
H      -2.8051410015     -1.1425712523     -0.3045277184
H      -1.8637445489     -2.9254928132     -1.2269553998
H      -0.6394230982      2.5364969701      1.6490514153
H      -2.5052461634      0.8673133227      1.1830412878
H      -1.2210054343      1.9664078460     -0.6102085931
12
Frame=469  time=235.000fs  energy=-306.20354442Ha  molecule=COOCCCHHHHHH
C      -0.0680697070      0.3673074472      0.1572240732
O       1.2317552864      0.8009580503      0.3496645074
O       2.3239422754     -0.1512756813     -0.0760705242
C      -0.4138643588     -1.1734095969     -0.5058204124
C      -1.7452181704     -1.7491432862     -0.6534947092
C      -1.1875132924      1.5241426061      0.6547847832
H       0.4030897681     -1.9329887267     -0.9174201263
H      -2.7971744595     -1.1461801314     -0.2887845570
H      -1.8736804634     -2.9208894195     -1.2252737792
H      -0.6279190877      2.5242161884      1.6403100557
H      -2.5135816147      0.8407070343      1.1874930356
H      -1.2267397880      1.9596202272     -0.6004385490
12
Frame=470  time=235.500fs  energy=-306.20322481Ha  molecule=COOCCCHHHHHH
C      -0.0674844083      0.3680578366      0.1561863894
O       1.2303700192      0.8024197403      0.3531514577
O       2.3239282558     -0.1481068226     -0.0776135187
C      -0.4105346318     -1.1725921539     -0.5054839872
C      -1.7496092339     -1.7528779882     -0.6574735811
C      -1.1851297584      1.5227498038      0.6544583135
H       0.4087576830     -1.9248541441     -0.9163086008
H      -2.7888301609     -1.1467714330     -0.2723028802
H      -1.8837816270     -2.9191319812     -1.2225135198
H      -0.6179680414      2.5146586029      1.6333304503
H      -2.5210480664      0.8154227405      1.1918643499
H      -1.2336550557      1.9540792494     -0.5893794996
12
Frame=471  time=236.000fs  energy=-306.20348670Ha  molecule=COOCCCHHHHHH
C      -0.0671584290      0.3661500748      0.1553305841
O       1.2289264662      0.8041704313      0.3566114039
O       2.3237646024     -0.1448850084     -0.0791539104
C      -0.4076586885     -1.1708591705     -0.5053328972
C      -1.7537114542     -1.7564734519     -0.6615760148
C      -1.1823277317      1.5209094168      0.6539534845
H       0.4203590582     -1.9127480592     -0.9140370009
H      -2.7782926491     -1.1424884348     -0.2554758105
H      -1.8931597132     -2.9211373067     -1.2188384789
H      -0.6125170292      2.5110818631      1.6285367306
H      -2.5272792341      0.7943799347      1.1943328444
H      -1.2427862961      1.9522450291     -0.5769974449
12
Frame=472  time=236.500fs  energy=-306.20383876Ha  molecule=COOCCCHHHHHH
C      -0.0670510994      0.3625206934      0.1546488819
O       1.2273739810      0.8060231347      0.3600304766
O       2.3235045758     -0.1415914205     -0.0806840421
C      -0.4053719809     -1.1684547644     -0.5053857954
C      -1.7572412501     -1.7599553136     -0.6657365037
C      -1.1792906693      1.5185770499      0.6533894956
H       0.4367369614     -1.8989713787     -0.9107284532
H      -2.7665954527     -1.1335892492     -0.2387046169
H      -1.9020757602     -2.9263404333     -1.2144048078
H      -0.6109443911      2.5121877184      1.6262763883
H      -2.5308598409      0.7770800556      1.1949243061
H      -1.2538241023      1.9531612486     -0.5647726069
12
Frame=473  time=237.000fs  energy=-306.20415419Ha  molecule=COOCCCHHHHHH
C      -0.0671575965      0.3583482184      0.1541319950
O       1.2257357476      0.8076973634      0.3633946077
O       2.3231891082     -0.1381612137     -0.0821959180
C      -0.4036446678     -1.1659641215     -0.5056602140
C      -1.7601766664     -1.7631454949     -0.6698880680
C      -1.1762493507      1.5157628838      0.6528437361
H       0.4578422210     -1.8850759664     -0.9065206498
H      -2.7555620006     -1.1214657123     -0.2224088439
H      -1.9104739160     -2.9334734632     -1.2093683424
H      -0.6122203685      2.5160884371      1.6267964062
H      -2.5305800419      0.7626077712      1.1941943778
H      -1.2661336846      1.9554158154     -0.5540989125
12
Frame=474  time=237.500fs  energy=-306.20441163Ha  molecule=COOCCCHHHHHH
C      -0.0675245650      0.3538289309      0.1537680187
O       1.2240469338      0.8091617050      0.3666898851
O       2.3228422714     -0.1346092007     -0.0836814103
C      -0.4026058638     -1.1635197081     -0.5061706324
C      -1.7624138490     -1.7660077585     -0.6739616784
C      -1.1732670405      1.5124736959      0.6523362346
H       0.4830668504     -1.8714954604     -0.9015743820
H      -2.7451264358     -1.1075189356     -0.2070243046
H      -1.9175879568     -2.9410909896     -1.2038924668
H      -0.6166185643      2.5224799539      1.6301923418
H      -2.5261688660      0.7513077826      1.1925124041
H      -1.2792660747      1.9588181454     -0.5453363061
12
Frame=475  time=238.000fs  energy=-306.20450209Ha  molecule=COOCCCHHHHHH
C      -0.0681947740      0.3491750592      0.1535423675
O       1.2223396908      0.8103868613      0.3699030512
O       2.3224910124     -0.1309549234     -0.0851325646
C      -0.4023000214     -1.1612949815     -0.5069270791
C      -1.7639089555     -1.7684923341     -0.6778878182
C      -1.1704075390      1.5087404369      0.6518287560
H       0.5112663175     -1.8581554723     -0.8960723535
H      -2.7349776549     -1.0935871459     -0.1929885704
H      -1.9226571970     -2.9476107744     -1.1981488320
H      -0.6242039402      2.5309486124      1.6363711655
H      -2.5178809163      0.7434198375      1.1906907362
H      -1.2924898422      1.9630750733     -0.5384074668
12
Frame=476  time=238.500fs  energy=-306.20439228Ha  molecule=COOCCCHHHHHH
C      -0.0692001288      0.3446001368      0.1534379588
O       1.2206407857      0.8113493982      0.3730224304
O       2.3221636474     -0.1272227190     -0.0865420990
C      -0.4026847108     -1.1594808278     -0.5079335865
C      -1.7646577321     -1.7705403064     -0.6816000146
C      -1.1677373343      1.5046188519      0.6512441596
H       0.5408831843     -1.8446153876     -0.8902122513
H      -2.7247527169     -1.0815430191     -0.1807140996
H      -1.9251416031     -2.9517154977     -1.1923136346
H      -0.6347535117      2.5410137265      1.6450349282
H      -2.5064440001      0.7390265084      1.1898165089
H      -1.3049038388      1.9678215109     -0.5328667481
12
Frame=477  time=239.000fs  energy=-306.20414063Ha  molecule=COOCCCHHHHHH
C      -0.0705551571      0.3403024205      0.1534361072
O       1.2189685140      0.8120343815      0.3760386491
O       2.3218877770     -0.1234406711     -0.0879037868
C      -0.4036469033     -1.1582499630     -0.5091878627
C      -1.7646713386     -1.7720937406     -0.6850389312
C      -1.1653268971      1.5001863902      0.6505009394
H       0.5702118119     -1.8303612737     -0.8841939205
H      -2.7142382145     -1.0728616897     -0.1705608522
H      -1.9248780929     -2.9526810797     -1.1865591033
H      -0.6477401447      2.5521737237      1.6557071631
H      -2.4928738459      0.7380176467      1.1909698551
H      -1.3156198631      1.9726714834     -0.5280763079
12
Frame=478  time=239.500fs  energy=-306.20382327Ha  molecule=COOCCCHHHHHH
C      -0.0722540618      0.3364524668      0.1535177993
O       1.2173305324      0.8124360775      0.3789447791
O       2.3216885725     -0.1196390685     -0.0892125447
C      -0.4050309085     -1.1577256286     -0.5106822608
C      -1.7639559034     -1.7731067748     -0.6881551572
C      -1.1632507217      1.4955371096      0.6495495768
H       0.5976850996     -1.8151106752     -0.8782067613
H      -2.7035085052     -1.0683198170     -0.1628207132
H      -1.9221242713     -2.9505187306     -1.1810439296
H      -0.6623912060      2.5639365758      1.6677916450
H      -2.4782265006      0.7400864960      1.1949372541
H      -1.3239401324      1.9772698087     -0.5234204039
12
Frame=479  time=240.000fs  energy=-306.20345648Ha  molecule=COOCCCHHHHHH
C      -0.0742714863      0.3331866377      0.1536647145
O       1.2157235704      0.8125576408      0.3817361352
O       2.3215878118     -0.1158491425     -0.0904643595
C      -0.4066654615     -1.1579638030     -0.5124049307
C      -1.7625040026     -1.7735553278     -0.6909105266
C      -1.1615848751      1.4907773649      0.6483990065
H       0.6220806636     -1.7990150471     -0.8724218745
H      -2.6929640816     -1.0679006206     -0.1577124974
H      -1.9174928236     -2.9459104472     -1.1759057052
H      -0.6777903534      2.5758242386      1.6806344404
H      -2.4633873008      0.7447476726      1.2020122325
H      -1.3294789017      1.9813300378     -0.5184846193
12
Frame=480  time=240.500fs  energy=-306.20299506Ha  molecule=COOCCCHHHHHH
C      -0.0765650074      0.3306027839      0.1538597015
O       1.2141348310      0.8124112389      0.3844102873
O       2.3216031631     -0.1121020728     -0.0916563422
C      -0.4083826710     -1.1589478360     -0.5143401227
C      -1.7603017612     -1.7734457900     -0.6932795818
C      -1.1604002269      1.4860224976      0.6471271654
H       0.6426260125     -1.7827209390     -0.8669874226
H      -2.6832729582     -1.0708758571     -0.1553749935
H      -1.9118137669     -2.9399939775     -1.1712545082
H      -0.6929900730      2.5873610363      1.6935738708
H      -2.4489537085      0.7513670135      1.2119213181
H      -1.3322200354      1.9846571093     -0.5131594485
12
Frame=481  time=241.000fs  energy=-306.20224815Ha  molecule=COOCCCHHHHHH
C      -0.0790787129      0.3287546080      0.1540869860
O       1.2125447576      0.8120187732      0.3869674621
O       2.3217472030     -0.1084276558     -0.0927870124
C      -0.4100293563     -1.1605935924     -0.5164678521
C      -1.7573485024     -1.7728213487     -0.6952520437
C      -1.1597511102      1.4813918999      0.6458721157
H       0.6590190414     -1.7672835457     -0.8620232965
H      -2.6752295040     -1.0760206534     -0.1558522871
H      -1.9059561411     -2.9340594499     -1.1671658533
H      -0.7071256762      2.5980683225      1.7059845047
H      -2.4352217911      0.7592121393      1.2238897928
H      -1.3325080905      1.9871571995     -0.5076502068
12
Frame=482  time=241.500fs  energy=-306.20166855Ha  molecule=COOCCCHHHHHH
C      -0.0816749415      0.3291140464      0.1543325278
O       1.2109104469      0.8110478433      0.3894108844
O       2.3220561027     -0.1047421818     -0.0938565878
C      -0.4111418958     -1.1634906666     -0.5187643032
C      -1.7539043790     -1.7715402834     -0.6968344249
C      -1.1599044631      1.4770371856      0.6448042277
H       0.6714482293     -1.7549138223     -0.8576151254
H      -2.6717698723     -1.0829224438     -0.1590845546
H      -1.9014000592     -2.9287784414     -1.1636755224
H      -0.7174533414      2.6049688423      1.7173213610
H      -2.4215629725      0.7656000401      1.2377805613
H      -1.3302649181      1.9868981888     -0.5033300492
12
Frame=483  time=242.000fs  energy=-306.20152623Ha  molecule=COOCCCHHHHHH
C      -0.0842801935      0.3318548327      0.1545846004
O       1.2092068687      0.8094840466      0.3917443083
O       2.3225370946     -0.1010545949     -0.0948658245
C      -0.4115592508     -1.1675894060     -0.5212057333
C      -1.7500746110     -1.7696689497     -0.6980417031
C      -1.1608972077      1.4730712382      0.6440958166
H       0.6802260923     -1.7469572525     -0.8538228067
H      -2.6737202855     -1.0904747834     -0.1649644582
H      -1.8987031610     -2.9248131311     -1.1607920669
H      -0.7232121319      2.6072675385      1.7271275661
H      -2.4078554705      0.7695864660      1.2526036587
H      -1.3261204178      1.9836747829     -0.5008566893
12
Frame=484  time=242.500fs  energy=-306.20125833Ha  molecule=COOCCCHHHHHH
C      -0.0868613980      0.3352216244      0.1548334738
O       1.2073285398      0.8078376468      0.3939704351
O       2.3231841373     -0.0975601757     -0.0958152440
C      -0.4116544123     -1.1716296342     -0.5237700945
C      -1.7454992323     -1.7677960919     -0.6988915762
C      -1.1624141728      1.4695092595      0.6439017088
H       0.6836201986     -1.7441583957     -0.8506901484
H      -2.6775814501     -1.0962791127     -0.1733742617
H      -1.8973116256     -2.9229094898     -1.1585082452
H      -0.7265998461      2.6075453841      1.7350156980
H      -2.3949145238      0.7729644482      1.2662166574
H      -1.3216065855      1.9799403725     -0.4995969120
12
Frame=485  time=243.000fs  energy=-306.20135509Ha  molecule=COOCCCHHHHHH
C      -0.0893133538      0.3391625362      0.1550709146
O       1.2051699012      0.8061949296      0.3960913797
O       2.3240244011     -0.0943257257     -0.0967054036
C      -0.4113937014     -1.1752667694     -0.5264364710
C      -1.7401658304     -1.7662044112     -0.6994051433
C      -1.1644256694      1.4664042220      0.6443416478
H       0.6802378950     -1.7479488142     -0.8482443191
H      -2.6823268044     -1.0996438885     -0.1841799543
H      -1.8972133108     -2.9228400633     -1.1568022867
H      -0.7274742506      2.6053894336      1.7406681933
H      -2.3828242021      0.7753945927      1.2778244325
H      -1.3173400212      1.9759002435     -0.4999179788
12
Frame=486  time=243.500fs  energy=-306.20156239Ha  molecule=COOCCCHHHHHH
C      -0.0917049929      0.3431913227      0.1552895732
O       1.2029161980      0.8045965731      0.3981070487
O       2.3249973811     -0.0913163696     -0.0975360879
C      -0.4105737239     -1.1787137762     -0.5291856273
C      -1.7346106151     -1.7646241972     -0.6996022010
C      -1.1668636870      1.4639222462      0.6454968102
H       0.6737409401     -1.7568745092     -0.8465058796
H      -2.6890360377     -1.1009953303     -0.1972611477
H      -1.8975428664     -2.9242026624     -1.1556479570
H      -0.7261589160      2.6010005982      1.7438047595
H      -2.3720341984      0.7768249847      1.2867447225
H      -1.3139979381      1.9719147007     -0.5018583948
12
Frame=487  time=244.000fs  energy=-306.20192469Ha  molecule=COOCCCHHHHHH
C      -0.0940029464      0.3470745398      0.1554825806
O       1.2005874221      0.8031066116      0.4000158131
O       2.3260932559     -0.0885553946     -0.0983067178
C      -0.4090719492     -1.1819199971     -0.5319986343
C      -1.7291091917     -1.7630823611     -0.6995038844
C      -1.1696759677      1.4621567380      0.6473981793
H       0.6645680491     -1.7705286971     -0.8454854187
H      -2.6971121102     -1.1008011999     -0.2124929882
H      -1.8976617854     -2.9262306967     -1.1550110696
H      -0.7227932726      2.5942681953      1.7441944489
H      -2.3630645932      0.7771981101      1.2927167066
H      -1.3119527889      1.9681853270     -0.5053192518
12
Frame=488  time=244.500fs  energy=-306.20240136Ha  molecule=COOCCCHHHHHH
C      -0.0961617700      0.3506016207      0.1556433532
O       1.1981907328      0.8017910455      0.4018148900
O       2.3273062427     -0.0860705384     -0.0990166297
C      -0.4067753235     -1.1848458309     -0.5348558966
C      -1.7239233374     -1.7616162870     -0.6991346449
C      -1.1728101843      1.4611830752      0.6500183947
H       0.6526854336     -1.7881877878     -0.8451799286
H      -2.7055943254     -1.0998148110     -0.2297322781
H      -1.8969189209     -2.9280454870     -1.1548466404
H      -0.7175330008      2.5851322150      1.7416758119
H      -2.3566106212      0.7765657227      1.2958404254
H      -1.3113463977      1.9648486298     -0.5099343330
12
Frame=489  time=245.000fs  energy=-306.20296324Ha  molecule=COOCCCHHHHHH
C      -0.0981350527      0.3535613580      0.1557656597
O       1.1957396802      0.8007160121      0.4035009312
O       2.3286290008     -0.0838873701     -0.0996654555
C      -0.4035919410     -1.1874916205     -0.5377363744
C      -1.7193019306     -1.7602384627     -0.6985245731
C      -1.1762164978      1.4610559866      0.6532687736
H       0.6379692571     -1.8086963444     -0.8455674570
H      -2.7134063054     -1.0989657276     -0.2488011876
H      -1.8947232720     -2.9288464733     -1.1550952071
H      -0.7105640108      2.5736680563      1.7361904981
H      -2.3534972383      0.7751155592      1.2965540115
H      -1.3120864103      1.9619886505     -0.5150564728
12
Frame=490  time=245.500fs  energy=-306.20361075Ha  molecule=COOCCCHHHHHH
C      -0.0998771119      0.3557488802      0.1558438843
O       1.1932557943      0.7999463178      0.4050705039
O       2.3300520342     -0.0820275512     -0.1002534165
C      -0.3994787520     -1.1898890782     -0.5406171505
C      -1.7154434560     -1.7589372619     -0.6977109899
C      -1.1798520969      1.4618001586      0.6570073721
H       0.6203271072     -1.8306043200     -0.8466027725
H      -2.7195070632     -1.0991507324     -0.2694756536
H      -1.8906686425     -2.9281012983     -1.1556805086
H      -0.7020971491      2.5601355250      1.7278167778
H      -2.3545657739      0.7731672082      1.2955525260
H      -1.3138687445      1.9596420514     -0.5198165416
12
Frame=491  time=246.000fs  energy=-306.20434747Ha  molecule=COOCCCHHHHHH
C      -0.1013459327      0.3569742618      0.1558734169
O       1.1907702189      0.7995437137      0.4065203184
O       2.3315634707     -0.0805076628     -0.1007814737
C      -0.3944687754     -1.1920863451     -0.5434732160
C      -1.7124590610     -1.7576824593     -0.6967390763
C      -1.1836857563      1.4634033503      0.6610596599
H       0.5998488204     -1.8523895618     -0.8482148528
H      -2.7230675208     -1.1009913966     -0.2914798451
H      -1.8846433357     -2.9257118220     -1.1565089998
H      -0.6923684161      2.5450068854      1.7167937309
H      -2.3605185313      0.7711486481      1.2936347275
H      -1.3162464183      1.9578154616     -0.5232502174
12
Frame=492  time=246.500fs  energy=-306.20511383Ha  molecule=COOCCCHHHHHH
C      -0.1025077292      0.3570736839      0.1558512480
O       1.1883254067      0.7995642979      0.4078474849
O       2.3331489705     -0.0793378835     -0.1012514898
C      -0.3886931934     -1.1941304346     -0.5462774298
C      -1.7103442015     -1.7564352922     -0.6956621582
C      -1.1877003453      1.4658114538      0.6652484971
H       0.5769626855     -1.8727154736     -0.8503043226
H      -2.7236376469     -1.1046086742     -0.3144820054
H      -1.8768992193     -2.9221112419     -1.1574702813
H      -0.6816549802      2.5289672629      1.7035397530
H      -2.3717305688      0.7695554403      1.2914983765
H      -1.3187375633      1.9565120941     -0.5244809999
12
Frame=493  time=247.000fs  energy=-306.20572982Ha  molecule=COOCCCHHHHHH
C      -0.1033436284      0.3559282515      0.1557768964
O       1.1859760243      0.8000529672      0.4090502290
O       2.3347916542     -0.0785191799     -0.1016665304
C      -0.3823934591     -1.1960523920     -0.5490012068
C      -1.7089652930     -1.7551619674     -0.6945416566
C      -1.1918915640      1.4689242227      0.6694290236
H       0.5525599205     -1.8906752422     -0.8527400109
H      -2.7212719021     -1.1094777757     -0.3380909613
H      -1.8680540887     -2.9182415319     -1.1584392634
H      -0.6703102078      2.5128754442      1.6886658267
H      -2.3880409388      0.7688930654      1.2895205629
H      -1.3209592611      1.9557593783     -0.5229443386
12
Frame=494  time=247.500fs  energy=-306.20595228Ha  molecule=COOCCCHHHHHH
C      -0.1038741170      0.3531566392      0.1556534437
O       1.1837917779      0.8011173159      0.4101290481
O       2.3364657808     -0.0780643948     -0.1020310948
C      -0.3759864513     -1.1976956697     -0.5516167932
C      -1.7080220230     -1.7538988204     -0.6934454262
C      -1.1962064390      1.4725865712      0.6735201245
H       0.5279937124     -1.9057374354     -0.8553585952
H      -2.7160551965     -1.1142258571     -0.3618630316
H      -1.8588163187     -2.9154519648     -1.1592834123
H      -0.6592733005      2.4982360799      1.6729612412
H      -2.4087598332      0.7700479101      1.2873914275
H      -1.3229179463      1.9560668703     -0.5183879435
12
Frame=495  time=248.000fs  energy=-306.20596038Ha  molecule=COOCCCHHHHHH
C      -0.1041645723      0.3480985278      0.1554878922
O       1.1818524936      0.8029293377      0.4110873435
O       2.3381374481     -0.0779992568     -0.1023508311
C      -0.3700289485     -1.1987034114     -0.5541003345
C      -1.7070940344     -1.7527691120     -0.6924436595
C      -1.2005253885      1.4765982145      0.6775154817
H       0.5049195461     -1.9177091431     -0.8579736240
H      -2.7079092626     -1.1168719535     -0.3853282665
H      -1.8497436387     -2.9151248589     -1.1598750408
H      -0.6501345747      2.4871119704      1.6573263034
H      -2.4327416296      0.7742798515      1.2841309229
H      -1.3250941677      1.9584703518     -0.5109364786
12
Frame=496  time=248.500fs  energy=-306.20541570Ha  molecule=COOCCCHHHHHH
C      -0.1042092948      0.3420477791      0.1552905541
O       1.1802097755      0.8051707275      0.4119310053
O       2.3398115166     -0.0781970158     -0.1026318971
C      -0.3646495393     -1.1996371006     -0.5564334250
C      -1.7060614478     -1.7516477156     -0.6916040565
C      -1.2050163013      1.4807887525      0.6814631753
H       0.4851319301     -1.9279816343     -0.8603925152
H      -2.6996567901     -1.1167949697     -0.4080254544
H      -1.8421291814     -2.9175646310     -1.1601016819
H      -0.6419633032      2.4781694928      1.6426746647
H      -2.4576133313      0.7802608168      1.2797718868
H      -1.3273301075      1.9615588518     -0.5024068552
12
Frame=497  time=249.000fs  energy=-306.20460885Ha  molecule=COOCCCHHHHHH
C      -0.1040736603      0.3353046757      0.1550741859
O       1.1789168803      0.8077625413      0.4126687669
O       2.3414740947     -0.0786014168     -0.1028806665
C      -0.3601441830     -1.2005489545     -0.5586047671
C      -1.7047279891     -1.7505882539     -0.6909859674
C      -1.2096461829      1.4849636051      0.6854247740
H       0.4700223545     -1.9372559969     -0.8624392640
H      -2.6922309122     -1.1132796575     -0.4295439877
H      -1.8362689552     -2.9225710333     -1.1598761598
H      -0.6353593297      2.4716355787      1.6298220828
H      -2.4815471553      0.7879450635      1.2738216459
H      -1.3300671388      1.9652985473     -0.4941464762
12
Frame=498  time=249.500fs  energy=-306.20374934Ha  molecule=COOCCCHHHHHH
C      -0.1038297601      0.3281959281      0.1548526883
O       1.1780084867      0.8106136819      0.4133109176
O       2.3431147757     -0.0791539178     -0.1031033896
C      -0.3566939954     -1.2015177696     -0.5606084531
C      -1.7030203738     -1.7496406213     -0.6906366336
C      -1.2143610998      1.4889494398      0.6894315303
H       0.4603749477     -1.9459025587     -0.8639711654
H      -2.6860243945     -1.1064991351     -0.4495508205
H      -1.8319996273     -2.9291733541     -1.1591381936
H      -0.6308644976      2.4675179828      1.6194087732
H      -2.5031090440      0.7972053315      1.2661821214
H      -1.3336361044      1.9696042470     -0.4873431346
12
Frame=499  time=250.000fs  energy=-306.20295018Ha  molecule=COOCCCHHHHHH
C      -0.1035473112      0.3210374073      0.1546401294
O       1.1775005403      0.8136320503      0.4138679529
O       2.3447264989     -0.0797992064     -0.1033059448
C      -0.3543591285     -1.2026484046     -0.5624417851
C      -1.7009729642     -1.7488331777     -0.6905905681
C      -1.2190986888      1.4926037036      0.6934591330
H       0.4563067473     -1.9538108141     -0.8648836494
H      -2.6809055103     -1.0973816928     -0.4677956397
H      -1.8288817962     -2.9360008551     -1.1578517331
H      -0.6288904639      2.4656893630      1.6118723226
H      -2.5214252295      0.8078689924      1.2572135527
H      -1.3381144103      1.9743290444     -0.4827576963
12
Frame=500  time=250.500fs  energy=-306.20225080Ha  molecule=COOCCCHHHHHH
C      -0.1032880508      0.3141132698      0.1544501828
O       1.1773928489      0.8167311245      0.4143497217
O       2.3463048269     -0.0804878273     -0.1034936573
C      -0.3530984839     -1.2040592802     -0.5641037995
C      -1.6986865238     -1.7481672186     -0.6908708922
C      -1.2238000208      1.4958161327      0.6974269980
H       0.4573885214     -1.9604683235     -0.8651073573
H      -2.6764086399     -1.0872576580     -0.4841026903
H      -1.8264274692     -2.9417006893     -1.1560015132
H      -0.6296787457      2.4659616346      1.6074559433
H      -2.5361679699      0.8197342785      1.2476507943
H      -1.3432947256      1.9792705994     -0.4806390401
12
Frame=501  time=251.000fs  energy=-306.20167570Ha  molecule=COOCCCHHHHHH
C      -0.1031028520      0.3076673326      0.1542958503
O       1.1776722657      0.8198329493      0.4147650631
O       2.3478470327     -0.0811768121     -0.1036712010
C      -0.3527999743     -1.2058634896     -0.5655944810
C      -1.6962876969     -1.7476215275     -0.6914912184
C      -1.2284174015      1.4985062398      0.7012155396
H       0.4628522673     -1.9651729446     -0.8646024210
H      -2.6719512696     -1.0775052120     -0.4983584602
H      -1.8242616223     -2.9452233224     -1.1535902368
H      -0.6332899514      2.4681349579      1.6062339020
H      -2.5474339971      0.8325689191      1.2384366369
H      -1.3487459286      1.9841914108     -0.4807888939
12
Frame=502  time=251.500fs  energy=-306.20126218Ha  molecule=COOCCCHHHHHH
C      -0.1030306287      0.3019026114      0.1541894003
O       1.1783162081      0.8228689444      0.4151216276
O       2.3493511912     -0.0818292715     -0.1038425721
C      -0.3533115622     -1.2081520631     -0.5669140309
C      -1.6938994181     -1.7471617088     -0.6924579958
C      -1.2329176915      1.5006185660      0.7046899588
H       0.4718031810     -1.9672536079     -0.8633511104
H      -2.6670051930     -1.0692913614     -0.5104958973
H      -1.8222020133     -2.9459515337     -1.1506354989
H      -0.6396198920      2.4720249593      1.6081488021
H      -2.5555830806      0.8461026140      1.2305412427
H      -1.3539170687      1.9888444380     -0.4827058405
12
Frame=503  time=252.000fs  energy=-306.20105137Ha  molecule=COOCCCHHHHHH
C      -0.1030987538      0.2969879876      0.1541425913
O       1.1792963724      0.8257788810      0.4154257190
O       2.3508153307     -0.0824132231     -0.1040111322
C      -0.3544670034     -1.2109847341     -0.5680617652
C      -1.6916238384     -1.7467500798     -0.6937735417
C      -1.2372817557      1.5021159954      0.7077204194
H       0.4833842711     -1.9662227878     -0.8613490264
H      -2.6612026609     -1.0634282969     -0.5204737194
H      -1.8202790625     -2.9437103403     -1.1471659102
H      -0.6484360628      2.4774744180      1.6130566087
H      -2.5610843431      0.8600191370      1.2248228457
H      -1.3582368965      1.9929937546     -0.4857413305
12
Frame=504  time=252.500fs  energy=-306.20106291Ha  molecule=COOCCCHHHHHH
C      -0.1033244058      0.2930696775      0.1541671736
O       1.1805815219      0.8285082923      0.4156822168
O       2.3522366799     -0.0828997914     -0.1041797178
C      -0.3561018405     -1.2143871721     -0.5690348088
C      -1.6895361142     -1.7463539125     -0.6954390942
C      -1.2415015564      1.5029727087      0.7101947924
H       0.4968726164     -1.9618541898     -0.8585968752
H      -2.6543859344     -1.0603230884     -0.5282549381
H      -1.8187228981     -2.9387124965     -1.1432179369
H      -0.6594171143      2.4843520693      1.6207664968
H      -2.5643995724      0.8739444318      1.2219455775
H      -1.3611850777      1.9964256215     -0.4892242705
12
Frame=505  time=253.000fs  energy=-306.20127356Ha  molecule=COOCCCHHHHHH
C      -0.1036972346      0.2903097609      0.1542753975
O       1.1821135321      0.8309322113      0.4158946864
O       2.3535815385     -0.0831948189     -0.1043507756
C      -0.3580645401     -1.2183591460     -0.5698271314
C      -1.6876923094     -1.7459899265     -0.6974565853
C      -1.2454869613      1.5031963408      0.7120273382
H       0.5118310657     -1.9541604182     -0.8550959721
H      -2.6464552255     -1.0598896836     -0.5337931124
H      -1.8181516131     -2.9314076989     -1.1388358003
H      -0.6724161794      2.4929150956      1.6310610798
H      -2.5659634263      0.8871363881      1.2222869072
H      -1.3623958682      1.9986643450     -0.4925065144
12
Frame=506  time=253.500fs  energy=-306.20144619Ha  molecule=COOCCCHHHHHH
C      -0.1041774302      0.2889387896      0.1544801630
O       1.1838062833      0.8328448775      0.4160656747
O       2.3547875104     -0.0831374155     -0.1045264664
C      -0.3602031665     -1.2228943827     -0.5704291897
C      -1.6861399523     -1.7457209145     -0.6998284974
C      -1.2490755635      1.5028279782      0.7131686236
H       0.5281092465     -1.9434695956     -0.8508491475
H      -2.6374615343     -1.0615833376     -0.5370310385
H      -1.8195526274     -2.9224121411     -1.1340750616
H      -0.6873881068      2.5036775296      1.6436942547
H      -2.5661153149      0.8984088943      1.2259168914
H      -1.3616826835      1.9989303686     -0.4950657550
12
Frame=507  time=254.000fs  energy=-306.20234838Ha  molecule=COOCCCHHHHHH
C      -0.1046733766      0.2909494105      0.1547944850
O       1.1856120667      0.8337948801      0.4161971286
O       2.3559138783     -0.0826207592     -0.1047086856
C      -0.3619305470     -1.2288279054     -0.5708282805
C      -1.6851718220     -1.7452442636     -0.7025558647
C      -1.2526720083      1.5018897725      0.7136188138
H       0.5454948135     -1.9319019011     -0.8458670806
H      -2.6309846137     -1.0659337631     -0.5379128079
H      -1.8243391705     -2.9122132044     -1.1290087649
H      -0.7009349677      2.5128262462      1.6583730836
H      -2.5640164328      0.9048488286      1.2338481750
H      -1.3580385733      1.9948921490     -0.4978908107
12
Frame=508  time=254.500fs  energy=-306.20331513Ha  molecule=COOCCCHHHHHH
C      -0.1052363433      0.2956730971      0.1552320305
O       1.1875424812      0.8340732358      0.4162901831
O       2.3570023461     -0.0818181952     -0.1048991409
C      -0.3632389114     -1.2356429879     -0.5710061712
C      -1.6846635569     -1.7446332458     -0.7056396130
C      -1.2563601305      1.5003156368      0.7134309339
H       0.5636111874     -1.9202922251     -0.8401676376
H      -2.6270746749     -1.0714542050     -0.5363700014
H      -1.8323251937     -2.9022733184     -1.1237315174
H      -0.7130154141      2.5204704079      1.6747593776
H      -2.5598535331      0.9072102700      1.2450940269
H      -1.3518880420      1.9880987796     -0.5006045814
12
Frame=509  time=255.000fs  energy=-306.20395259Ha  molecule=COOCCCHHHHHH
C      -0.1059031872      0.3016206226      0.1558036032
O       1.1895558909      0.8340341104      0.4163460516
O       2.3580152643     -0.0808304638     -0.1050989996
C      -0.3643117603     -1.2423812950     -0.5709437825
C      -1.6843839142     -1.7441983007     -0.7090714592
C      -1.2598896389      1.4981048050      0.7127293000
H       0.5823268836     -1.9091001607     -0.8337984733
H      -2.6242672604     -1.0757077017     -0.5323854826
H      -1.8431916011     -2.8940164026     -1.1183709891
H      -0.7252449972      2.5287883736      1.6924152154
H      -2.5542429475      0.9066389111      1.2576443217
H      -1.3445050614      1.9806849016     -0.5025377653
12
Frame=510  time=255.500fs  energy=-306.20434074Ha  molecule=COOCCCHHHHHH
C      -0.1066229898      0.3085620328      0.1565128616
O       1.1915794770      0.8337191429      0.4163665470
O       2.3589433513     -0.0796668881     -0.1053083227
C      -0.3650275443     -1.2487203822     -0.5706272582
C      -1.6843324711     -1.7440682478     -0.7128261722
C      -1.2632154093      1.4953350835      0.7117046271
H       0.6015183630     -1.8997074686     -0.8268548813
H      -2.6229733147     -1.0773247414     -0.5260545279
H      -1.8569324094     -2.8880303221     -1.1130875444
H      -0.7373871890      2.5374982234      1.7107879562
H      -2.5472181180      0.9025475411      1.2700984863
H      -1.3368589890      1.9731125518     -0.5041960308
12
Frame=511  time=256.000fs  energy=-306.20449590Ha  molecule=COOCCCHHHHHH
C      -0.1073289425      0.3161930457      0.1573554972
O       1.1935354655      0.8331897912      0.4163535439
O       2.3597794648     -0.0783462119     -0.1055258787
C      -0.3652701641     -1.2543584008     -0.5700492151
C      -1.6845535793     -1.7443663414     -0.7168632276
C      -1.2662760499      1.4921217337      0.7105721255
H       0.6208505140     -1.8931379055     -0.8194739722
H      -2.6231971152     -1.0755602491     -0.5175811964
H      -1.8730551194     -2.8842535026     -1.1080619765
H      -0.7492774329      2.5462023975      1.7292576143
H      -2.5390024496      0.8944936356      1.2811270598
H      -1.3300788664      1.9658851613     -0.5062413400
12
Frame=512  time=256.500fs  energy=-306.20443772Ha  molecule=COOCCCHHHHHH
C      -0.1079442063      0.3241660744      0.1583196432
O       1.1953491570      0.8325206799      0.4163084433
O       2.3605190249     -0.0768938768     -0.1057492229
C      -0.3649363535     -1.2590597634     -0.5692085503
C      -1.6851341717     -1.7451805486     -0.7211307616
C      -1.2690029778      1.4886025038      0.7095201239
H       0.6396811963     -1.8897521184     -0.8118223291
H      -2.6244322239     -1.0705536711     -0.5072569941
H      -1.8906497594     -2.8820082080     -1.1034821717
H      -0.7608067687      2.5544547541      1.7471950696
H      -2.5301105347      0.8822471768      1.2897771948
H      -1.3252024767      1.9594619884     -0.5092407536
12
Frame=513  time=257.000fs  energy=-306.20417680Ha  molecule=COOCCCHHHHHH
C      -0.1083888990      0.3321200976      0.1593864754
O       1.1969558950      0.8317927535      0.4162319703
O       2.3611600191     -0.0753390742     -0.1059749246
C      -0.3639507046     -1.2626788919     -0.5681099385
C      -1.6861721572     -1.7465431010     -0.7255694332
C      -1.2713357491      1.4849212422      0.7086680136
H       0.6570848098     -1.8891656192     -0.8040835738
H      -2.6257644414     -1.0632491753     -0.4954374859
H      -1.9085962800     -2.8802760232     -1.0995314785
H      -0.7718882409      2.5618456915      1.7640189165
H      -2.5213753152      0.8658339431      1.2956550882
H      -1.3229382917      1.9541838772     -0.5134123144
12
Frame=514  time=257.500fs  energy=-306.20375668Ha  molecule=COOCCCHHHHHH
C      -0.1085880839      0.3397082605      0.1605310625
O       1.1983067632      0.8310868027      0.4161242533
O       2.3617028174     -0.0737120756     -0.1061988736
C      -0.3622860038     -1.2651589758     -0.5667633330
C      -1.6877322977     -1.7484253548     -0.7301160626
C      -1.2732385339      1.4812125536      0.7080479533
H       0.6720153062     -1.8904271289     -0.7964461111
H      -2.6261221343     -1.0550577451     -0.4825187287
H      -1.9258138970     -2.8780624545     -1.0963783184
H      -0.7824264660      2.5680817711      1.7792493075
H      -2.5138640189      0.8455442045      1.2989362310
H      -1.3235227601      1.9502282700     -0.5184864541
12
Frame=515  time=258.000fs  energy=-306.20327888Ha  molecule=COOCCCHHHHHH
C      -0.1084794633      0.3466218687      0.1617239411
O       1.1993720152      0.8304776453      0.4159849703
O       2.3621497917     -0.0720418999     -0.1064166351
C      -0.3599778590     -1.2665105447     -0.5651828854
C      -1.6898121871     -1.7507481981     -0.7347073577
C      -1.2747109960      1.4775893882      0.7076163037
H       0.6835368175     -1.8923652058     -0.7890910235
H      -2.6245576075     -1.0474287199     -0.4689108538
H      -1.9414602418     -2.8746986455     -1.0941687867
H      -0.7923029328      2.5730351683      1.7925490491
H      -2.5086952988      0.8218912730      1.3002050147
H      -1.3267261487      1.9476070629     -0.5237528008
12
Frame=516  time=258.500fs  energy=-306.20286983Ha  molecule=COOCCCHHHHHH
C      -0.1080180679      0.3526047004      0.1629331884
O       1.2001409048      0.8300302621      0.4158133889
O       2.3625046718     -0.0703546282     -0.1066237428
C      -0.3571251484     -1.2667800808     -0.5633849564
C      -1.6923301949     -1.7534026792     -0.7392830083
C      -1.2757890164      1.4741363984      0.7072861057
H       0.6910067227     -1.8939364053     -0.7821835631
H      -2.6204567510     -1.0414902815     -0.4550131124
H      -1.9550266506     -2.8699950549     -1.0930261322
H      -0.8013791796      2.5767458415      1.8037356820
H      -2.5068404285      0.7955285484      1.3002050274
H      -1.3319871920      1.9462047190     -0.5282510727
12
Frame=517  time=259.000fs  energy=-306.20228253Ha  molecule=COOCCCHHHHHH
C      -0.1071765071      0.3574536081      0.1641260619
O       1.2006183966      0.8297989702      0.4156082557
O       2.3627717861     -0.0686727494     -0.1068157923
C      -0.3538794059     -1.2660207982     -0.5613858695
C      -1.6951321519     -1.7562716550     -0.7437869301
C      -1.2765370936      1.4709101808      0.7069635633
H       0.6941487885     -1.8944488983     -0.7758717790
H      -2.6136302817     -1.0378559236     -0.4411998154
H      -1.9663257949     -2.8642400438     -1.0930582115
H      -0.8095111716      2.5793836772      1.8127626309
H      -2.5089906202      0.7671620759      1.2996107982
H      -1.3385958140      1.9458346762     -0.5309949520
12
Frame=518  time=259.500fs  energy=-306.20259165Ha  molecule=COOCCCHHHHHH
C      -0.1060519775      0.3588411777      0.1652696107
O       1.2008515198      0.8303669235      0.4153676155
O       2.3629118961     -0.0671784090     -0.1069883319
C      -0.3509224921     -1.2632045366     -0.5592004292
C      -1.6976727724     -1.7595712179     -0.7481666444
C      -1.2766829062      1.4678896170      0.7065770259
H       0.6929146854     -1.8922120889     -0.7702907810
H      -2.6010417857     -1.0351254974     -0.4278203679
H      -1.9742926834     -2.8587586955     -1.0943683118
H      -0.8196226501      2.5849126091      1.8196893261
H      -2.5165287798      0.7403530751      1.2974880272
H      -1.3468814769      1.9491500252     -0.5297638591
12
Frame=519  time=260.000fs  energy=-306.20336220Ha  molecule=COOCCCHHHHHH
C      -0.1046134185      0.3571031456      0.1663285044
O       1.2008547928      0.8316572768      0.4150879041
O       2.3629377088     -0.0658527466     -0.1071361622
C      -0.3483679187     -1.2585773068     -0.5568382689
C      -1.6997672803     -1.7631332975     -0.7523671220
C      -1.2763970422      1.4651070176      0.7060948152
H       0.6876401292     -1.8876812639     -0.7655875470
H      -2.5839980956     -1.0332390109     -0.4152265758
H      -1.9793389625     -2.8543277056     -1.0970924652
H      -0.8309120066      2.5927669140      1.8246181792
H      -2.5293050541      0.7151249915      1.2943045249
H      -1.3560315815      1.9553284103     -0.5242616064
12
Frame=520  time=260.500fs  energy=-306.20387740Ha  molecule=COOCCCHHHHHH
C      -0.1027647943      0.3541035942      0.1672638523
O       1.2006307814      0.8332159788      0.4147640728
O       2.3628924702     -0.0645628102     -0.1072531188
C      -0.3460237619     -1.2531118335     -0.5543072676
C      -1.7014196690     -1.7665773521     -0.7563290047
C      -1.2761051775      1.4626186394      0.7055415323
H       0.6790099912     -1.8826813012     -0.7619202345
H      -2.5664341124     -1.0327373087     -0.4037898789
H      -1.9826999674     -2.8514192350     -1.1013929522
H      -0.8405103786      2.5997947732      1.8277222747
H      -2.5460906336      0.6895183737      1.2911575508
H      -1.3646969352      1.9615889594     -0.5155275404
12
Frame=521  time=261.000fs  energy=-306.20422768Ha  molecule=COOCCCHHHHHH
C      -0.1005257857      0.3499827618      0.1680368091
O       1.2002240324      0.8350201263      0.4143906683
O       2.3627864278     -0.0633081410     -0.1073327602
C      -0.3441186957     -1.2469191764     -0.5516194608
C      -1.7023535951     -1.7698116754     -0.7599956604
C      -1.2759394712      1.4604131759      0.7050103730
H       0.6679106180     -1.8781509814     -0.7594269125
H      -2.5498817163     -1.0326368791     -0.3938709264
H      -1.9846698893     -2.8509684963     -1.1074114054
H      -0.8482173996      2.6058886855      1.8293038598
H      -2.5660086113      0.6639606656      1.2876711262
H      -1.3726435009      1.9675526948     -0.5040423513
12
Frame=522  time=261.500fs  energy=-306.20435089Ha  molecule=COOCCCHHHHHH
C      -0.0979459841      0.3449525435      0.1686125939
O       1.1996954685      0.8370320566      0.4139623761
O       2.3626333701     -0.0620861404     -0.1073689531
C      -0.3428594493     -1.2401488062     -0.5487924051
C      -1.7023454841     -1.7727688938     -0.7633192729
C      -1.2760128016      1.4584544154      0.7046514915
H       0.6553911798     -1.8750821513     -0.7582066273
H      -2.5359064778     -1.0319460096     -0.3857856669
H      -1.9853906462     -2.8535292605     -1.1152419428
H      -0.8540445890      2.6109017155      1.8297860120
H      -2.5877775564      0.6389026095      1.2832761328
H      -1.3799334413      1.9729110775     -0.4908993008
12
Frame=523  time=262.000fs  energy=-306.20427073Ha  molecule=COOCCCHHHHHH
C      -0.0951027156      0.3392817741      0.1689642452
O       1.1991172380      0.8392013407      0.4134743339
O       2.3624500205     -0.0608922732     -0.1073564097
C      -0.3423892820     -1.2329971043     -0.5458485285
C      -1.7012819050     -1.7754007182     -0.7662660013
C      -1.2764032481      1.4566837807      0.7046365057
H       0.6424391452     -1.8742051077     -0.7583084463
H      -2.5257636849     -1.0300654447     -0.3797752673
H      -1.9847389466     -2.8590419032     -1.1249141881
H      -0.8582204957      2.6146575229      1.8296715221
H      -2.6099487418      0.6148102111      1.2774414901
H      -1.3868457485      1.9774335385     -0.4776167796
12
Frame=524  time=262.500fs  energy=-306.20402156Ha  molecule=COOCCCHHHHHH
C      -0.0921028244      0.3332582826      0.1690748605
O       1.1985777400      0.8415047916      0.4129221528
O       2.3622693818     -0.0597531241     -0.1072909886
C      -0.3427564693     -1.2257020459     -0.5428134763
C      -1.6991854729     -1.7776448566     -0.7688181753
C      -1.2771953384      1.4550130385      0.7051130356
H       0.6297170793     -1.8757665968     -0.7597308418
H      -2.5202249763     -1.0271188609     -0.3759918762
H      -1.9822117247     -2.8668559570     -1.1363901058
H      -0.8610116974      2.6167999541      1.8294872259
H      -2.6311522343      0.5922971016      1.2699240561
H      -1.3936795603      1.9810876344     -0.4658246103
12
Frame=525  time=263.000fs  energy=-306.20373532Ha  molecule=COOCCCHHHHHH
C      -0.0890956000      0.3271316288      0.1689385301
O       1.1982045099      0.8440380721      0.4123018090
O       2.3621747216     -0.0588060654     -0.1071698023
C      -0.3439003895     -1.2185200773     -0.5397146732
C      -1.6961960928     -1.7793663126     -0.7709740635
C      -1.2785951639      1.4532992966      0.7061653931
H       0.6173282013     -1.8795268524     -0.7624261289
H      -2.5197285158     -1.0240620916     -0.3744978804
H      -1.9767893022     -2.8760488271     -1.1495695002
H      -0.8623465324      2.6163894345      1.8297324285
H      -2.6502450895      0.5724585031      1.2609667964
H      -1.4005006593      1.9843493960     -0.4569606223
12
Frame=526  time=263.500fs  energy=-306.20338660Ha  molecule=COOCCCHHHHHH
C      -0.0861742341      0.3212301832      0.1685601968
O       1.1980392245      0.8466610306      0.4116094918
O       2.3621538728     -0.0579742840     -0.1069911551
C      -0.3456945899     -1.2117503293     -0.5365804188
C      -1.6925670462     -1.7805384370     -0.7727458441
C      -1.2805039905      1.4514814523      0.7077934947
H       0.6054165667     -1.8845726481     -0.7663074880
H      -2.5236796648     -1.0220481667     -0.3752753054
H      -1.9681581529     -2.8853483742     -1.1643011961
H      -0.8628904180      2.6137820841      1.8308390857
H      -2.6666789417      0.5554362726      1.2511292299
H      -1.4072673217      1.9867560063     -0.4518142450
12
Frame=527  time=264.000fs  energy=-306.20297494Ha  molecule=COOCCCHHHHHH
C      -0.0834109226      0.3158773829      0.1679554569
O       1.1980918227      0.8491754423      0.4108417028
O       2.3621683507     -0.0571251581     -0.1067545430
C      -0.3479602864     -1.2056797314     -0.5334393201
C      -1.6885985882     -1.7811595104     -0.7741578443
C      -1.2827425667      1.4495236790      0.7099137739
H       0.5940319445     -1.8897316266     -0.7712543113
H      -2.5310660704     -1.0222679996     -0.3782339476
H      -1.9563712218     -2.8936342570     -1.1803921149
H      -0.8634194969      2.6097602192      1.8331430647
H      -2.6803727547      0.5410757779      1.2412885827
H      -1.4136687383      1.9875907117     -0.4505141857
12
Frame=528  time=264.500fs  energy=-306.20238358Ha  molecule=COOCCCHHHHHH
C      -0.0808617026      0.3120111850      0.1671491764
O       1.1983919427      0.8513443440      0.4099952383
O       2.3622438184     -0.0561911415     -0.1064604428
C      -0.3503249594     -1.2008762056     -0.5303196890
C      -1.6846804251     -1.7810595967     -0.7752434742
C      -1.2854091255      1.4473698601      0.7123825737
H       0.5830355780     -1.8944940357     -0.7771214637
H      -2.5421878323     -1.0263060547     -0.3832275860
H      -1.9417531913     -2.9001359202     -1.1976215253
H      -0.8631760195      2.6033403529      1.8368699870
H      -2.6911410602      0.5287180873      1.2330020791
H      -1.4187192336      1.9857234339     -0.4531459006
12
Frame=529  time=265.000fs  energy=-306.20300588Ha  molecule=COOCCCHHHHHH
C      -0.0785204317      0.3115035544      0.1661715706
O       1.1989449888      0.8526981734      0.4090661495
O       2.3624244462     -0.0550342396     -0.1061092943
C      -0.3522011723     -1.1983311356     -0.5272500276
C      -1.6813143188     -1.7799312307     -0.7760384803
C      -1.2887741652      1.4449977532      0.7150323604
H       0.5724484131     -1.8992750820     -0.7837577741
H      -2.5589609510     -1.0359945221     -0.3900943215
H      -1.9253949154     -2.9042489863     -1.2157653558
H      -0.8599114021      2.5919378202      1.8421533780
H      -2.6984897788      0.5163583997      1.2284154924
H      -1.4208332274      1.9787574581     -0.4600542162
12
Frame=530  time=265.500fs  energy=-306.20373135Ha  molecule=COOCCCHHHHHH
C      -0.0765370353      0.3130544225      0.1650547664
O       1.1997977025      0.8535538311      0.4080475545
O       2.3626915731     -0.0537559271     -0.1056998272
C      -0.3537295780     -1.1974435603     -0.5242627182
C      -1.6784778439     -1.7779445912     -0.7765738554
C      -1.2926086912      1.4423099856      0.7176990802
H       0.5623004866     -1.9027478886     -0.7910211225
H      -2.5788127694     -1.0506039491     -0.3987037867
H      -1.9069426932     -2.9067312529     -1.2346108876
H      -0.8557398244      2.5784170441      1.8490807355
H      -2.7034081164      0.5061702439      1.2275401729
H      -1.4198428234      1.9684559321     -0.4694068207
12
Frame=531  time=266.000fs  energy=-306.20453561Ha  molecule=COOCCCHHHHHH
C      -0.0750452496      0.3154973421      0.1638382353
O       1.2009871263      0.8541942747      0.4069304143
O       2.3630301613     -0.0524483624     -0.1052297658
C      -0.3550281241     -1.1976354702     -0.5213954725
C      -1.6761324135     -1.7752721402     -0.7768828904
C      -1.2967203841      1.4392224945      0.7202390160
H       0.5528773325     -1.9041231349     -0.7987568963
H      -2.5996920628     -1.0689176423     -0.4089186549
H      -1.8863648297     -2.9086970474     -1.2539290600
H      -0.8524898374      2.5654128022      1.8576687761
H      -2.7067413748      0.5000594992      1.2302215470
H      -1.4155443078      1.9564268605     -0.4793911785
12
Frame=532  time=266.500fs  energy=-306.20536518Ha  molecule=COOCCCHHHHHH
C      -0.0741017699      0.3187204416      0.1625732497
O       1.2025184810      0.8546398263      0.4057051038
O       2.3634466711     -0.0511245939     -0.1046968684
C      -0.3559856405     -1.1987891271     -0.5186907143
C      -1.6743590694     -1.7719768350     -0.7770073229
C      -1.3010962821      1.4357018124      0.7225592860
H       0.5447826058     -1.9038481679     -0.8067819585
H      -2.6214882899     -1.0897248652     -0.4205561343
H      -1.8644511872     -2.9112577843     -1.2734555435
H      -0.8503904863      2.5536707943      1.8678216732
H      -2.7086811123      0.4983049153      1.2365086533
H      -1.4074647061      1.9429574873     -0.4889748308
12
Frame=533  time=267.000fs  energy=-306.20601948Ha  molecule=COOCCCHHHHHH
C      -0.0737282781      0.3225551597      0.1613239548
O       1.2043732158      0.8549240364      0.4043628943
O       2.3639460339     -0.0498016421     -0.1040997138
C      -0.3565176907     -1.2006976189     -0.5161935806
C      -1.6731883507     -1.7681980611     -0.7769996249
C      -1.3057081129      1.4317522698      0.7246509185
H       0.5387947213     -1.9028261968     -0.8148816712
H      -2.6443155426     -1.1111340512     -0.4333698796
H      -1.8421538228     -2.9156302394     -1.2928881644
H      -0.8496386106      2.5438361358      1.8793055532
H      -2.7092329086      0.5009101493      1.2457773584
H      -1.3956184747      1.9285174436     -0.4974412595
12
Frame=534  time=267.500fs  energy=-306.20633363Ha  molecule=COOCCCHHHHHH
C      -0.0739001218      0.3267779250      0.1601648141
O       1.2065047372      0.8550940038      0.4028977093
O       2.3645308508     -0.0484997893     -0.1034386045
C      -0.3565712039     -1.2030839102     -0.5139474975
C      -1.6726117020     -1.7641545994     -0.7769224205
C      -1.3104965577      1.4274273757      0.7266030166
H       0.5356773150     -1.9021782854     -0.8228179863
H      -2.6683451412     -1.1309083425     -0.4470462496
H      -1.8204060259     -2.9227733929     -1.3118987174
H      -0.8504134950      2.5363339956      1.8917455188
H      -2.7082509941      0.5075409871      1.2567483330
H      -1.3806678303      1.9137656503     -0.5046002632
12
Frame=535  time=268.000fs  energy=-306.20624978Ha  molecule=COOCCCHHHHHH
C      -0.0745448098      0.3311268145      0.1591745408
O       1.2088411000      0.8552072324      0.4013073334
O       2.3652011148     -0.0472407969     -0.1027161519
C      -0.3561239329     -1.2056476115     -0.5119891173
C      -1.6726070862     -1.7601183948     -0.7768444465
C      -1.3153622434      1.4228295361      0.7285799338
H       0.5359303283     -1.9028506987     -0.8303475725
H      -2.6935353199     -1.1470686245     -0.4612216017
H      -1.7999035366     -2.9330070639     -1.3301559588
H      -0.8528784209      2.5312983244      1.9046577701
H      -2.7055851437      0.5175565834      1.2677746529
H      -1.3638793009      1.8994905420     -0.5108233410
12
Frame=536  time=268.500fs  energy=-306.20578865Ha  molecule=COOCCCHHHHHH
C      -0.0755512206      0.3353277951      0.1584288322
O       1.2112937365      0.8553258314      0.3995937181
O       2.3659544566     -0.0460454738     -0.1019373286
C      -0.3551795582     -1.2081209274     -0.5103446225
C      -1.6731649518     -1.7563654711     -0.7768348948
C      -1.3201715649      1.4180968445      0.7307673769
H       0.5395846712     -1.9052302447     -0.8372426537
H      -2.7193725532     -1.1585146869     -0.4755126512
H      -1.7809679710     -2.9458195647     -1.3473503887
H      -0.8571514067      2.5285951435      1.9175043510
H      -2.7012732631      0.5301208547      1.2772765202
H      -1.3468625544      1.8864994910     -0.5168438194
12
Frame=537  time=269.000fs  energy=-306.20499843Ha  molecule=COOCCCHHHHHH
C      -0.0767846644      0.3391235018      0.1579934893
O       1.2137683030      0.8555095903      0.3977628148
O       2.3667864644     -0.0449310653     -0.1011091566
C      -0.3537642622     -1.2103084979     -0.5090275889
C      -1.6742913305     -1.7531259467     -0.7769578784
C      -1.3247773165      1.4133832158      0.7333102846
H       0.5461360426     -1.9089709762     -0.8433096514
H      -2.7448099231     -1.1653075379     -0.4895486533
H      -1.7635835771     -2.9600118768     -1.3632167303
H      -0.8632487194      2.5279135820      1.9297512356
H      -2.6956869655      0.5443339326      1.2841304905
H      -1.3311958400      1.8754909228     -0.5234023206
12
Frame=538  time=269.500fs  energy=-306.20376143Ha  molecule=COOCCCHHHHHH
C      -0.0781044166      0.3423016507      0.1579181559
O       1.2161754326      0.8558088871      0.3958242534
O       2.3676908890     -0.0439088756     -0.1002401856
C      -0.3519285410     -1.2120982778     -0.5080378670
C      -1.6759841011     -1.7505520167     -0.7772673106
C      -1.3290470599      1.4088378529      0.7362653850
H       0.5546664271     -1.9131426313     -0.8484051694
H      -2.7684792348     -1.1684723040     -0.5030019947
H      -1.7475718154     -2.9741159760     -1.3775551160
H      -0.8710325245      2.5288688494      1.9409240270
H      -2.6895639898      0.5593437744      1.2878939139
H      -1.3180689198      1.8669384328     -0.5308967180
12
Frame=539  time=270.000fs  energy=-306.20274618Ha  molecule=COOCCCHHHHHH
C      -0.0794663419      0.3430374590      0.1582320977
O       1.2184635573      0.8566757763      0.3937905308
O       2.3686262430     -0.0431091480     -0.0993396749
C      -0.3501291775     -1.2126184386     -0.5073622074
C      -1.6779470485     -1.7489634066     -0.7778029478
C      -1.3326132914      1.4045460527      0.7395883696
H       0.5640106546     -1.9155086265     -0.8524462121
H      -2.7865174889     -1.1683653757     -0.5156142486
H      -1.7319092497     -2.9873604543     -1.3902461292
H      -0.8825645684      2.5339638909      1.9506569164
H      -2.6846878724      0.5766381917      1.2877179731
H      -1.3088725729      1.8632408758     -0.5381294921
12
Frame=540  time=270.500fs  energy=-306.20233456Ha  molecule=COOCCCHHHHHH
C      -0.0807766729      0.3410124202      0.1589509664
O       1.2205776385      0.8581896504      0.3916743959
O       2.3695805093     -0.0425483640     -0.0984161610
C      -0.3485158660     -1.2117456798     -0.5069827123
C      -1.6800653811     -1.7484057826     -0.7785937538
C      -1.3353895958      1.4006042231      0.7431642659
H       0.5732090752     -1.9149495823     -0.8553907387
H      -2.7975105281     -1.1662550569     -0.5271899705
H      -1.7164729864     -2.9989695244     -1.4012203758
H      -0.8977659255      2.5433038654      1.9586880558
H      -2.6822017800      0.5959458952      1.2840859203
H      -1.3037867952      1.8646604263     -0.5443803768
12
Frame=541  time=271.000fs  energy=-306.20169563Ha  molecule=COOCCCHHHHHH
C      -0.0818444397      0.3383523413      0.1600830147
O       1.2224431739      0.8598240191      0.3894878333
O       2.3705910648     -0.0420596281     -0.0974771185
C      -0.3467127892     -1.2105494194     -0.5068815975
C      -1.6825529436     -1.7485369258     -0.7796620651
C      -1.3377198464      1.3971492939      0.7468438355
H       0.5816854728     -1.9122675653     -0.8572189854
H      -2.8040116326     -1.1646816055     -0.5375778129
H      -1.7025680668     -3.0079005083     -1.4104314494
H      -0.9131269827      2.5529732226      1.9648404241
H      -2.6820077732      0.6139427908      1.2791592372
H      -1.3015033835      1.8681461538     -0.5501886538
12
Frame=542  time=271.500fs  energy=-306.20118725Ha  molecule=COOCCCHHHHHH
C      -0.0826067458      0.3351962879      0.1616257985
O       1.2240294644      0.8615459784      0.3872427573
O       2.3716548077     -0.0416254007     -0.0965292512
C      -0.3448192377     -1.2090983269     -0.5070382592
C      -1.6852710341     -1.7493018235     -0.7810213970
C      -1.3396508363      1.3942450197      0.7504726136
H       0.5890357143     -1.9073540275     -0.8579409190
H      -2.8059587298     -1.1643388569     -0.5466781604
H      -1.6905869788     -3.0141670398     -1.4178724032
H      -0.9279856864      2.5626020672      1.9690433019
H      -2.6847319668      0.6300787664      1.2737668660
H      -1.3014487407      1.8732067273     -0.5547065259
12
Frame=543  time=272.000fs  energy=-306.20081358Ha  molecule=COOCCCHHHHHH
C      -0.0830244702      0.3316858573      0.1635706031
O       1.2253182512      0.8633224138      0.3849505906
O       2.3727688798     -0.0412284918     -0.0955784314
C      -0.3429494820     -1.2074415047     -0.5074321024
C      -1.6880495282     -1.7506500995     -0.7826795686
C      -1.3412476185      1.3919381199      0.7539163535
H       0.5951238695     -1.9004692851     -0.8575829526
H      -2.8036352301     -1.1654134422     -0.5544272048
H      -1.6809975444     -3.0181040275     -1.4235573815
H      -0.9417553229      2.5719160761      1.9713104813
H      -2.6907194124      0.6439067981      1.2685493472
H      -1.3029987451      1.8793388785     -0.5571483430
12
Frame=544  time=272.500fs  energy=-306.20065350Ha  molecule=COOCCCHHHHHH
C      -0.0830268192      0.3280386109      0.1659057688
O       1.2262321988      0.8649183220      0.3826222288
O       2.3738493888     -0.0406688442     -0.0946298381
C      -0.3412410667     -1.2056380596     -0.5080441052
C      -1.6907210206     -1.7526508184     -0.7846413779
C      -1.3423348661      1.3903379176      0.7570750101
H       0.6003377441     -1.8919757754     -0.8561780604
H      -2.7971155658     -1.1674415813     -0.5607825088
H      -1.6748837110     -3.0199942113     -1.4275078261
H      -0.9545995646      2.5817417415      1.9717199007
H      -2.7001770119      0.6542452913      1.2637894217
H      -1.3057417743      1.8852658659     -0.5567919213
12
Frame=545  time=273.000fs  energy=-306.20072559Ha  molecule=COOCCCHHHHHH
C      -0.0826013842      0.3244040312      0.1686193041
O       1.2267583703      0.8662758806      0.3802683594
O       2.3748847165     -0.0399079052     -0.0936882428
C      -0.3398193085     -1.2037133506     -0.5088577719
C      -1.6930930045     -1.7553009099     -0.7869110633
C      -1.3429535711      1.3894852245      0.7598880310
H       0.6049255682     -1.8825743541     -0.8537580311
H      -2.7870624907     -1.1698354397     -0.5657090477
H      -1.6728070502     -3.0203817581     -1.4297400793
H      -0.9662005067      2.5920210920      1.9703959539
H      -2.7129194225      0.6606428580      1.2596186386
H      -1.3092752754      1.8904580879     -0.5532556046
12
Frame=546  time=273.500fs  energy=-306.20092094Ha  molecule=COOCCCHHHHHH
C      -0.0818015867      0.3208546105      0.1716988111
O       1.2269590561      0.8675497129      0.3779000747
O       2.3759502975     -0.0391012989     -0.0927583099
C      -0.3387888865     -1.2016634526     -0.5098585852
C      -1.6949535435     -1.7585051530     -0.7894928294
C      -1.3434007262      1.3893411253      0.7623363642
H       0.6088783133     -1.8732543735     -0.8503531116
H      -2.7747529637     -1.1720299018     -0.5691748945
H      -1.6746586204     -3.0200219136     -1.4302641190
H      -0.9756419971      2.6015958807      1.9675071794
H      -2.7283557896      0.6635063570      1.2560585301
H      -1.3132177608      1.8952807215     -0.5465713155
12
Frame=547  time=274.000fs  energy=-306.20126593Ha  molecule=COOCCCHHHHHH
C      -0.0806629397      0.3175211566      0.1751293708
O       1.2268583184      0.8687647931      0.3755294192
O       2.3770710635     -0.0382888828     -0.0918447598
C      -0.3382515745     -1.1995115266     -0.5110325658
C      -1.6961199014     -1.7622468215     -0.7923896575
C      -1.3438074444      1.3899077080      0.7644432618
H       0.6124057338     -1.8649075197     -0.8459973847
H      -2.7612283630     -1.1732286687     -0.5711565651
H      -1.6805872178     -3.0194059340     -1.4290919026
H      -0.9825320002      2.6099435194      1.9632750733
H      -2.7457475795      0.6627633063      1.2528703357
H      -1.3174762634      1.8996447629     -0.5370458456
12
Frame=548  time=274.500fs  energy=-306.20176975Ha  molecule=COOCCCHHHHHH
C      -0.0792239855      0.3145671608      0.1788917341
O       1.2264680008      0.8698914772      0.3731698999
O       2.3782520360     -0.0374632484     -0.0909525043
C      -0.3382885906     -1.1973097110     -0.5123652431
C      -1.6964494483     -1.7665403002     -0.7956023733
C      -1.3442272127      1.3911975039      0.7662703304
H       0.6157535560     -1.8582888613     -0.8407333597
H      -2.7473844570     -1.1726441508     -0.5716436105
H      -1.6907130332     -3.0187610909     -1.4262433702
H      -0.9867702893      2.6167815448      1.9579799631
H      -2.7641867268      0.6581825362      1.2496664617
H      -1.3221916842      1.9033067039     -0.5253237111
12
Frame=549  time=275.000fs  energy=-306.20241963Ha  molecule=COOCCCHHHHHH
C      -0.0775418903      0.3121707113      0.1829602834
O       1.2258057876      0.8708967206      0.3708369942
O       2.3794991675     -0.0366164250     -0.0900867559
C      -0.3389422828     -1.1951448597     -0.5138406661
C      -1.6958569384     -1.7713923237     -0.7991285677
C      -1.3446954210      1.3932104031      0.7679081836
H       0.6190520231     -1.8539412160     -0.8346172090
H      -2.7339776174     -1.1697473982     -0.5706444370
H      -1.7049114436     -3.0180310537     -1.4217528281
H      -0.9883889307      2.6218107718      1.9519657485
H      -2.7826135113      0.6496107775      1.2460376385
H      -1.3276736146      1.9060689115     -0.5123968870
12
Frame=550  time=275.500fs  energy=-306.20288974Ha  molecule=COOCCCHHHHHH
C      -0.0756805584      0.3108267429      0.1873001622
O       1.2248923320      0.8716689640      0.3685485555
O       2.3808252807     -0.0357170316     -0.0892530567
C      -0.3401307252     -1.1932998816     -0.5154401408
C      -1.6943859175     -1.7767393787     -0.8029606650
C      -1.3452775905      1.3959340508      0.7694607213
H       0.6222658868     -1.8522697883     -0.8277262636
H      -2.7219588661     -1.1646783883     -0.5681966401
H      -1.7229129955     -3.0167423970     -1.4156794950
H      -0.9871266079      2.6242247692      1.9456432284
H      -2.7997539564      0.6366231575      1.2418752044
H      -1.3341869608      1.9073709060     -0.4997245732
12
Frame=551  time=276.000fs  energy=-306.20422327Ha  molecule=COOCCCHHHHHH
C      -0.0736514265      0.3125672797      0.1918643750
O       1.2237353321      0.8717150841      0.3663250860
O       2.3822743172     -0.0346182823     -0.0884572581
C      -0.3413566235     -1.1928640130     -0.5171410950
C      -1.6924146093     -1.7822450869     -0.8070837060
C      -1.3462722429      1.3993663880      0.7710208609
H       0.6252263671     -1.8542641022     -0.8201664460
H      -2.7142291021     -1.1592173237     -0.5643785376
H      -1.7449261344     -3.0136754091     -1.4081188725
H      -0.9806890075      2.6206603993      1.9394855853
H      -2.8136541029      0.6169669006      1.2383098521
H      -1.3412468529      1.9046575194     -0.4898579163
12
Frame=552  time=276.500fs  energy=-306.20544621Ha  molecule=COOCCCHHHHHH
C      -0.0716404542      0.3164871171      0.1965928972
O       1.2223903205      0.8712701852      0.3641910289
O       2.3838313379     -0.0333942144     -0.0877059276
C      -0.3427177609     -1.1935248811     -0.5189172741
C      -1.6899627555     -1.7879621933     -0.8114761607
C      -1.3474838755      1.4034035803      0.7726402043
H       0.6273846804     -1.8585784858     -0.8120728100
H      -2.7088910913     -1.1537566289     -0.5593056950
H      -1.7694017184     -3.0083544264     -1.3991985466
H      -0.9709963282      2.6129034822      1.9340187141
H      -2.8239085520      0.5924856313      1.2349968836
H      -1.3495936729      1.8992440611     -0.4833526998
12
Frame=553  time=277.000fs  energy=-306.20619971Ha  molecule=COOCCCHHHHHH
C      -0.0698747572      0.3212975363      0.2014072559
O       1.2209279009      0.8706625291      0.3621729463
O       2.3854719218     -0.0321462180     -0.0870055301
C      -0.3443195059     -1.1948157815     -0.5207361925
C      -1.6870869411     -1.7939278621     -0.8161020522
C      -1.3486579027      1.4078869729      0.7742966747
H       0.6280864450     -1.8633472044     -0.8036251705
H      -2.7032259675     -1.1489032131     -0.5531677858
H      -1.7944444962     -3.0005463288     -1.3891163788
H      -0.9605299419      2.6035718697      1.9297883769
H      -2.8306249458      0.5658230997      1.2318951995
H      -1.3597286368      1.8929047413     -0.4800828750
12
Frame=554  time=277.500fs  energy=-306.20645556Ha  molecule=COOCCCHHHHHH
C      -0.0685252944      0.3268385616      0.2062131332
O       1.2194089390      0.8699362826      0.3602961750
O       2.3871904960     -0.0308875917     -0.0863615934
C      -0.3459538259     -1.1968243264     -0.5225594307
C      -1.6840736540     -1.7999440074     -0.8209074485
C      -1.3497504583      1.4126419833      0.7758813337
H       0.6269015924     -1.8675265523     -0.7950436921
H      -2.6962687205     -1.1460801574     -0.5462393136
H      -1.8188207149     -2.9901433390     -1.3781525103
H      -0.9500890161      2.5935203346      1.9272850936
H      -2.8338253846      0.5383718717      1.2301637323
H      -1.3710274448      1.8858441354     -0.4799159282
12
Frame=555  time=278.000fs  energy=-306.20621078Ha  molecule=COOCCCHHHHHH
C      -0.0677411141      0.3328883155      0.2109099752
O       1.2178917249      0.8691458866      0.3585826953
O       2.3889757304     -0.0296321530     -0.0857784976
C      -0.3474156570     -1.1995638079     -0.5243461061
C      -1.6811873630     -1.8057968703     -0.8258250665
C      -1.3507469549      1.4174718020      0.7772276716
H       0.6237755543     -1.8704915453     -0.7865653041
H      -2.6873440408     -1.1461857367     -0.5388512845
H      -1.8415678596     -2.9777094562     -1.3666432473
H      -0.9403741559      2.5837925644      1.9268743091
H      -2.8339175205      0.5116647664      1.2310556426
H      -1.3824003118      1.8782786018     -0.4819521066
12
Frame=556  time=278.500fs  energy=-306.20555862Ha  molecule=COOCCCHHHHHH
C      -0.0676259125      0.3391887228      0.2154013722
O       1.2164227167      0.8683495426      0.3570496511
O       2.3908112776     -0.0283920672     -0.0852592612
C      -0.3485399780     -1.2029621129     -0.5260570648
C      -1.6786191556     -1.8113012831     -0.8307811471
C      -1.3516654271      1.4221861375      0.7781704162
H       0.6191179569     -1.8722418071     -0.7784184469
H      -2.6763196992     -1.1492474998     -0.5313546710
H      -1.8621043000     -2.9644125026     -1.3549481334
H      -0.9319264389      2.5754412229      1.9287471816
H      -2.8314709191      0.4871438881      1.2354993529
H      -1.3925768195      1.8704546924     -0.4848234501
12
Frame=557  time=279.000fs  energy=-306.20464431Ha  molecule=COOCCCHHHHHH
C      -0.0682242592      0.3454713341      0.2196038192
O       1.2150308298      0.8676034650      0.3557084313
O       2.3926772053     -0.0271763188     -0.0848052554
C      -0.3492220177     -1.2068757352     -0.5276587481
C      -1.6764656714     -1.8163342558     -0.8357025925
C      -1.3525451386      1.4266261636      0.7786066847
H       0.6137194012     -1.8733348483     -0.7708024300
H      -2.6636549332     -1.1544016804     -0.5240860996
H      -1.8801993151     -2.9517394376     -1.3434188041
H      -0.9251249457      2.5693455850      1.9328995257
H      -2.8269991475      0.4659707819      1.2437841336
H      -1.4004669037      1.8626785215     -0.4871363831
12
Frame=558  time=279.500fs  energy=-306.20363378Ha  molecule=COOCCCHHHHHH
C      -0.0695210341      0.3514815895      0.2234525736
O       1.2137265332      0.8669573316      0.3545644553
O       2.3945519716     -0.0259899863     -0.0844160700
C      -0.3494191564     -1.2111235163     -0.5291258212
C      -1.6747384300     -1.8208472155     -0.8405232831
C      -1.3534268129      1.4306803733      0.7785343231
H       0.6085389597     -1.8746091131     -0.7638740243
H      -2.6502395758     -1.1601918490     -0.5173403371
H      -1.8958498582     -2.9411124494     -1.3323723382
H      -0.9202182318      2.5660781481      1.9391464899
H      -2.8208298970      0.4489166366      1.2554734598
H      -1.4054563428      1.8553273054     -0.4878860796
12
Frame=559  time=280.000fs  energy=-306.20268177Ha  molecule=COOCCCHHHHHH
C      -0.0714533526      0.3569982064      0.2269032375
O       1.2125050886      0.8664514235      0.3536180154
O       2.3964145238     -0.0248343143     -0.0840897872
C      -0.3491379853     -1.2155266696     -0.5304418540
C      -1.6733941541     -1.8248547331     -0.8451882172
C      -1.3543348352      1.4342880442      0.7780517203
H       0.6044615510     -1.8768490614     -0.7577434198
H      -2.6371089571     -1.1650388469     -0.5113545368
H      -1.9091313032     -2.9335649643     -1.3220737780
H      -0.9173634843      2.5658596682      1.9471704720
H      -2.8130964554      0.4363562175      1.2695700433
H      -1.4075154377      1.8488282486     -0.4866749340
12
Frame=560  time=280.500fs  energy=-306.20162753Ha  molecule=COOCCCHHHHHH
C      -0.0739290979      0.3618421764      0.2299286124
O       1.2113517771      0.8661161096      0.3528661830
O       2.3982457871     -0.0237073942     -0.0838236616
C      -0.3484138553     -1.2199392851     -0.5315979785
C      -1.6723708325     -1.8284078684     -0.8496542567
C      -1.3552693584      1.4374310078      0.7773251227
H       0.6021267064     -1.8805424370     -0.7524800846
H      -2.6251679239     -1.1676680946     -0.5063081386
H      -1.9200802794     -2.9295936240     -1.3127332133
H      -0.9166559085      2.5686072983      1.9565827519
H      -2.8038196939      0.4283533485      1.2848222805
H      -1.4071033293      1.8436172111     -0.4836773875
12
Frame=561  time=281.000fs  energy=-306.20111877Ha  molecule=COOCCCHHHHHH
C      -0.0769421364      0.3639323524      0.2325126617
O       1.2102735922      0.8664551137      0.3523051220
O       2.3999900923     -0.0227508637     -0.0836149190
C      -0.3477303520     -1.2233035301     -0.5325903846
C      -1.6713171754     -1.8318581312     -0.8538880441
C      -1.3558902341      1.4400712118      0.7765474067
H       0.6017567651     -1.8845098240     -0.7481249844
H      -2.6120968874     -1.1660387745     -0.5023356226
H      -1.9276314996     -2.9297753625     -1.3045162546
H      -0.9208764840      2.5773610889      1.9669745927
H      -2.7939303736      0.4273444091      1.2987584629
H      -1.4058928083      1.8426634514     -0.4782052824
12
Frame=562  time=281.500fs  energy=-306.20167364Ha  molecule=COOCCCHHHHHH
C      -0.0804154896      0.3627119545      0.2346337490
O       1.2092548929      0.8675951682      0.3519362577
O       2.4016225871     -0.0219914808     -0.0834625853
C      -0.3472184493     -1.2253486970     -0.5334140127
C      -1.6701417242     -1.8353103708     -0.8578558719
C      -1.3560902444      1.4422136403      0.7759104719
H       0.6034305272     -1.8882372726     -0.7447252451
H      -2.5975669530     -1.1596562380     -0.4995706955
H      -1.9313406950     -2.9339111971     -1.2975907716
H      -0.9306747254      2.5925069289      1.9779520489
H      -2.7836708725      0.4337765680      1.3100318526
H      -1.4049252745      1.8469384268     -0.4706981947
12
Frame=563  time=282.000fs  energy=-306.20192807Ha  molecule=COOCCCHHHHHH
C      -0.0841307935      0.3606610352      0.2362569479
O       1.2082532563      0.8689017270      0.3517682937
O       2.4031734385     -0.0212189807     -0.0833680461
C      -0.3462921541     -1.2273799268     -0.5340598025
C      -1.6692833263     -1.8383456934     -0.8615166206
C      -1.3562539750      1.4439429669      0.7755996700
H       0.6075367749     -1.8927898996     -0.7423497064
H      -2.5857740252     -1.1506244381     -0.4981736722
H      -1.9321453437     -2.9406669847     -1.2921586031
H      -0.9423882537      2.6091746686      1.9891119849
H      -2.7719279442      0.4441310640      1.3194145576
H      -1.4038098936      1.8533991726     -0.4636007571
12
Frame=564  time=282.500fs  energy=-306.20225132Ha  molecule=COOCCCHHHHHH
C      -0.0879885228      0.3578101673      0.2373484357
O       1.2072642770      0.8703450781      0.3518110594
O       2.4046210935     -0.0204031280     -0.0833333446
C      -0.3449189070     -1.2295295024     -0.5345198882
C      -1.6688285659     -1.8408804249     -0.8648298813
C      -1.3563578267      1.4452943871      0.7757741062
H       0.6142242553     -1.8972665922     -0.7410584179
H      -2.5769647093     -1.1399600922     -0.4982972199
H      -1.9296648867     -2.9492253753     -1.2884187183
H      -0.9557077280      2.6266419900      2.0000142322
H      -2.7589713317      0.4580781551      1.3263667160
H      -1.4032803494      1.8621832225     -0.4577130160
12
Frame=565  time=283.000fs  energy=-306.20257393Ha  molecule=COOCCCHHHHHH
C      -0.0918613207      0.3542818272      0.2378792941
O       1.2062412438      0.8719866376      0.3520740550
O       2.4059991788     -0.0196129864     -0.0833608823
C      -0.3431091558     -1.2318067963     -0.5347888318
C      -1.6687308295     -1.8428971321     -0.8677584855
C      -1.3564935443      1.4462542647      0.7765419279
H       0.6220932052     -1.9012758880     -0.7408937419
H      -2.5707489138     -1.1290658242     -0.5000733979
H      -1.9234922222     -2.9587137297     -1.2865539009
H      -0.9697960923      2.6435669617      2.0101846096
H      -2.7452360927      0.4755108817      1.3307943655
H      -1.4037837098      1.8736063393     -0.4536741386
12
Frame=566  time=283.500fs  energy=-306.20283245Ha  molecule=COOCCCHHHHHH
C      -0.0956114083      0.3502098719      0.2378304178
O       1.2051345803      0.8737424562      0.3525647512
O       2.4072747156     -0.0187789637     -0.0834530595
C      -0.3408854906     -1.2343089410     -0.5348651334
C      -1.6690052310     -1.8443608662     -0.8702726127
C      -1.3565951046      1.4468841631      0.7779387843
H       0.6306351291     -1.9039537360     -0.7418694208
H      -2.5666069186     -1.1195189667     -0.5035955099
H      -1.9137034144     -2.9681878553     -1.2867108361
H      -0.9841355012      2.6594009116      2.0191348540
H      -2.7315696253      0.4957364185      1.3329143306
H      -1.4055944750      1.8873193060     -0.4516098040
12
Frame=567  time=284.000fs  energy=-306.20300372Ha  molecule=COOCCCHHHHHH
C      -0.0991078298      0.3457503170      0.2371961701
O       1.2038978580      0.8755243864      0.3532873995
O       2.4084155939     -0.0178302396     -0.0836120132
C      -0.3383047741     -1.2371066127     -0.5347521393
C      -1.6696203871     -1.8452427140     -0.8723535070
C      -1.3566160170      1.4472545676      0.7799211682
H       0.6393854922     -1.9046647105     -0.7439633030
H      -2.5640014703     -1.1128148290     -0.5089025130
H      -1.9006488926     -2.9769238382     -1.2889821621
H      -0.9980513373      2.6736652262      2.0263957694
H      -2.7190249756      0.5179751951      1.3333039430
H      -1.4086207657      1.9027898957     -0.4511502798
12
Frame=568  time=284.500fs  energy=-306.20309325Ha  molecule=COOCCCHHHHHH
C      -0.1022479109      0.3410582710      0.2359859790
O       1.2025066602      0.8772879106      0.3542425231
O       2.4094096251     -0.0167378178     -0.0838394677
C      -0.3354584093     -1.2402220215     -0.5344582446
C      -1.6704803912     -1.8455128671     -0.8739957529
C      -1.3565896512      1.4474264667      0.7823797730
H       0.6479645335     -1.9032149013     -0.7471150088
H      -2.5626480048     -1.1100974851     -0.5159703124
H      -1.8848523581     -2.9845854917     -1.2933956360
H      -1.0106215384      2.6857528653      2.0315560100
H      -2.7086690595      0.5415471254      1.3327744791
H      -1.4123973173      1.9194999505     -0.4515074547
12
Frame=569  time=285.000fs  energy=-306.20311651Ha  molecule=COOCCCHHHHHH
C      -0.1049543679      0.3362976438      0.2342237737
O       1.2009463425      0.8789896335      0.3554270533
O       2.4102468806     -0.0154752999     -0.0841366897
C      -0.3324714529     -1.2436283147     -0.5339964841
C      -1.6714284197     -1.8451791698     -0.8752076374
C      -1.3565723206      1.4474653492      0.7851686308
H       0.6562070242     -1.8998857012     -0.7512283148
H      -2.5625335559     -1.1118733875     -0.5247116134
H      -1.8671066564     -2.9911986326     -1.2999125402
H      -1.0209091387      2.6951686091      2.0342978935
H      -2.7014245727      0.5657061385      1.3321404972
H      -1.4162316885      1.9368140879     -0.4516232804
12
Frame=570  time=285.500fs  energy=-306.20310065Ha  molecule=COOCCCHHHHHH
C      -0.1071806932      0.3316333182      0.2319462054
O       1.1992135723      0.8805895822      0.3568347605
O       2.4109200630     -0.0140202492     -0.0845044809
C      -0.3294901617     -1.2472537368     -0.5333838486
C      -1.6722599500     -1.8442972112     -0.8760101540
C      -1.3566349653      1.4474387442      0.7881409341
H       0.6641498588     -1.8953849550     -0.7561761793
H      -2.5639561122     -1.1179208708     -0.5349817911
H      -1.8483823892     -2.9970837003     -1.3084324692
H      -1.0280612614      2.7015167198      2.0344258099
H      -2.6978973876      0.5896590566      1.3320239928
H      -1.4193736224      1.9540440498     -0.4504193079
12
Frame=571  time=286.000fs  energy=-306.20303467Ha  molecule=COOCCCHHHHHH
C      -0.1089128446      0.3272235264      0.2291999545
O       1.1973163353      0.8820531680      0.3584569481
O       2.4114246693     -0.0123551537     -0.0849432379
C      -0.3266638514     -1.2509948390     -0.5326404110
C      -1.6727480730     -1.8429719460     -0.8764348922
C      -1.3568499695      1.4474133090      0.7911828268
H       0.6719550936     -1.8906912682     -0.7618075480
H      -2.5674666112     -1.1273677419     -0.5465894291
H      -1.8297009719     -3.0027193165     -1.3188032278
H      -1.0314004214      2.7044763646      2.0318822160
H      -2.6982624820      0.6125918699      1.3327166947
H      -1.4212000204      1.9705188409     -0.4470639317
12
Frame=572  time=286.500fs  energy=-306.20296835Ha  molecule=COOCCCHHHHHH
C      -0.1101228622      0.3240933837      0.2260384089
O       1.1952602839      0.8831343066      0.3602834538
O       2.4117765115     -0.0104015703     -0.0854531517
C      -0.3239266857     -1.2551686358     -0.5317883488
C      -1.6728098772     -1.8412177714     -0.8765211631
C      -1.3574206572      1.4474734135      0.7942365381
H       0.6798472095     -1.8874197821     -0.7679548389
H      -2.5750585232     -1.1395044239     -0.5593097654
H      -1.8124583323     -3.0083125520     -1.3308343469
H      -1.0292489106      2.7022665754      2.0267474851
H      -2.7018186461      0.6325407785      1.3346987348
H      -1.4209484167      1.9844850053     -0.4417511862
12
Frame=573  time=287.000fs  energy=-306.20377931Ha  molecule=COOCCCHHHHHH
C      -0.1107956401      0.3234413504      0.2225157224
O       1.1930554213      0.8835466666      0.3623053048
O       2.4119957055     -0.0080700462     -0.0860351492
C      -0.3211417932     -1.2601864400     -0.5308504153
C      -1.6724237541     -1.8390475376     -0.8763105499
C      -1.3585569049      1.4477013819      0.7973065993
H       0.6879547791     -1.8871660412     -0.7744421588
H      -2.5889704999     -1.1536183917     -0.5729038302
H      -1.7979765873     -3.0138653670     -1.3443219158
H      -1.0198912396      2.6927810746      2.0192065818
H      -2.7074049135      0.6473150121      1.3382533090
H      -1.4181087001      1.9940417906     -0.4353435187
12
Frame=574  time=287.500fs  energy=-306.20449059Ha  molecule=COOCCCHHHHHH
C      -0.1110716392      0.3236923319      0.2186841205
O       1.1907555095      0.8836944662      0.3645168418
O       2.4120449944     -0.0054793912     -0.0866919741
C      -0.3187626596     -1.2651050364     -0.5298495862
C      -1.6711912315     -1.8369051094     -0.8758439584
C      -1.3599846550      1.4481026195      0.8004518588
H       0.6960336034     -1.8894206923     -0.7810833190
H      -2.6070839111     -1.1672744182     -0.5871230396
H      -1.7859423728     -3.0199628616     -1.3590600820
H      -1.0056851728      2.6786032465      2.0095236667
H      -2.7149122913      0.6583698504      1.3416842125
H      -1.4138183048      2.0010153453     -0.4274784974
12
Frame=575  time=288.000fs  energy=-306.20518324Ha  molecule=COOCCCHHHHHH
C      -0.1110630260      0.3243189689      0.2146024950
O       1.1884064263      0.8837263634      0.3669116320
O       2.4119106914     -0.0026736562     -0.0874268473
C      -0.3169456624     -1.2695305215     -0.5288113007
C      -1.6689708468     -1.8350752972     -0.8751689527
C      -1.3615628131      1.4486918270      0.8037662295
H       0.7036013833     -1.8939139235     -0.7876720444
H      -2.6284098122     -1.1791991536     -0.6016866426
H      -1.7762932238     -3.0265049322     -1.3748044919
H      -0.9877579416      2.6605623190      1.9980977360
H      -2.7235071003      0.6658449046      1.3439215116
H      -1.4090307358      2.0059421710     -0.4190142703
12
Frame=576  time=288.500fs  energy=-306.20570353Ha  molecule=COOCCCHHHHHH
C      -0.1108860384      0.3252232512      0.2103393561
O       1.1860534424      0.8836892793      0.3694801020
O       2.4115928850      0.0003286888     -0.0882424819
C      -0.3156720479     -1.2733298858     -0.5277636806
C      -1.6658204858     -1.8337483607     -0.8743424082
C      -1.3631816285      1.4494649132      0.8073421426
H       0.7098925866     -1.9001151816     -0.7939861945
H      -2.6519562021     -1.1891577651     -0.6162793047
H      -1.7688507693     -3.0328748622     -1.3912577337
H      -0.9668803580      2.6389095855      1.9854772795
H      -2.7320756634      0.6694830107      1.3443570551
H      -1.4046700699      2.0088933372     -0.4114360220
12
Frame=577  time=289.000fs  energy=-306.20590140Ha  molecule=COOCCCHHHHHH
C      -0.1106772372      0.3262943637      0.2059718268
O       1.1837440420      0.8836370925      0.3722082506
O       2.4110980198      0.0035003567     -0.0891401930
C      -0.3148486927     -1.2764174776     -0.5267364640
C      -1.6619326753     -1.8330587683     -0.8734298875
C      -1.3647033004      1.4503771764      0.8112213031
H       0.7139653593     -1.9070429199     -0.7998023202
H      -2.6760767073     -1.1977070463     -0.6305640675
H      -1.7631527576     -3.0382347967     -1.4080720480
H      -0.9440231966      2.6141897875      1.9723339106
H      -2.7396539702      0.6693158387      1.3428064036
H      -1.4015825707      2.0100426492     -0.4061763406
12
Frame=578  time=289.500fs  energy=-306.20572772Ha  molecule=COOCCCHHHHHH
C      -0.1105799512      0.3274187064      0.2015813694
O       1.1815234430      0.8836257503      0.3750775711
O       2.4104389500      0.0068069179     -0.0901192280
C      -0.3143304259     -1.2787487112     -0.5257591942
C      -1.6575958236     -1.8330700118     -0.8725021131
C      -1.3659881283      1.4513418407      0.8153511582
H       0.7149618617     -1.9135736095     -0.8049158226
H      -2.6987666283     -1.2059199861     -0.6442068046
H      -1.7586216318     -3.0418309522     -1.4248682381
H      -0.9202262109      2.5872818804      1.9593978215
H      -2.7456275899      0.6657064483      1.3396676582
H      -1.4002390027      2.0096152714     -0.4041493197
12
Frame=579  time=290.000fs  energy=-306.20523645Ha  molecule=COOCCCHHHHHH
C      -0.1107267602      0.3284884918      0.1972479006
O       1.1794302056      0.8837081198      0.3780662306
O       2.4096332656      0.0102102735     -0.0911766131
C      -0.3139578614     -1.2803030060     -0.5248592465
C      -1.6531280690     -1.8337808633     -0.8716296785
C      -1.3669224506      1.4522411744      0.8195732595
H       0.7123796087     -1.9188148456     -0.8091589182
H      -2.7181035992     -1.2149064487     -0.6569031990
H      -1.7547528962     -3.0432863772     -1.4412641200
H      -0.8964630320      2.5593444241      1.9473768862
H      -2.7498046177      0.6593061458      1.3358705661
H      -1.4005560955      2.0078349229     -0.4054442667
12
Frame=580  time=290.500fs  energy=-306.20453267Ha  molecule=COOCCCHHHHHH
C      -0.1112227559      0.3294078382      0.1930444034
O       1.1774924915      0.8839299458      0.3811507859
O       2.4087010019      0.0136724195     -0.0923074323
C      -0.3135940471     -1.2810681979     -0.5240600991
C      -1.6488123638     -1.8351481027     -0.8708777279
C      -1.3674371488      1.4529460181      0.8236539805
H       0.7062296037     -1.9223645602     -0.8124118662
H      -2.7326476655     -1.2253567738     -0.6684005036
H      -1.7512361695     -3.0427425346     -1.4569028298
H      -0.8735532684      2.5316805999      1.9368870117
H      -2.7523223201      0.6509406643      1.3326090689
H      -1.4019348783      2.0049012503     -0.4093359578
12
Frame=581  time=291.000fs  energy=-306.20373022Ha  molecule=COOCCCHHHHHH
C      -0.1121335989      0.3300979136      0.1890330497
O       1.1757255770      0.8843271163      0.3843078879
O       2.4076626375      0.0171585636     -0.0935053422
C      -0.3131475536     -1.2810352398     -0.5233801607
C      -1.6448529940     -1.8371139300     -0.8703016914
C      -1.3675111686      1.4533362423      0.8273415005
H       0.6970290029     -1.9243643954     -0.8146065547
H      -2.7416764517     -1.2372807010     -0.6785107868
H      -1.7479808632     -3.0408139939     -1.4714754390
H      -0.8521353682      2.5055655464      1.9284062552
H      -2.7534625709      0.6414714547      1.3309921473
H      -1.4034762983      2.0010005514     -0.4145666444
12
Frame=582  time=291.500fs  energy=-306.20291631Ha  molecule=COOCCCHHHHHH
C      -0.1134813542      0.3305011940      0.1852633540
O       1.1741315393      0.8849243527      0.3875157202
O       2.4065376482      0.0206392239     -0.0947632024
C      -0.3125779975     -1.2802032370     -0.5228324642
C      -1.6413618184     -1.8396271893     -0.8699448873
C      -1.3671613046      1.4533158553      0.8304224618
H       0.6856543066     -1.9253621231     -0.8157225876
H      -2.7452070453     -1.2500098667     -0.6871136954
H      -1.7450646139     -3.0384030345     -1.4847339589
H      -0.8326861708      2.4820892876      1.9222566080
H      -2.7534782789      0.6316763591      1.3317706858
H      -1.4042596984      1.9963313064     -0.4197410726
12
Frame=583  time=292.000fs  energy=-306.20199357Ha  molecule=COOCCCHHHHHH
C      -0.1152760844      0.3300388348      0.1817726791
O       1.1727089327      0.8858706710      0.3907550235
O       2.4053326325      0.0240502441     -0.0960737545
C      -0.3120103924     -1.2783199758     -0.5224253313
C      -1.6382874600     -1.8427351733     -0.8698385368
C      -1.3663351260      1.4528059797      0.8327590138
H       0.6731011881     -1.9257164667     -0.8157769548
H      -2.7430157412     -1.2620444865     -0.6941481191
H      -1.7423640250     -3.0366321477     -1.4964916998
H      -0.8163315149      2.4629934903      1.9186138813
H      -2.7527447554      0.6228934826      1.3348686673
H      -1.4038358922      1.9918439503     -0.4233306983
12
Frame=584  time=292.500fs  energy=-306.20204335Ha  molecule=COOCCCHHHHHH
C      -0.1175505538      0.3271518397      0.1785908535
O       1.1714636372      0.8875555942      0.3940095219
O       2.4040314688      0.0272579435     -0.0974304965
C      -0.3118221566     -1.2746597745     -0.5221645870
C      -1.6353760104     -1.8466548548     -0.8700055958
C      -1.3648163924      1.4517288903      0.8342947682
H       0.6602726103     -1.9250736264     -0.8148040816
H      -2.7336818765     -1.2710299880     -0.6995857863
H      -1.7392412116     -3.0368006510     -1.5066010483
H      -0.8055534609      2.4514579800      1.9175547978
H      -2.7519378705      0.6176034715      1.3391296499
H      -1.4025604645      1.9898498106     -0.4235826575
12
Frame=585  time=293.000fs  energy=-306.20221245Ha  molecule=COOCCCHHHHHH
C      -0.1201830979      0.3230809784      0.1757511492
O       1.1703619385      0.8896755462      0.3972647713
O       2.4026714896      0.0303407088     -0.0988284738
C      -0.3117720547     -1.2698854527     -0.5220578325
C      -1.6327901983     -1.8512052641     -0.8704694867
C      -1.3628286247      1.4500867699      0.8350311556
H       0.6481152679     -1.9247356348     -0.8128262774
H      -2.7200323986     -1.2764973924     -0.7033823965
H      -1.7364641116     -3.0391735519     -1.5148981381
H      -0.7989594204      2.4457344342      1.9191420431
H      -2.7502332613      0.6144739909      1.3448735951
H      -1.3997813753      1.9890324380     -0.4209586659
12
Frame=586  time=293.500fs  energy=-306.20249838Ha  molecule=COOCCCHHHHHH
C      -0.1230400675      0.3189812780      0.1732902287
O       1.1693699767      0.8919490546      0.4005070912
O       2.4012869133      0.0333711925     -0.1002635597
C      -0.3116458034     -1.2646420724     -0.5221142090
C      -1.6306811607     -1.8562254696     -0.8712537519
C      -1.3605596898      1.4478915271      0.8350273011
H       0.6374249727     -1.9256624247     -0.8098625682
H      -2.7047140265     -1.2780992840     -0.7054875023
H      -1.7346691493     -3.0437947667     -1.5212047920
H      -0.7953457633      2.4440892556      1.9234095348
H      -2.7467300279      0.6121929154      1.3520981176
H      -1.3952279032      1.9882720083     -0.4163001831
12
Frame=587  time=294.000fs  energy=-306.20292708Ha  molecule=COOCCCHHHHHH
C      -0.1260176754      0.3150262653      0.1712454925
O       1.1684655782      0.8943376694      0.4037231037
O       2.3998918486      0.0363487633     -0.1017318345
C      -0.3114536060     -1.2591307823     -0.5223433206
C      -1.6290631300     -1.8616904488     -0.8723792630
C      -1.3580154816      1.4451479401      0.8343987645
H       0.6287490083     -1.9277863291     -0.8059413078
H      -2.6887443150     -1.2752503878     -0.7058639225
H      -1.7338520967     -3.0506742968     -1.5253439779
H      -0.7949201264      2.4463139831      1.9303292498
H      -2.7409641710      0.6106615819      1.3599762197
H      -1.3894377058      1.9878270855     -0.4102474928
12
Frame=588  time=294.500fs  energy=-306.20340271Ha  molecule=COOCCCHHHHHH
C      -0.1289922332      0.3113952570      0.1696532043
O       1.1676252269      0.8968001433      0.4068994065
O       2.3985007532      0.0392733910     -0.1032292218
C      -0.3112027187     -1.2536027773     -0.5227545568
C      -1.6279770889     -1.8675455078     -0.8738618569
C      -1.3551853908      1.4418817702      0.8333041170
H       0.6224135643     -1.9306194016     -0.8011082261
H      -2.6728876614     -1.2680235534     -0.7045013908
H      -1.7338552473     -3.0594339763     -1.5271511351
H      -0.7978531720      2.4520357941      1.9397872326
H      -2.7325497879      0.6097025978      1.3676078527
H      -1.3832272464      1.9880076076     -0.4037887737
12
Frame=589  time=295.000fs  energy=-306.20380782Ha  molecule=COOCCCHHHHHH
C      -0.1318238778      0.3082659002      0.1685436005
O       1.1668253371      0.8992925773      0.4100228918
O       2.3971284696      0.0421455798     -0.1047511418
C      -0.3108976563     -1.2483521077     -0.5233555299
C      -1.6274900423     -1.8736922109     -0.8757079331
C      -1.3520519442      1.4381448448      0.8319229439
H       0.6185217372     -1.9332985153     -0.7954375917
H      -2.6575853671     -1.2572929804     -0.7014387072
H      -1.7343815789     -3.0693218623     -1.5265003571
H      -0.8041849679      2.4607289383      1.9515499524
H      -2.7213215881      0.6090737462      1.3741754564
H      -1.3775644083      1.9891259857     -0.3980837565
12
Frame=590  time=295.500fs  energy=-306.20406326Ha  molecule=COOCCCHHHHHH
C      -0.1343664211      0.3058006733      0.1679349992
O       1.1660446502      0.9017700215      0.4130814877
O       2.3957897095      0.0449662631     -0.1062923028
C      -0.3105456240     -1.2436888132     -0.5241503729
C      -1.6276776849     -1.8799852000     -0.8779100119
C      -1.3486058961      1.4340180315      0.8304218842
H       0.6170040043     -1.9347627617     -0.7890399844
H      -2.6429744213     -1.2446677835     -0.6967833585
H      -1.7350695399     -3.0793488022     -1.5233346153
H      -0.8137252923      2.4717550641      1.9652420388
H      -2.7074761434      0.6084922503      1.3791277739
H      -1.3733583063      1.9914236808     -0.3941810522
12
Frame=591  time=296.000fs  energy=-306.20416091Ha  molecule=COOCCCHHHHHH
C      -0.1364813246      0.3041328489      0.1678301691
O       1.1652672266      0.9041892172      0.4160648905
O       2.3944983169      0.0477364336     -0.1078467672
C      -0.3101654245     -1.2398984718     -0.5251388858
C      -1.6285957400     -1.8862450084     -0.8804450049
C      -1.3448623537      1.4296089292      0.8289171568
H       0.6177219596     -1.9340334639     -0.7820609138
H      -2.6290096562     -1.2321786231     -0.6907159923
H      -1.7356100689     -3.0885230707     -1.5176827850
H      -0.8259961643      2.4844342824      1.9803548066
H      -2.6916469105      0.6076669209      1.3823257236
H      -1.3712187949      1.9949970654     -0.3927039775
12
Frame=592  time=296.500fs  energy=-306.20413740Ha  molecule=COOCCCHHHHHH
C      -0.1380507694      0.3033577424      0.1682163629
O       1.1644848847      0.9065113310      0.4189649277
O       2.3932667999      0.0504564924     -0.1094082364
C      -0.3097955181     -1.2372041225     -0.5263167438
C      -1.6302516900     -1.8922833079     -0.8832758648
C      -1.3408720937      1.4250453053      0.8274521873
H       0.6205834009     -1.9304900787     -0.7746714084
H      -2.6156477054     -1.2218289260     -0.6834783356
H      -1.7358530384     -3.0960834614     -1.5096567311
H      -0.8402441675      2.4981179329      1.9962840478
H      -2.6748619437      0.6063233634      1.3840640849
H      -1.3712926363      1.9997561881     -0.3936473164
12
Frame=593  time=297.000fs  energy=-306.20402934Ha  molecule=COOCCCHHHHHH
C      -0.1389869691      0.3035293398      0.1690675611
O       1.1636985249      0.9087040470      0.4217755886
O       2.3921062831      0.0531254627     -0.1109703757
C      -0.3094969709     -1.2357421530     -0.5276761991
C      -1.6325860316     -1.8979318631     -0.8863549100
C      -1.3367245821      1.4204678023      0.8260019057
H       0.6256150092     -1.9240414266     -0.7670562821
H      -2.6030239986     -1.2151712597     -0.6753539019
H      -1.7358617108     -3.1016463752     -1.4994369995
H      -0.8555136811      2.5122321001      2.0123802645
H      -2.6583912932      0.6042123933      1.3849467606
H      -1.3732456237      2.0054316161     -0.3963734621
12
Frame=594  time=297.500fs  energy=-306.20368114Ha  molecule=COOCCCHHHHHH
C      -0.1392380533      0.3046587448      0.1703470003
O       1.1629184883      0.9107432099      0.4244929567
O       2.3910266868      0.0557402301     -0.1125270559
C      -0.3093489950     -1.2355542669     -0.5292067607
C      -1.6354674314     -1.9030675358     -0.8896271347
C      -1.3325421934      1.4160238353      0.8244990422
H       0.6329644496     -1.9151507595     -0.7594039505
H      -2.5915639299     -1.2130182714     -0.6666496867
H      -1.7359039851     -3.1052417883     -1.4872576145
H      -0.8707574676      2.5262853097      2.0279981905
H      -2.6435394360      0.6011076287      1.3856761872
H      -1.3763774401      2.0116205607     -0.3997860528
12
Frame=595  time=298.000fs  energy=-306.20369223Ha  molecule=COOCCCHHHHHH
C      -0.1387123795      0.3082758496      0.1720093959
O       1.1621424402      0.9122265257      0.4271151970
O       2.3900683891      0.0584124366     -0.1140725379
C      -0.3090840686     -1.2373649014     -0.5308957840
C      -1.6389435516     -1.9073932251     -0.8930331124
C      -1.3287231516      1.4119013024      0.8228702559
H       0.6429269670     -1.9057512735     -0.7518982602
H      -2.5843500069     -1.2163954658     -0.6576807536
H      -1.7371967850     -3.1067764151     -1.4733928817
H      -0.8827628382      2.5371748794      2.0425415699
H      -2.6306995624      0.5947419933      1.3878390980
H      -1.3790738453      2.0157941485     -0.4036095647
12
Frame=596  time=298.500fs  energy=-306.20398212Ha  molecule=COOCCCHHHHHH
C      -0.1374363501      0.3141125980      0.1740080156
O       1.1614017416      0.9131976015      0.4296407989
O       2.3892369583      0.0611166781     -0.1156013535
C      -0.3088283300     -1.2409740475     -0.5327308282
C      -1.6427567514     -1.9109325448     -0.8965120745
C      -1.3253819020      1.4082478299      0.8210689864
H       0.6556858063     -1.8968288304     -0.7447168360
H      -2.5820570402     -1.2244426852     -0.6487592939
H      -1.7400993620     -3.1068950445     -1.4581251277
H      -0.8909273931      2.5448489095      2.0554783820
H      -2.6208337221      0.5851789333      1.3916183104
H      -1.3805991975      2.0177554973     -0.4065461459
12
Frame=597  time=299.000fs  energy=-306.20409872Ha  molecule=COOCCCHHHHHH
C      -0.1355370492      0.3204596607      0.1762937779
O       1.1607562511      0.9140571187      0.4320685912
O       2.3885108892      0.0637170013     -0.1171081632
C      -0.3090046778     -1.2454511194     -0.5346993549
C      -1.6464223140     -1.9139703194     -0.9000011351
C      -1.3223952966      1.4051806354      0.8191037092
H       0.6712131376     -1.8884548509     -0.7380332481
H      -2.5833676155     -1.2348419487     -0.6401980385
H      -1.7442074001     -3.1067402469     -1.4417499417
H      -0.8968200294      2.5516485544      2.0663538125
H      -2.6152193409      0.5743401992      1.3959302186
H      -1.3810995916      2.0192127628     -0.4067565576
12
Frame=598  time=299.500fs  energy=-306.20420926Ha  molecule=COOCCCHHHHHH
C      -0.1331050283      0.3270275619      0.1788113422
O       1.1602520524      0.9148530110      0.4343991622
O       2.3878983179      0.0661836559     -0.1185879739
C      -0.3096626445     -1.2505577486     -0.5367872249
C      -1.6497024164     -1.9166147123     -0.9034354894
C      -1.3198542313      1.4028473212      0.8170583967
H       0.6892796224     -1.8814451306     -0.7320102139
H      -2.5890471301     -1.2460183835     -0.6323043995
H      -1.7497218099     -3.1069420939     -1.4245915231
H      -0.9002330977      2.5573848217      2.0748347458
H      -2.6139871112      0.5622570137      1.4002326361
H      -1.3803985214      2.0200451286     -0.4039416825
12
Frame=599  time=300.000fs  energy=-306.20429423Ha  molecule=COOCCCHHHHHH
C      -0.1302618258      0.3335155190      0.1815005718
O       1.1599389426      0.9156361280      0.4366346055
O       2.3874083243      0.0684853016     -0.1200361839
C      -0.3107904614     -1.2560607332     -0.5389791677
C      -1.6524235529     -1.9189902204     -0.9067497639
C      -1.3178163630      1.4013817759      0.8150901104
H       0.7092870357     -1.8762110696     -0.7267951803
H      -2.5995210648     -1.2565712394     -0.6253734991
H      -1.7566140365     -3.1079053071     -1.4069956082
H      -0.9012328702      2.5618147595      2.0807290985
H      -2.6168418974      0.5489994046      1.4036932058
H      -1.3787366868      2.0202246224     -0.3985110220
12
Frame=600  time=300.500fs  energy=-306.20428154Ha  molecule=COOCCCHHHHHH
C      -0.1271531974      0.3396275361      0.1842978634
O       1.1598667557      0.9164571054      0.4387784349
O       2.3870509413      0.0705904021     -0.1214486949
C      -0.3123097599     -1.2617486636     -0.5412592489
C      -1.6545079913     -1.9212125364     -0.9098796433
C      -1.3163032048      1.4008919798      0.8134048202
H       0.7302567784     -1.8726780584     -0.7225146148
H      -2.6146538410     -1.2656499581     -0.6196799280
H      -1.7645731395     -3.1097042656     -1.3893228966
H      -0.9001254074      2.5646831338      2.0839969328
H      -2.6231714295      0.5347133953      1.4053770576
H      -1.3767054010      2.0198063702     -0.3915016173
12
Frame=601  time=301.000fs  energy=-306.20408732Ha  molecule=COOCCCHHHHHH
C      -0.1239405698      0.3450908283      0.1871379214
O       1.1600802162      0.9173630390      0.4408357191
O       2.3868363972      0.0724695591     -0.1228221493
C      -0.3140831770     -1.2674364855     -0.5436112913
C      -1.6559868846     -1.9233694752     -0.9127646942
C      -1.3153037445      1.4014429592      0.8122160604
H       0.7509202954     -1.8703531631     -0.7192650040
H      -2.6336357283     -1.2731647218     -0.6154636230
H      -1.7730178576     -3.1120748874     -1.3719390979
H      -0.8973851409      2.5658037656      2.0847560614
H      -2.6321951668      0.5196627133      1.4044809820
H      -1.3750787198      2.0189020651     -0.3843390839
12
Frame=602  time=301.500fs  energy=-306.20369289Ha  molecule=COOCCCHHHHHH
C      -0.1207888535      0.3496776210      0.1899570222
O       1.1606129651      0.9183936598      0.4428131646
O       2.3867737546      0.0740986588     -0.1241542749
C      -0.3159371196     -1.2729618093     -0.5460194469
C      -1.6569848638     -1.9255124713     -0.9153526154
C      -1.3147837144      1.4030401305      0.8116946068
H       0.7699171086     -1.8685356434     -0.7171022579
H      -2.6550684799     -1.2797236944     -0.6129103066
H      -1.7812018044     -3.1145414284     -1.3551965884
H      -0.8935589012      2.5651506437      2.0832739845
H      -2.6431325417      0.5042539424      1.4005589109
H      -1.3745790265      2.0176424466     -0.3784811259
12
Frame=603  time=302.000fs  energy=-306.20317387Ha  molecule=COOCCCHHHHHH
C      -0.1178516323      0.3532234333      0.1926974105
O       1.1614831379      0.9195779866      0.4447187548
O       2.3868697431      0.0754614185     -0.1254441368
C      -0.3176949104     -1.2781782001     -0.5484689502
C      -1.6576782811     -1.9276601191     -0.9176031563
C      -1.3146993140      1.4056234860      0.8119254790
H       0.7860407304     -1.8665934287     -0.7160363628
H      -2.6772454487     -1.2863226263     -0.6121364236
H      -1.7883800358     -3.1166280465     -1.3394111825
H      -0.8891661291      2.5629128245      2.0799348845
H      -2.6553593354      0.4890263640      1.3936622392
H      -1.3756465412      2.0161365495     -0.3750431244
12
Frame=604  time=302.500fs  energy=-306.20264688Ha  molecule=COOCCCHHHHHH
C      -0.1152588800      0.3556324744      0.1953107360
O       1.1626926296      0.9209329677      0.4465609458
O       2.3871285450      0.0765498657     -0.1266920810
C      -0.3192074589     -1.2829491174     -0.5509467355
C      -1.6582455238     -1.9298108351     -0.9194893244
C      -1.3150117461      1.4090779949      0.8128914791
H       0.7984259791     -1.8641837732     -0.7160364768
H      -2.6984963648     -1.2939527309     -0.6131890489
H      -1.7939537121     -3.1180404437     -1.3248460548
H      -0.8846265251      2.5594841900      2.0751876281
H      -2.6684940981      0.4746069254      1.3843294296
H      -1.3783077976      2.0144415361     -0.3745579815
12
Frame=605  time=303.000fs  energy=-306.20210778Ha  molecule=COOCCCHHHHHH
C      -0.1131113067      0.3568695841      0.1977589707
O       1.1642295093      0.9224642897      0.4483478345
O       2.3875524853      0.0773628908     -0.1278993864
C      -0.3203707282     -1.2871442744     -0.5534416176
C      -1.6588290125     -1.9319583037     -0.9209955614
C      -1.3156976056      1.4132537634      0.8144876357
H       0.8066139364     -1.8613418511     -0.7170434887
H      -2.7174520593     -1.3032932808     -0.6160594714
H      -1.7975385763     -3.1187495534     -1.3117103745
H      -0.8802361871      2.5554017231      2.0694968631
H      -2.6823819996      0.4616517772      1.3734390160
H      -1.3821849702      2.0125543671     -0.3769504044
12
Frame=606  time=303.500fs  energy=-306.20173067Ha  molecule=COOCCCHHHHHH
C      -0.1115377126      0.3558079927      0.2000133727
O       1.1660870937      0.9244506561      0.4500867264
O       2.3881200498      0.0778187377     -0.1290678885
C      -0.3213867335     -1.2900776426     -0.5559441437
C      -1.6593411418     -1.9342753309     -0.9221147655
C      -1.3165659884      1.4179570003      0.8165525844
H       0.8104489899     -1.8576978483     -0.7189826848
H      -2.7314601345     -1.3137830888     -0.6207000685
H      -1.7983759101     -3.1193326657     -1.3001680902
H      -0.8777889580      2.5532190456      2.0633127648
H      -2.6975491021      0.4522978882      1.3612822718
H      -1.3871427848      2.0119251585     -0.3809389464
12
Frame=607  time=304.000fs  energy=-306.20213542Ha  molecule=COOCCCHHHHHH
C      -0.1106270207      0.3517312257      0.2020499888
O       1.1682479440      0.9270684818      0.4517833765
O       2.3888192389      0.0778650816     -0.1301991603
C      -0.3224093561     -1.2912537727     -0.5584458580
C      -1.6596958213     -1.9368919333     -0.9228410411
C      -1.3175113253      1.4230050253      0.8189040361
H       0.8100360479     -1.8533900791     -0.7217818673
H      -2.7388662587     -1.3246333915     -0.6270560491
H      -1.7960599677     -3.1204574232     -1.2903709218
H      -0.8784736675      2.5548302754      2.0570593627
H      -2.7143819038      0.4481491010      1.3483734885
H      -1.3926941608      2.0134634995     -0.3852169313
12
Frame=608  time=304.500fs  energy=-306.20238975Ha  molecule=COOCCCHHHHHH
C      -0.1103235171      0.3465383485      0.2038456299
O       1.1706540107      0.9298428914      0.4534417777
O       2.3896938097      0.0776433579     -0.1312939978
C      -0.3230340488     -1.2914571090     -0.5609381769
C      -1.6601528168     -1.9395662500     -0.9231652972
C      -1.3188755356      1.4282837789      0.8213597934
H       0.8057635198     -1.8504363645     -0.7253779344
H      -2.7422906269     -1.3363472594     -0.6350792723
H      -1.7916268817     -3.1221604088     -1.2824868328
H      -0.8798067191      2.5576452872      2.0511499140
H      -2.7319868753      0.4473739901      1.3367812125
H      -1.3970361843      2.0146359152     -0.3900233401
12
Frame=609  time=305.000fs  energy=-306.20272336Ha  molecule=COOCCCHHHHHH
C      -0.1106096844      0.3407161706      0.2053823356
O       1.1732426736      0.9326547759      0.4550655803
O       2.3907613631      0.0771853897     -0.1323533312
C      -0.3232294570     -1.2907476728     -0.5634124233
C      -1.6606715434     -1.9423222944     -0.9230841090
C      -1.3207659588      1.4336355538      0.8237538425
H       0.7978459399     -1.8500193184     -0.7296982843
H      -2.7424238510     -1.3479687461     -0.6446883574
H      -1.7854888992     -3.1250000555     -1.2766655004
H      -0.8813840345      2.5614836077      2.0459914095
H      -2.7500190217      0.4499854261      1.3274098181
H      -1.3991019148      2.0148602787     -0.3946689243
12
Frame=610  time=305.500fs  energy=-306.20318146Ha  molecule=COOCCCHHHHHH
C      -0.1114336751      0.3345854207      0.2066485619
O       1.1759190735      0.9354354710      0.4566582772
O       2.3920396116      0.0765047711     -0.1333782857
C      -0.3230585841     -1.2890715314     -0.5658595284
C      -1.6610958662     -1.9452755560     -0.9226017831
C      -1.3232455198      1.4388903024      0.8259620734
H       0.7861673075     -1.8531900403     -0.7346582085
H      -2.7397425474     -1.3580466990     -0.6557586639
H      -1.7780505419     -3.1295708503     -1.2730309906
H      -0.8831785118      2.5663896210      2.0419747152
H      -2.7680235437      0.4561653357      1.3206758990
H      -1.3981293580      2.0139167985     -0.3985242488
12
Frame=611  time=306.000fs  energy=-306.20373416Ha  molecule=COOCCCHHHHHH
C      -0.1127633838      0.3283626613      0.2076394705
O       1.1786633339      0.9381011788      0.4582231873
O       2.3935211432      0.0756453419     -0.1343700928
C      -0.3225567350     -1.2865836017     -0.5682697855
C      -1.6613978444     -1.9483806610     -0.9217305517
C      -1.3263558443      1.4439154760      0.8279238883
H       0.7721418942     -1.8598949404     -0.7401616032
H      -2.7356309965     -1.3652909097     -0.6681200296
H      -1.7695103111     -3.1363959320     -1.2716831921
H      -0.8853714532      2.5723787879      2.0394625274
H      -2.7853676317      0.4660374981      1.3165329228
H      -1.3937671595      2.0117840469     -0.4012951365
12
Frame=612  time=306.500fs  energy=-306.20433751Ha  molecule=COOCCCHHHHHH
C      -0.1145011427      0.3223643552      0.2083585823
O       1.1813923679      0.9405644442      0.4597635239
O       2.3952098537      0.0746429179     -0.1353301523
C      -0.3217948516     -1.2834190495     -0.5706328978
C      -1.6614683799     -1.9516708252     -0.9204924808
C      -1.3301084171      1.4485687872      0.8296538228
H       0.7562138713     -1.8699907428     -0.7460992521
H      -2.7310450812     -1.3685943921     -0.6815491201
H      -1.7601301502     -3.1456902633     -1.2726891358
H      -0.8881985523      2.5791752624      2.0387659009
H      -2.8011820354      0.4795101740      1.3145389683
H      -1.3860998959      2.0085449404     -0.4032199429
12
Frame=613  time=307.000fs  energy=-306.20486799Ha  molecule=COOCCCHHHHHH
C      -0.1165152286      0.3169223955      0.2088198900
O       1.1840118377      0.9427333769      0.4612823717
O       2.3971062021      0.0735393427     -0.1362601225
C      -0.3208431379     -1.2797856481     -0.5729383334
C      -1.6612334487     -1.9551447185     -0.9189216410
C      -1.3344725338      1.4527199769      0.8312370105
H       0.7387018652     -1.8827375233     -0.7523476998
H      -2.7267009569     -1.3675298821     -0.6957635572
H      -1.7500647283     -3.1572615059     -1.2760693473
H      -0.8919661248      2.5863085340      2.0401091021
H      -2.8145069161      0.4963001116      1.3139206011
H      -1.3757198270      2.0044454095     -0.4050581824
12
Frame=614  time=307.500fs  energy=-306.20517145Ha  molecule=COOCCCHHHHHH
C      -0.1186464274      0.3123636573      0.2090502254
O       1.1864218781      0.9445182654      0.4627826297
O       2.3992051470      0.0723816219     -0.1371620849
C      -0.3197659458     -1.2759515297     -0.5751760952
C      -1.6606789217     -1.9587499842     -0.9170663598
C      -1.3393709793      1.4562570154      0.8328045319
H       0.7198421768     -1.8968707706     -0.7587703773
H      -2.7228977277     -1.3626418207     -0.7104215308
H      -1.7393441799     -3.1704417934     -1.2817761323
H      -0.8969562789      2.5931785369      2.0435832105
H      -2.8244926019      0.5159205619      1.3137570549
H      -1.3636553094      1.9998732851     -0.4079442020
12
Frame=615  time=308.000fs  energy=-306.20517020Ha  molecule=COOCCCHHHHHH
C      -0.1207232670      0.3089773900      0.2090898171
O       1.1885269830      0.9458415310      0.4642668649
O       2.4014943517      0.0712191183     -0.1380386551
C      -0.3186225819     -1.2722088217     -0.5773376119
C      -1.6598527006     -1.9623809555     -0.9149890483
C      -1.3446881087      1.4590945582      0.8344885203
H       0.6999028104     -1.9108721934     -0.7652244751
H      -2.7194950018     -1.3554327831     -0.7251364225
H      -1.7279280032     -3.1841897436     -1.2896765759
H      -0.9033020755      2.5991745939      2.0491087754
H      -2.8306425640      0.5377037054      1.3132368756
H      -1.3511507833      1.9952899665     -0.4130610243
12
Frame=616  time=308.500fs  energy=-306.20492052Ha  molecule=COOCCCHHHHHH
C      -0.1225831735      0.3069816988      0.2089894968
O       1.1902467230      0.9466470651      0.4657370752
O       2.4039540297      0.0700991972     -0.1388928950
C      -0.3174723702     -1.2688224070     -0.5794162020
C      -1.6588391574     -1.9658960189     -0.9127621630
C      -1.3502913048      1.4611806182      0.8363696749
H       0.6793155804     -1.9233574294     -0.7715728184
H      -2.7160807653     -1.3479694946     -0.7395061257
H      -1.7158129979     -3.1973593020     -1.2995556183
H      -0.9108927952      2.6038087463      2.0564344136
H      -2.8329955141      0.5608694505      1.3119043818
H      -1.3393398367      1.9911279860     -0.4212226064
12
Frame=617  time=309.000fs  energy=-306.20451876Ha  molecule=COOCCCHHHHHH
C      -0.1240910799      0.3065040218      0.2088056229
O       1.1915226196      0.9469046268      0.4671944550
O       2.4065585651      0.0690632760     -0.1397280231
C      -0.3163793787     -1.2659869534     -0.5814068660
C      -1.6577215427     -1.9691477765     -0.9104621250
C      -1.3560563682      1.4624978674      0.8384418959
H       0.6587559611     -1.9333950044     -0.7776949189
H      -2.7122337621     -1.3423042197     -0.7531430415
H      -1.7031268008     -3.2089876799     -1.3111395571
H      -0.9193600073      2.6068037691      2.0651749032
H      -2.8321510551      0.5846121564      1.3097757487
H      -1.3289595722      1.9877019862     -0.4325573777
12
Frame=618  time=309.500fs  energy=-306.20411826Ha  molecule=COOCCCHHHHHH
C      -0.1251190275      0.3081936455      0.2085952900
O       1.1923115897      0.9464565899      0.4686392855
O       2.4092910791      0.0681909509     -0.1405470759
C      -0.3152734615     -1.2641110355     -0.5833057855
C      -1.6566464863     -1.9719206279     -0.9081642423
C      -1.3619856222      1.4630760518      0.8406109717
H       0.6391723198     -1.9410369275     -0.7834923598
H      -2.7086796558     -1.3403929267     -0.7656923171
H      -1.6904827005     -3.2182859880     -1.3241250291
H      -0.9272767840      2.6070544815      2.0748657156
H      -2.8288415728      0.6073512005      1.3076602523
H      -1.3199478826      1.9843633650     -0.4468287847
12
Frame=619  time=310.000fs  energy=-306.20399477Ha  molecule=COOCCCHHHHHH
C      -0.1255842363      0.3125057562      0.2084132844
O       1.1925931560      0.9451934843      0.4700708618
O       2.4121307631      0.0675454413     -0.1413525484
C      -0.3141098153     -1.2634629272     -0.5851095427
C      -1.6556981508     -1.9740596460     -0.9059401801
C      -1.3680927658      1.4629666452      0.8427218724
H       0.6216697582     -1.9467647358     -0.7888865860
H      -2.7063177139     -1.3433361910     -0.7768313893
H      -1.6785883649     -3.2248949943     -1.3382062752
H      -0.9332907111      2.6038285267      2.0850140067
H      -2.8240542934      0.6277135588      1.3064900717
H      -1.3118669693      1.9804876448     -0.4631244484
12
Frame=620  time=310.500fs  energy=-306.20370579Ha  molecule=COOCCCHHHHHH
C      -0.1255293895      0.3180910420      0.2083111233
O       1.1923896963      0.9434522899      0.4714875107
O       2.4150208792      0.0670528428     -0.1421462070
C      -0.3132254515     -1.2633867758     -0.5868147852
C      -1.6546506484     -1.9757233449     -0.9038578069
C      -1.3741308699      1.4621987050      0.8445952974
H       0.6073076311     -1.9502521787     -0.7938140490
H      -2.7038035837     -1.3502215352     -0.7862627434
H      -1.6673687185     -3.2293247986     -1.3530861713
H      -0.9385104661      2.5994755021      2.0951294263
H      -2.8196008425      0.6466627171      1.3060625225
H      -1.3048395946      1.9776635138     -0.4790634047
12
Frame=621  time=311.000fs  energy=-306.20334638Ha  molecule=COOCCCHHHHHH
C      -0.1249823126      0.3246898915      0.2083348655
O       1.1917312387      0.9413005463      0.4728870213
O       2.4179270893      0.0667187874     -0.1429292619
C      -0.3126663594     -1.2637460036     -0.5884193169
C      -1.6534277289     -1.9769548984     -0.9019786828
C      -1.3800579587      1.4608584598      0.8460693881
H       0.5970847551     -1.9521095337     -0.7982314497
H      -2.7018611607     -1.3601157885     -0.7937369577
H      -1.6573922153     -3.2320088847     -1.3684704210
H      -0.9425307552      2.5944000866      2.1047531375
H      -2.8165662008      0.6636837344      1.3067060198
H      -1.2983533494      1.9759034301     -0.4929606321
12
Frame=622  time=311.500fs  energy=-306.20297626Ha  molecule=COOCCCHHHHHH
C      -0.1240097654      0.3320061509      0.2085228099
O       1.1906680226      0.9388163027      0.4742669449
O       2.4208159453      0.0665427518     -0.1437023159
C      -0.3124336842     -1.2643846112     -0.5899217032
C      -1.6519498842     -1.9778429371     -0.9003561773
C      -1.3858359945      1.4590564159      0.8470374983
H       0.5917111908     -1.9529118243     -0.8021187488
H      -2.7013878704     -1.3715543834     -0.7990608566
H      -1.6491863401     -3.2335167988     -1.3840768963
H      -0.9451282175      2.5889491098      2.1134933952
H      -2.8157069130      0.6782999226      1.3084327952
H      -1.2920182654      1.9751961403     -0.5034501909
12
Frame=623  time=312.000fs  energy=-306.20266466Ha  molecule=COOCCCHHHHHH
C      -0.1227077213      0.3397307445      0.2089047729
O       1.1892636134      0.9360826951      0.4756247081
O       2.4236564458      0.0665191650     -0.1444652939
C      -0.3124810872     -1.2651540667     -0.5913204854
C      -1.6501585546     -1.9784981566     -0.8990354401
C      -1.3914177257      1.4569191582      0.8474697805
H       0.5915162733     -1.9530125784     -0.8054793479
H      -2.7032294652     -1.3829263827     -0.8020937366
H      -1.6431572729     -3.2344110612     -1.3996431477
H      -0.9462947685      2.5833612745      2.1210479906
H      -2.8173938113      0.6900719278      1.3109333338
H      -1.2857353083      1.9755399814     -0.5097594446
12
Frame=624  time=312.500fs  energy=-306.20251040Ha  molecule=COOCCCHHHHHH
C      -0.1212430726      0.3474263318      0.2095033269
O       1.1876755371      0.9331776612      0.4769573887
O       2.4263972002      0.0666632711     -0.1452173549
C      -0.3126747579     -1.2660848947     -0.5926136662
C      -1.6481843370     -1.9788654198     -0.8980552316
C      -1.3967349277      1.4546129384      0.8474141434
H       0.5979724927     -1.9516858545     -0.8083356418
H      -2.7086876797     -1.3930500613     -0.8027336511
H      -1.6393315897     -3.2351946676     -1.4149280468
H      -0.9463220118      2.5779078522      2.1272081902
H      -2.8217032520      0.6986747478      1.3136133367
H      -1.2798279118      1.9770420469     -0.5117748045
12
Frame=625  time=313.000fs  energy=-306.20253695Ha  molecule=COOCCCHHHHHH
C      -0.1197562772      0.3547543903      0.2103358894
O       1.1860025296      0.9301840332      0.4782613992
O       2.4290057459      0.0669708863     -0.1459567778
C      -0.3128828685     -1.2671328669     -0.5937978363
C      -1.6461068311     -1.9789793056     -0.8974512973
C      -1.4016995959      1.4522840676      0.8469802626
H       0.6111675024     -1.9483740194     -0.8107256394
H      -2.7181521948     -1.4010988708     -0.8008980482
H      -1.6376785951     -3.2361263361     -1.4297056019
H      -0.9455840556      2.5726718215      2.1318482516
H      -2.8284130732      0.7037506810      1.3157918827
H      -1.2749220716      1.9797786902     -0.5100596766
12
Frame=626  time=313.500fs  energy=-306.20256729Ha  molecule=COOCCCHHHHHH
C      -0.1183013145      0.3616163453      0.2114145185
O       1.1841882106      0.9271978517      0.4795325847
O       2.4314933279      0.0673919531     -0.1466809688
C      -0.3130347489     -1.2680074936     -0.5948675341
C      -1.6438003839     -1.9791301398     -0.8972570644
C      -1.4062122036      1.4500207639      0.8463171654
H       0.6282217271     -1.9435807099     -0.8127072424
H      -2.7302391386     -1.4065219338     -0.7965236647
H      -1.6383130978     -3.2371171314     -1.4437599144
H      -0.9443758095      2.5674416380      2.1349227475
H      -2.8370257015      0.7048377754      1.3168647518
H      -1.2717757219      1.9836788024     -0.5057471953
12
Frame=627  time=314.000fs  energy=-306.20257607Ha  molecule=COOCCCHHHHHH
C      -0.1170071951      0.3677511508      0.2127445525
O       1.1822933533      0.9243071401      0.4807667830
O       2.4338418032      0.0679065939     -0.1473875897
C      -0.3129859131     -1.2686409931     -0.5957826426
C      -1.6413972159     -1.9793541441     -0.8976074927
C      -1.4101703179      1.4479450726      0.8455802186
H       0.6481526687     -1.9367167404     -0.8143583590
H      -2.7440462618     -1.4096845881     -0.7891250168
H      -1.6408506737     -3.2379504505     -1.4564463813
H      -0.9431644423      2.5622378177      2.1364969069
H      -2.8470016657      0.7016711248      1.3162819797
H      -1.2712714640      1.9887449577     -0.5001607002
12
Frame=628  time=314.500fs  energy=-306.20263602Ha  molecule=COOCCCHHHHHH
C      -0.1159996741      0.3729261453      0.2143221963
O       1.1803748134      0.9215975858      0.4819602268
O       2.4360357257      0.0684927036     -0.1480743694
C      -0.3125982883     -1.2689697158     -0.5964816474
C      -1.6390648264     -1.9796577412     -0.8986941767
C      -1.4134908013      1.4461598788      0.8448989045
H       0.6699319211     -1.9273156292     -0.8157805434
H      -2.7583104866     -1.4114377142     -0.7779882785
H      -1.6447491850     -3.2382870027     -1.4668759404
H      -0.9423811180      2.5571663784      2.1367382719
H      -2.8577790773      0.6941263805      1.3137166256
H      -1.2741156197      1.9948958750     -0.4945660253
12
Frame=629  time=315.000fs  energy=-306.20275026Ha  molecule=COOCCCHHHHHH
C      -0.1153950111      0.3769457429      0.2161277340
O       1.1784838542      0.9191495425      0.4831094973
O       2.4380617481      0.0691276233     -0.1487355789
C      -0.3117566824     -1.2689256168     -0.5970134062
C      -1.6369762590     -1.9800278809     -0.9003377285
C      -1.4161229436      1.4447420139      0.8443692649
H       0.6926165300     -1.9151901311     -0.8171186102
H      -2.7716212774     -1.4128456710     -0.7640142764
H      -1.6494072365     -3.2377876840     -1.4756859830
H      -0.9423636965      2.5524519149      2.1358337461
H      -2.8689040685      0.6823048604      1.3091151283
H      -1.2806245170      2.0018766361     -0.4899151281
12
Frame=630  time=315.500fs  energy=-306.20283967Ha  molecule=COOCCCHHHHHH
C      -0.1152953564      0.3796560847      0.2181348825
O       1.1766658875      0.9170362526      0.4842110094
O       2.4399077802      0.0697897375     -0.1493654058
C      -0.3103810840     -1.2684322821     -0.5974081348
C      -1.6352812891     -1.9804452982     -0.9024125720
C      -1.4180549507      1.4437391856      0.8440164436
H       0.7154290963     -1.9005167888     -0.8185258357
H      -2.7826317640     -1.4149041001     -0.7478776503
H      -1.6542544709     -3.2362209775     -1.4832897499
H      -0.9433284073      2.5484455647      2.1340349500
H      -2.8800470008      0.6664654644      1.3027501141
H      -1.2906722574      2.0093231805     -0.4866492245
12
Frame=631  time=316.000fs  energy=-306.20344163Ha  molecule=COOCCCHHHHHH
C      -0.1158560167      0.3795452378      0.2203132387
O       1.1749798329      0.9156710572      0.4852605854
O       2.4415338426      0.0703543586     -0.1499581535
C      -0.3087513462     -1.2667139860     -0.5976630335
C      -1.6338673379     -1.9811084149     -0.9048970855
C      -1.4190841693      1.4431347432      0.8437903821
H       0.7377066064     -1.8829333115     -0.8201562942
H      -2.7881224436     -1.4173510983     -0.7298080228
H      -1.6580908461     -3.2339618790     -1.4896718018
H      -0.9473427716      2.5480150734      2.1316506486
H      -2.8916758987      0.6488531755      1.2943069479
H      -1.3043513558      2.0186276123     -0.4837504982
12
Frame=632  time=316.500fs  energy=-306.20423935Ha  molecule=COOCCCHHHHHH
C      -0.1171232224      0.3770046504      0.2226281238
O       1.1734536982      0.9149999645      0.4862525116
O       2.4429349788      0.0708405223     -0.1505064863
C      -0.3067668686     -1.2639101045     -0.5977752600
C      -1.6328487950     -1.9819531551     -0.9077678360
C      -1.4193440382      1.4429341993      0.8435823045
H       0.7590655682     -1.8636583429     -0.8221748744
H      -2.7880287574     -1.4207051909     -0.7100487558
H      -1.6608113274     -3.2310333910     -1.4948286226
H      -0.9537504388      2.5509266337      2.1290185700
H      -2.9034739995      0.6293580521      1.2849101736
H      -1.3204815934      2.0286156780     -0.4809058846
12
Frame=633  time=317.000fs  energy=-306.20489276Ha  molecule=COOCCCHHHHHH
C      -0.1190800115      0.3731502142      0.2250379180
O       1.1720977067      0.9147945714      0.4871800761
O       2.4441190521      0.0713212205     -0.1510016743
C      -0.3042320242     -1.2604993390     -0.5977439053
C      -1.6323585826     -1.9828424766     -0.9109936823
C      -1.4191093716      1.4431289353      0.8432416314
H       0.7792983276     -1.8446607810     -0.8247580363
H      -2.7837821012     -1.4252939775     -0.6888873201
H      -1.6628051716     -3.2275065703     -1.4987847910
H      -0.9608900287      2.5558496137      2.1265147908
H      -2.9148581816      0.6071468427      1.2762882752
H      -1.3372408087      2.0371622986     -0.4778550634
12
Frame=634  time=317.500fs  energy=-306.20534461Ha  molecule=COOCCCHHHHHH
C      -0.1217057744      0.3681856079      0.2274929266
O       1.1709202910      0.9150547503      0.4880368868
O       2.4450773034      0.0717993994     -0.1514347551
C      -0.3012450159     -1.2565082628     -0.5975727603
C      -1.6322736267     -1.9838188359     -0.9145286046
C      -1.4185185688      1.4436484885      0.8426121458
H       0.7982280019     -1.8273812277     -0.8280809526
H      -2.7759309356     -1.4300766254     -0.6666809703
H      -1.6641083704     -3.2239882308     -1.5016165130
H      -0.9684924031      2.5630907461      2.1245446217
H      -2.9257051010      0.5828897706      1.2695421463
H      -1.3531477058      2.0434875010     -0.4735858986
12
Frame=635  time=318.000fs  energy=-306.20554743Ha  molecule=COOCCCHHHHHH
C      -0.1249139134      0.3624012707      0.2299383497
O       1.1699102805      0.9157563457      0.4888175176
O       2.4458059085      0.0722841115     -0.1517973601
C      -0.2979599343     -1.2520305452     -0.5972712892
C      -1.6323845132     -1.9849426055     -0.9183118688
C      -1.4177157259      1.4443928888      0.8415833661
H       0.8156611810     -1.8130661409     -0.8323009729
H      -2.7655595855     -1.4335343887     -0.6438443109
H      -1.6648898541     -3.2212082636     -1.5034537812
H      -0.9763585066      2.5727475378      2.1235108316
H      -2.9357895882      0.5573824282      1.2655451034
H      -1.3669159159      2.0469614282     -0.4673606323
12
Frame=636  time=318.500fs  energy=-306.20552115Ha  molecule=COOCCCHHHHHH
C      -0.1285544321      0.3561478473      0.2323188319
O       1.1690378990      0.9168533868      0.4895177309
O       2.4463058080      0.0727901941     -0.1520822523
C      -0.2945579970     -1.2472383496     -0.5968548413
C      -1.6324422267     -1.9862691521     -0.9222716206
C      -1.4168255280      1.4452473338      0.8401362374
H       0.8312698604     -1.8024433995     -0.8375421218
H      -2.7539906579     -1.4341188856     -0.6208216613
H      -1.6653733106     -3.2198510258     -1.5044720092
H      -0.9844380097      2.5846190143      2.1237744666
H      -2.9447174044      0.5314570827      1.2647250346
H      -1.3777675266      2.0472117776     -0.4590586778
12
Frame=637  time=319.000fs  energy=-306.20528280Ha  molecule=COOCCCHHHHHH
C      -0.1324290197      0.3498029779      0.2345827193
O       1.1682601934      0.9182833097      0.4901343915
O       2.4465816558      0.0733371145     -0.1522835376
C      -0.2912142640     -1.2423755988     -0.5963444311
C      -1.6322193199     -1.9878229247     -0.9263295258
C      -1.4159384303      1.4460961164      0.8383610757
H       0.8445372380     -1.7955642898     -0.8438846343
H      -2.7424072849     -1.4307808939     -0.5980583789
H      -1.6657342976     -3.2203607679     -1.5048796595
H      -0.9928436706      2.5981958673      2.1256168649
H      -2.9519242034      0.5059000627      1.2669720402
H      -1.3855802310      2.0441686404     -0.4493049717
12
Frame=638  time=319.500fs  energy=-306.20481886Ha  molecule=COOCCCHHHHHH
C      -0.1363128021      0.3437401470      0.2366854411
O       1.1675285033      0.9199727091      0.4906654459
O       2.4466409450      0.0739471376     -0.1523968827
C      -0.2880737893     -1.2377318292     -0.5957662048
C      -1.6315626352     -1.9895798108     -0.9304049362
C      -1.4151108646      1.4468308115      0.8364395436
H       0.8548231071     -1.7918791125     -0.8513587287
H      -2.7315494224     -1.4233794695     -0.5759770515
H      -1.6660082363     -3.2227735294     -1.5049064570
H      -1.0017866534      2.6127376829      2.1292054317
H      -2.9567687735      0.4813989701      1.2717034301
H      -1.3908188301      2.0380463160     -0.4393209883
12
Frame=639  time=320.000fs  energy=-306.20413783Ha  molecule=COOCCCHHHHHH
C      -0.1399792862      0.3382987252      0.2385924859
O       1.1667961407      0.9218432990      0.4911101458
O       2.4464937812      0.0746428000     -0.1524199388
C      -0.2852418047     -1.2336005102     -0.5951503976
C      -1.6304181025     -1.9914648759     -0.9344190548
C      -1.4143759049      1.4473544315      0.8345991972
H       0.8615339024     -1.7904943506     -0.8599412086
H      -2.7216033366     -1.4127862999     -0.5549551837
H      -1.6660638246     -3.2266724820     -1.5047908704
H      -1.0114639962      2.6274105409      2.1345662121
H      -2.9586949527      0.4585136564      1.2780465813
H      -1.3943084415      2.0292809412     -0.4305718534
12
Frame=640  time=320.500fs  energy=-306.20333353Ha  molecule=COOCCCHHHHHH
C      -0.1432255933      0.3337548798      0.2402817200
O       1.1660249968      0.9238189342      0.4914692824
O       2.4461527697      0.0754439727     -0.1523526772
C      -0.2827853799     -1.2302323827     -0.5945295480
C      -1.6288193683     -1.9933672186     -0.9382998157
C      -1.4137566376      1.4475847963      0.8330569375
H       0.8643148639     -1.7904969514     -0.8695578117
H      -2.7123175261     -1.4006097431     -0.5353034837
H      -1.6656678461     -3.2313263507     -1.5047642850
H      -1.0219529952      2.6414414686      2.1415748698
H      -2.9573980706      0.4376636384      1.2850798045
H      -1.3969438858      2.0184379946     -0.4243486712
12
Frame=641  time=321.000fs  energy=-306.20255319Ha  molecule=COOCCCHHHHHH
C      -0.1458907573      0.3303028590      0.2417434716
O       1.1651895295      0.9258328982      0.4917449476
O       2.4456320094      0.0763656584     -0.1521970846
C      -0.2807421907     -1.2278018983     -0.5939362990
C      -1.6268514491     -1.9951658085     -0.9419860560
C      -1.4132768422      1.4474568040      0.8319716116
H       0.8631600397     -1.7912210281     -0.8800957866
H      -2.7032518147     -1.3886891925     -0.5172549446
H      -1.6645903610     -3.2359286517     -1.5050350267
H      -1.0331585094      2.6542371130      2.1499790994
H      -2.9529209264      0.4191393944      1.2920579539
H      -1.3994327456      2.0061058588     -0.4214445752
12
Frame=642  time=321.500fs  energy=-306.20178237Ha  molecule=COOCCCHHHHHH
C      -0.1478395216      0.3284561609      0.2429776039
O       1.1642717494      0.9277336422      0.4919396709
O       2.4449531011      0.0774476793     -0.1519561118
C      -0.2790417844     -1.2265980372     -0.5934018983
C      -1.6246728531     -1.9966933567     -0.9454282736
C      -1.4130325736      1.4469312237      0.8314236980
H       0.8584167485     -1.7926334949     -0.8914238388
H      -2.6946145858     -1.3789085409     -0.5009755628
H      -1.6628854021     -3.2396729233     -1.5057806411
H      -1.0442618008      2.6647412461      2.1594452166
H      -2.9454512238      0.4026143368      1.2987946565
H      -1.4019661244      1.9922836975     -0.4222954825
12
Frame=643  time=322.000fs  energy=-306.20183978Ha  molecule=COOCCCHHHHHH
C      -0.1489217429      0.3296429986      0.2439883118
O       1.1632512841      0.9291432922      0.4920550578
O       2.4441540923      0.0787994688     -0.1516321002
C      -0.2773877136     -1.2273274835     -0.5929566521
C      -1.6225764523     -1.9976617318     -0.9485843519
C      -1.4132891192      1.4460030652      0.8314249424
H       0.8507098677     -1.7956969491     -0.9034115125
H      -2.6882663857     -1.3733508745     -0.4865996262
H      -1.6612083842     -3.2416650926     -1.5071544685
H      -1.0529598529      2.6704163631      2.1696037693
H      -2.9349559712      0.3864492560      1.3060281941
H      -1.4039400051      1.9755887470     -0.4274320644
12
Frame=644  time=322.500fs  energy=-306.20203797Ha  molecule=COOCCCHHHHHH
C      -0.1491210376      0.3328199763      0.2447777139
O       1.1621506927      0.9303032419      0.4920899684
O       2.4432177827      0.0803460560     -0.1512248674
C      -0.2760421458     -1.2294622166     -0.5926334290
C      -1.6204519923     -1.9981735834     -0.9514095141
C      -1.4139239194      1.4446058013      0.8319447945
H       0.8406238493     -1.8000435540     -0.9159398556
H      -2.6826198586     -1.3719791060     -0.4742900148
H      -1.6590346199     -3.2419529642     -1.5093082324
H      -1.0603145471      2.6730192519      2.1800673278
H      -2.9227103936      0.3722851155      1.3131514640
H      -1.4056442842      1.9577818977     -0.4354520328
12
Frame=645  time=323.000fs  energy=-306.20230216Ha  molecule=COOCCCHHHHHH
C      -0.1484293887      0.3370604915      0.2453485506
O       1.1610010423      0.9314280543      0.4920414543
O       2.4421264470      0.0820223125     -0.1507327536
C      -0.2752294437     -1.2325190515     -0.5924684736
C      -1.6181861343     -1.9983360837     -0.9538568920
C      -1.4148496100      1.4426821536      0.8329177718
H       0.8288576365     -1.8056011725     -0.9288870621
H      -2.6766040363     -1.3743251431     -0.4642256853
H      -1.6560197114     -3.2407550263     -1.5123934008
H      -1.0671121821      2.6741231669      2.1904141905
H      -2.9100605046      0.3615834867      1.3198116556
H      -1.4070863286      1.9403782013     -0.4447307454
12
Frame=646  time=323.500fs  energy=-306.20257539Ha  molecule=COOCCCHHHHHH
C      -0.1468289432      0.3421955359      0.2457056428
O       1.1598352249      0.9325421758      0.4919060613
O       2.4408777477      0.0838206839     -0.1501528447
C      -0.2749712096     -1.2363788845     -0.5925415549
C      -1.6157672866     -1.9981683451     -0.9557470220
C      -1.4161135600      1.4402124596      0.8342595908
H       0.8162324622     -1.8129003547     -0.9421257612
H      -2.6706793151     -1.3798583310     -0.4571544826
H      -1.6523542368     -3.2382852592     -1.5171084713
H      -1.0729815935      2.6739670487      2.2001686376
H      -2.8980771251      0.3547101473      1.3262491366
H      -1.4077507136      1.9237754290     -0.4539463922
12
Frame=647  time=324.000fs  energy=-306.20294038Ha  molecule=COOCCCHHHHHH
C      -0.1443420911      0.3480052300      0.2458567965
O       1.1587004492      0.9336785857      0.4916805019
O       2.4394699644      0.0857301946     -0.1494812278
C      -0.2752531403     -1.2408980123     -0.5929890064
C      -1.6131707449     -1.9977212487     -0.9567240489
C      -1.4177555045      1.4372041190      0.8358903290
H       0.8035512752     -1.8223777083     -0.9555226427
H      -2.6655806128     -1.3874847979     -0.4545779330
H      -1.6483372208     -3.2349811981     -1.5248833846
H      -1.0775927596      2.6727826028      2.2088117483
H      -2.8878374765      0.3519455509      1.3326767300
H      -1.4071058046      1.9083183143     -0.4617611848
12
Frame=648  time=324.500fs  energy=-306.20331622Ha  molecule=COOCCCHHHHHH
C      -0.1410357120      0.3542223752      0.2458247147
O       1.1576583068      0.9348774956      0.4913618169
O       2.4379027067      0.0877366330     -0.1487185041
C      -0.2760132538     -1.2459231460     -0.5938050976
C      -1.6103736929     -1.9970680238     -0.9569019418
C      -1.4197962843      1.4336973664      0.8377291409
H       0.7914822673     -1.8342006949     -0.9688993864
H      -2.6621927485     -1.3957286973     -0.4559573214
H      -1.6443408734     -3.2314425475     -1.5352112484
H      -1.0807302672      2.6707362413      2.2159049919
H      -2.8802364619      0.3533415118      1.3392001302
H      -1.4048198982      1.8944178220     -0.4670270377
12
Frame=649  time=325.000fs  energy=-306.20366268Ha  molecule=COOCCCHHHHHH
C      -0.1370317604      0.3605264287      0.2456426527
O       1.1567949971      0.9362192169      0.4909477622
O       2.4361916278      0.0897914845     -0.1478679823
C      -0.2771311477     -1.2513010601     -0.5949150862
C      -1.6073728271     -1.9962709095     -0.9566237515
C      -1.4222698739      1.4297555801      0.8397318251
H       0.7804046822     -1.8481554940     -0.9820504206
H      -2.6614363169     -1.4030657991     -0.4597540480
H      -1.6406529430     -3.2283675846     -1.5466446282
H      -1.0822436513      2.6677081198      2.2210828284
H      -2.8758612576      0.3588660398      1.3457207332
H      -1.4008599021      1.8826615455     -0.4690555694
12
Frame=650  time=325.500fs  energy=-306.20398225Ha  molecule=COOCCCHHHHHH
C      -0.1324793587      0.3665950160      0.2453439793
O       1.1561831744      0.9377172596      0.4904372239
O       2.4343269256      0.0919074199     -0.1469312982
C      -0.2784362322     -1.2569014791     -0.5963423732
C      -1.6042190874     -1.9954174337     -0.9559131460
C      -1.4250894664      1.4255013668      0.8419335249
H       0.7705254422     -1.8635057594     -0.9947813652
H      -2.6637881112     -1.4081763391     -0.4658010808
H      -1.6377013633     -3.2262861360     -1.5590627489
H      -1.0824140988      2.6638201290      2.2240002191
H      -2.8750332338      0.3680657856      1.3517961392
H      -1.3956063271      1.8733102067     -0.4677534089
12
Frame=651  time=326.000fs  energy=-306.20421656Ha  molecule=COOCCCHHHHHH
C      -0.1275752547      0.3720793906      0.2449668989
O       1.1559121515      0.9394206176      0.4898304059
O       2.4323163088      0.0940636523     -0.1459112830
C      -0.2797105633     -1.2626031536     -0.5981051985
C      -1.6010271675     -1.9945511926     -0.9548070111
C      -1.4281782240      1.4210714653      0.8444286058
H       0.7617480351     -1.8791705706     -1.0068945520
H      -2.6693074346     -1.4104081939     -0.4738671934
H      -1.6356600665     -3.2255165749     -1.5722987093
H      -1.0815882422      2.6589324247      2.2244147542
H      -2.8776778302      0.3804413381      1.3567546888
H      -1.3897988470      1.8667416823     -0.4636834330
12
Frame=652  time=326.500fs  energy=-306.20430159Ha  molecule=COOCCCHHHHHH
C      -0.1225453441      0.3766397055      0.2445527131
O       1.1560686529      0.9413756694      0.4891292783
O       2.4301719852      0.0962378395     -0.1448122596
C      -0.2807151044     -1.2682904958     -0.6002144620
C      -1.5979826365     -1.9936828188     -0.9533553728
C      -1.4314376113      1.4166175095      0.8473458454
H       0.7538310077     -1.8939097486     -1.0181990850
H      -2.6774385082     -1.4099373662     -0.4836594235
H      -1.6344896539     -3.2260155072     -1.5861426920
H      -1.0802144298      2.6528966900      2.2222202561
H      -2.8833932308      0.3953432597      1.3598092642
H      -1.3844344696      1.8632567574     -0.4579093872
12
Frame=653  time=327.000fs  energy=-306.20424501Ha  molecule=COOCCCHHHHHH
C      -0.1176283534      0.3799736722      0.2441432289
O       1.1567272575      0.9436218719      0.4883379238
O       2.4279112895      0.0984069986     -0.1436402207
C      -0.2812246219     -1.2738440624     -0.6026715903
C      -1.5953173594     -1.9927940424     -0.9516200245
C      -1.4347655166      1.4122903391      0.8508074331
H       0.7465324621     -1.9066154955     -1.0285242774
H      -2.6870832278     -1.4076920763     -0.4948328267
H      -1.6339527567     -3.2273992864     -1.6003500910
H      -1.0787338544      2.6456452059      2.2174711124
H      -2.8915571547      0.4120300818      1.3602592251
H      -1.3805398216      1.8630035881     -0.4517158299
12
Frame=654  time=327.500fs  energy=-306.20401634Ha  molecule=COOCCCHHHHHH
C      -0.1130628731      0.3817020929      0.2437778905
O       1.1579449642      0.9462230969      0.4874622990
O       2.4255535331      0.1005383007     -0.1424025051
C      -0.2810948632     -1.2790664496     -0.6054685167
C      -1.5932416638     -1.9918726250     -0.9496707555
C      -1.4380537965      1.4082212472      0.8548857319
H       0.7397359851     -1.9164775862     -1.0377295682
H      -2.6966483898     -1.4049195991     -0.5070124521
H      -1.6336311735     -3.2291343486     -1.6146551190
H      -1.0776700984      2.6374936047      2.2103770812
H      -2.9015471478      0.4299300489      1.3576046253
H      -1.3789782051      1.8661049853     -0.4461687617
12
Frame=655  time=328.000fs  energy=-306.20436664Ha  molecule=COOCCCHHHHHH
C      -0.1091264191      0.3803172035      0.2434921651
O       1.1597749993      0.9495300533      0.4865093154
O       2.4230975572      0.1025105165     -0.1411069857
C      -0.2805227807     -1.2831595523     -0.6085907032
C      -1.5917375539     -1.9910891778     -0.9475806002
C      -1.4410292785      1.4044874600      0.8595746033
H       0.7334669004     -1.9224002999     -1.0457023130
H      -2.7027615085     -1.4020476843     -0.5198188963
H      -1.6324878127     -3.2310375270     -1.6287823236
H      -1.0790545010      2.6309699294      2.2012658999
H      -2.9133939581      0.4501055530      1.3509937142
H      -1.3807646292      1.8740462409     -0.4411488329
12
Frame=656  time=328.500fs  energy=-306.20483368Ha  molecule=COOCCCHHHHHH
C      -0.1059630955      0.3766521527      0.2433189524
O       1.1622273418      0.9533184599      0.4854853122
O       2.4205912194      0.1043761096     -0.1397609646
C      -0.2792532184     -1.2864450849     -0.6120235779
C      -1.5910763037     -1.9902863959     -0.9454229072
C      -1.4438304627      1.4012042391      0.8647847327
H       0.7281166992     -1.9252496172     -1.0523330365
H      -2.7057516543     -1.4007224760     -0.5328822742
H      -1.6307535829     -3.2323432641     -1.6424421286
H      -1.0815004510      2.6248056708      2.1905294852
H      -2.9262128813      0.4706700356      1.3414643810
H      -1.3853602679      1.8851137867     -0.4374668380
12
Frame=657  time=329.000fs  energy=-306.20533653Ha  molecule=COOCCCHHHHHH
C      -0.1037033725      0.3713820577      0.2432887663
O       1.1652971524      0.9574088021      0.4843967708
O       2.4180823557      0.1061729846     -0.1383717819
C      -0.2771567896     -1.2891348911     -0.6157499036
C      -1.5914018232     -1.9893706357     -0.9432740635
C      -1.4465948698      1.3984604997      0.8703365177
H       0.7242495201     -1.9261352913     -1.0575208485
H      -2.7060300514     -1.4018633333     -0.5458288209
H      -1.6286857838     -3.2325543478     -1.6553243832
H      -1.0837633040      2.6182271849      2.1786400186
H      -2.9393900645      0.4900948063      1.3303456043
H      -1.3918351728      1.8976936440     -0.4352136621
12
Frame=658  time=329.500fs  energy=-306.20573701Ha  molecule=COOCCCHHHHHH
C      -0.1024654224      0.3646477718      0.2434281065
O       1.1689589272      0.9617603578      0.4832512215
O       2.4156115254      0.1078957935     -0.1369474099
C      -0.2743290823     -1.2911564644     -0.6197460623
C      -1.5926390844     -1.9883823493     -0.9412139025
C      -1.4493866029      1.3963012276      0.8759715805
H       0.7224576921     -1.9260053485     -1.0611893735
H      -2.7036330714     -1.4051983998     -0.5582790618
H      -1.6264081127     -3.2316382355     -1.6671055094
H      -1.0853715284      2.6115981944      2.1661631434
H      -2.9527197368      0.5077542640      1.3189186714
H      -1.3991208156      1.9108260853     -0.4335756162
12
Frame=659  time=330.000fs  energy=-306.20588265Ha  molecule=COOCCCHHHHHH
C      -0.1023019273      0.3566872749      0.2437570149
O       1.1731482413      0.9663147849      0.4820577402
O       2.4132236461      0.1095437842     -0.1354965804
C      -0.2709427040     -1.2924868281     -0.6239800726
C      -1.5945827651     -1.9874024414     -0.9393227981
C      -1.4522802344      1.3947347489      0.8813928735
H       0.7232127688     -1.9258023143     -1.0633020518
H      -2.6991852943     -1.4096651475     -0.5698612241
H      -1.6242410021     -3.2298641385     -1.6774679408
H      -1.0858796691      2.6052783123      2.1537441948
H      -2.9660233288      0.5231476247      1.3086019504
H      -1.4059315491      1.9234947046     -0.4314701988
12
Frame=660  time=330.500fs  energy=-306.20572755Ha  molecule=COOCCCHHHHHH
C      -0.1031833104      0.3478321671      0.2442865285
O       1.1777569782      0.9709962531      0.4808270429
O       2.4109655930      0.1111218024     -0.1340284520
C      -0.2672187437     -1.2931782899     -0.6284114606
C      -1.5969276873     -1.9865349275     -0.9376765205
C      -1.4553347657      1.3937287352      0.8863264136
H       0.7266766180     -1.9261737155     -1.0638752688
H      -2.6937504451     -1.4136621347     -0.5802351774
H      -1.6226541774     -3.2277464629     -1.6861267136
H      -1.0850132285      2.5995174852      2.1420660320
H      -2.9790493361      0.5359294060      1.3006645883
H      -1.4111011161      1.9347788367     -0.4279288657
12
Frame=661  time=331.000fs  energy=-306.20532856Ha  molecule=COOCCCHHHHHH
C      -0.1049968858      0.3384820146      0.2450171981
O       1.1826369640      0.9757160647      0.4795712349
O       2.4088830456      0.1126400689     -0.1325520062
C      -0.2633881759     -1.2933662000     -0.6329928029
C      -1.5993313198     -1.9858770139     -0.9363410969
C      -1.4585689667      1.3932153865      0.8905830634
H       0.7326050850     -1.9272747640     -1.0629847816
H      -2.6885129411     -1.4155324121     -0.5891166738
H      -1.6221566446     -3.2258991268     -1.6928512663
H      -1.0827702341      2.5943745525      2.1317900136
H      -2.9913930331      0.5459034045      1.2959662557
H      -1.4139202370      1.9439914671     -0.4224923296
12
Frame=662  time=331.500fs  energy=-306.20476328Ha  molecule=COOCCCHHHHHH
C      -0.1075625021      0.3290657710      0.2459390151
O       1.1876113196      0.9803801302      0.4783033944
O       2.4070175157      0.1141128148     -0.1310755040
C      -0.2596604882     -1.2932525578     -0.6376720423
C      -1.6014850777     -1.9854900869     -0.9353690682
C      -1.4619509394      1.3931030930      0.8940938193
H       0.7403953654     -1.9287704320     -1.0607645299
H      -2.6844048688     -1.4141068078     -0.5962944674
H      -1.6231488385     -3.2248235425     -1.6974778257
H      -1.0794255972      2.5897048778      2.1234983512
H      -3.0024739892      0.5529843950      1.2948204010
H      -1.4143181682      1.9507459455     -0.4154264846
12
Frame=663  time=332.000fs  energy=-306.20407343Ha  molecule=COOCCCHHHHHH
C      -0.1106575926      0.3200021466      0.2470323765
O       1.1924903808      0.9848968822      0.4770370510
O       2.4054038526      0.1155564348     -0.1296061434
C      -0.2562070721     -1.2930709400     -0.6423951845
C      -1.6031698422     -1.9853840512     -0.9347969707
C      -1.4654064306      1.3932877452      0.8969056124
H       0.7492473329     -1.9300299170     -1.0573986194
H      -2.6818280201     -1.4090929752     -0.6016398344
H      -1.6257915926     -3.2247058290     -1.6999160733
H      -1.0754406875      2.5852254523      2.1176466428
H      -3.0115982681      0.5571621608      1.2970174274
H      -1.4128131071      1.9549442022     -0.4076464630
12
Frame=664  time=332.500fs  energy=-306.20328521Ha  molecule=COOCCCHHHHHH
C      -0.1140444776      0.3116645954      0.2482696659
O       1.1970892809      0.9891844359      0.4757855328
O       2.4040680742      0.1169876837     -0.1281498520
C      -0.2531561388     -1.2930452088     -0.6471093991
C      -1.6042789155     -1.9855191773     -0.9346434301
C      -1.4688397746      1.3936606148      0.8991460356
H       0.7583605343     -1.9304041744     -1.0531081853
H      -2.6805854556     -1.4011423273     -0.6051112055
H      -1.6299593771     -3.2253397840     -1.7001545214
H      -1.0713288741      2.5806224582      2.1145278820
H      -3.0180891025      0.5584903244      1.3019690020
H      -1.4102849790      1.9567160154     -0.4004052659
12
Frame=665  time=333.000fs  energy=-306.20241505Ha  molecule=COOCCCHHHHHH
C      -0.1174961653      0.3043534512      0.2496197685
O       1.2012447308      0.9931763954      0.4745611566
O       2.4030259766      0.1184220899     -0.1267121532
C      -0.2505939332     -1.2933544853     -0.6517296923
C      -1.6048051991     -1.9858226218     -0.9350285034
C      -1.4721575032      1.3941144611      0.9009691979
H       0.7670933378     -1.9294595213     -1.0481254690
H      -2.6800369344     -1.3915718400     -0.6062331803
H      -1.6353042861     -3.2262269400     -1.6977653689
H      -1.0675339337      2.5756523278      2.1142735937
H      -3.0214197563      0.5570726835      1.3089121127
H      -1.4076976887      1.9563588837     -0.3948980199
12
Frame=666  time=333.500fs  energy=-306.20171250Ha  molecule=COOCCCHHHHHH
C      -0.1207675855      0.2992496167      0.2510483835
O       1.2048119226      0.9965846313      0.4733746613
O       2.4023036396      0.1199453901     -0.1252968478
C      -0.2483528047     -1.2945913830     -0.6561927697
C      -1.6049531122     -1.9860666952     -0.9360098283
C      -1.4754439323      1.3945731109      0.9025191045
H       0.7750971077     -1.9277227411     -1.0426817096
H      -2.6808243393     -1.3825642009     -0.6047994698
H      -1.6418821431     -3.2264774360     -1.6925773052
H      -1.0629996019      2.5685473716      2.1168475795
H      -3.0208628923      0.5518124076      1.3177117869
H      -1.4053813915      1.9529536980     -0.3925847282
12
Frame=667  time=334.000fs  energy=-306.20166454Ha  molecule=COOCCCHHHHHH
C      -0.1236659010      0.2971328010      0.2525170950
O       1.2076746935      0.9992163456      0.4722358644
O       2.4019179558      0.1216152218     -0.1239048821
C      -0.2463222480     -1.2971249161     -0.6605253598
C      -1.6048946217     -1.9860850614     -0.9373647324
C      -1.4787502711      1.3949607092      0.9039103137
H       0.7822197113     -1.9257878154     -1.0370019326
H      -2.6831259237     -1.3759227462     -0.6018114310
H      -1.6495911538     -3.2253564881     -1.6855680312
H      -1.0570056561      2.5582596138      2.1220893339
H      -3.0161094338      0.5421270291      1.3281505691
H      -1.4035163766      1.9459666326     -0.3942664421
12
Frame=668  time=334.500fs  energy=-306.20167210Ha  molecule=COOCCCHHHHHH
C      -0.1261080564      0.2965150947      0.2539915335
O       1.2097156454      1.0013279169      0.4711550269
O       2.4017956048      0.1234239714     -0.1225392031
C      -0.2449125225     -1.3001725914     -0.6646945808
C      -1.6044548712     -1.9861363136     -0.9390697008
C      -1.4816225929      1.3951919526      0.9051946691
H       0.7885153219     -1.9228573479     -1.0312777684
H      -2.6835450232     -1.3714729235     -0.5974062610
H      -1.6575601538     -3.2227965204     -1.6768814571
H      -1.0523311477      2.5483970064      2.1298477291
H      -3.0081842814      0.5299387226      1.3386836314
H      -1.4031871560      1.9373834070     -0.3987708394
12
Frame=669  time=335.000fs  energy=-306.20197203Ha  molecule=COOCCCHHHHHH
C      -0.1279714305      0.2973332128      0.2554357125
O       1.2108228008      1.0028688312      0.4701431901
O       2.4019183367      0.1254218572     -0.1212031175
C      -0.2441870381     -1.3036364094     -0.6686668131
C      -1.6036646602     -1.9862518017     -0.9411016003
C      -1.4839325386      1.3951996966      0.9063730940
H       0.7941558582     -1.9193435576     -1.0256928988
H      -2.6812693059     -1.3696843941     -0.5917177058
H      -1.6655959325     -3.2185076058     -1.6666545505
H      -1.0494042346      2.5398676256      2.1399330171
H      -2.9975818013      0.5154692916      1.3489338896
H      -1.4044497129      1.9274308200     -0.4054579260
12
Frame=670  time=335.500fs  energy=-306.20243950Ha  molecule=COOCCCHHHHHH
C      -0.1291966255      0.2995124038      0.2568099637
O       1.2109539402      1.0039664137      0.4692129167
O       2.4023532994      0.1274834298     -0.1199006036
C      -0.2441601956     -1.3074064094     -0.6724054504
C      -1.6025269313     -1.9863733340     -0.9434366915
C      -1.4858208461      1.3948477197      0.9073998919
H       0.7990835284     -1.9160265238     -1.0204326782
H      -2.6763786438     -1.3708086304     -0.5848809533
H      -1.6730669403     -3.2125997552     -1.6550242607
H      -1.0478120740      2.5325033652      2.1521131635
H      -2.9848215841      0.4996366615      1.3588679433
H      -1.4069109267      1.9169810986     -0.4134428919
12
Frame=671  time=336.000fs  energy=-306.20298566Ha  molecule=COOCCCHHHHHH
C      -0.1297303089      0.3029718930      0.2580695699
O       1.2100551858      1.0046768000      0.4683781828
O       2.4031385472      0.1295490189     -0.1186361319
C      -0.2448238511     -1.3113576590     -0.6758715424
C      -1.6010314779     -1.9865093231     -0.9460467090
C      -1.4873469048      1.3940324302      0.9081935544
H       0.8033871964     -1.9136789924     -1.0156886272
H      -2.6691528972     -1.3744312392     -0.5770483572
H      -1.6796751027     -3.2053445925     -1.6421478807
H      -1.0473269312      2.5265739677      2.1660883218
H      -2.9706965233      0.4830948762      1.3685570536
H      -1.4100080389      1.9066050333     -0.4214436875
12
Frame=672  time=336.500fs  energy=-306.20351048Ha  molecule=COOCCCHHHHHH
C      -0.1295431130      0.3075975034      0.2591649890
O       1.2080826543      1.0050078295      0.4676536526
O       2.4042860625      0.1316084365     -0.1174142404
C      -0.2461277396     -1.3153538048     -0.6790263869
C      -1.5991591121     -1.9867224729     -0.9488950923
C      -1.4885072752      1.3926877268      0.9086575560
H       0.8072135633     -1.9129470119     -1.0116551154
H      -2.6601466908     -1.3794683139     -0.5684027490
H      -1.6854224810     -3.1972301156     -1.6282219381
H      -1.0478820619      2.5226261652      2.1814699627
H      -2.9562260753      0.4662952625      1.3781309327
H      -1.4130905690      1.8966626084     -0.4279447585
12
Frame=673  time=337.000fs  energy=-306.20395943Ha  molecule=COOCCCHHHHHH
C      -0.1286561703      0.3132072985      0.2600437711
O       1.2050360018      1.0049776552      0.4670536329
O       2.4058001220      0.1336515359     -0.1162390472
C      -0.2479614984     -1.3192528881     -0.6818350040
C      -1.5968896620     -1.9870888941     -0.9519353615
C      -1.4892958742      1.3907796292      0.9087124840
H       0.8106064725     -1.9142232895     -1.0085190026
H      -2.6502433358     -1.3843727787     -0.5591609996
H      -1.6904469414     -3.1889998607     -1.6134902716
H      -1.0494451344      2.5211021539      2.1977826845
H      -2.9425117660      0.4496666761      1.3877205978
H      -1.4155505757      1.8875331384     -0.4315152572
12
Frame=674  time=337.500fs  energy=-306.20433358Ha  molecule=COOCCCHHHHHH
C      -0.1271462321      0.3195520379      0.2606533115
O       1.2009663378      1.0046154445      0.4665911133
O       2.4076756997      0.1356689711     -0.1151139058
C      -0.2501535157     -1.3229235757     -0.6842691983
C      -1.5942223703     -1.9876773788     -0.9551120145
C      -1.4896947043      1.3883178968      0.9083330303
H       0.8134438324     -1.9174995510     -1.0064459444
H      -2.6404476414     -1.3874749462     -0.5495677276
H      -1.6949752862     -3.1815464964     -1.5982395606
H      -1.0520731438      2.5222463039      2.2144913663
H      -2.9305815695      0.4335656273      1.3973490054
H      -1.4170347511      1.8796243058     -0.4311679543
12
Frame=675  time=338.000fs  energy=-306.20463446Ha  molecule=COOCCCHHHHHH
C      -0.1251420111      0.3263267925      0.2609432629
O       1.1959759997      1.0039598146      0.4662771352
O       2.4098991761      0.1376527532     -0.1140412882
C      -0.2524829726     -1.3262559905     -0.6863095333
C      -1.5911999251     -1.9885274729     -0.9583625853
C      -1.4896686765      1.3853601515      0.9075769168
H       0.8154249511     -1.9223251768     -1.0055677455
H      -2.6316023752     -1.3874288474     -0.5398853500
H      -1.6992318399     -3.1757301312     -1.5827889390
H      -1.0559383258      2.5260582410      2.2310400336
H      -2.9212399635      0.4182383028      1.4068324717
H      -1.4176138355      1.8733765707     -0.4266497168
12
Frame=676  time=338.500fs  energy=-306.20480790Ha  molecule=COOCCCHHHHHH
C      -0.1228160349      0.3331876495      0.2608674914
O       1.1902144894      1.0030566376      0.4661202753
O       2.4124493251      0.1395966836     -0.1130227166
C      -0.2547000949     -1.3291622112     -0.6879468399
C      -1.5879305503     -1.9896341001     -0.9616196011
C      -1.4891711651      1.3820085741      0.9065933944
H       0.8161350056     -1.9279062502     -1.0059721883
H      -2.6241288315     -1.3836257131     -0.5303850101
H      -1.7033259667     -3.1721555786     -1.5674801568
H      -1.0612989877      2.5323063591      2.2468890642
H      -2.9149693067      0.4038051568      1.4157320058
H      -1.4178242722      1.8692458515     -0.4185353050
12
Frame=677  time=339.000fs  energy=-306.20476613Ha  molecule=COOCCCHHHHHH
C      -0.1203736079      0.3397740037      0.2603865531
O       1.1838724693      1.0019567385      0.4661258769
O       2.4152972275      0.1414969803     -0.1120585359
C      -0.2565531535     -1.3315695995     -0.6891841001
C      -1.5845953941     -1.9909436423     -0.9648129183
C      -1.4881624266      1.3784006857      0.9056045298
H       0.8151807423     -1.9333221507     -1.0076941316
H      -2.6178959510     -1.3764256359     -0.5213359678
H      -1.7071704510     -3.1709866346     -1.5526661310
H      -1.0684142056      2.5405885941      2.2615517694
H      -2.9118937666      0.3902653078      1.4233848291
H      -1.4185433643      1.8676454879     -0.4080740877
12
Frame=678  time=339.500fs  energy=-306.20445786Ha  molecule=COOCCCHHHHHH
C      -0.1180357244      0.3457402119      0.2594709165
O       1.1771705288      1.0007125705      0.4662951417
O       2.4184062366      0.1433530598     -0.1111476283
C      -0.2578232902     -1.3334143253     -0.6900380645
C      -1.5814254507     -1.9923643418     -0.9678734825
C      -1.4866350346      1.3746945914      0.9048606630
H       0.8123508050     -1.9377900307     -1.0107090419
H      -2.6123011149     -1.3670664119     -0.5129901666
H      -1.7104885644     -3.1719059739     -1.5386924613
H      -1.0774316877      2.5504199459      2.2746344583
H      -2.9118100223      0.3775194518      1.4290276466
H      -1.4207248569      1.8688548100     -0.3968273896
12
Frame=679  time=340.000fs  energy=-306.20409451Ha  molecule=COOCCCHHHHHH
C      -0.1160464256      0.3501928313      0.2581030298
O       1.1703491584      0.9995218241      0.4666248708
O       2.4217219725      0.1451230470     -0.1102874577
C      -0.2584940910     -1.3343446162     -0.6905384319
C      -1.5785594071     -1.9938787174     -0.9707378161
C      -1.4845357554      1.3710358764      0.9045834268
H       0.8076922526     -1.9404786873     -1.0149349875
H      -2.6056399636     -1.3568525677     -0.5055660474
H      -1.7125999852     -3.1744330684     -1.5258749600
H      -1.0891395112      2.5623481860      2.2858693616
H      -2.9145776303      0.3661996331      1.4316020644
H      -1.4253761980      1.8737251427     -0.3858406407
12
Frame=680  time=340.500fs  energy=-306.20383293Ha  molecule=COOCCCHHHHHH
C      -0.1145962851      0.3528816877      0.2562738968
O       1.1636335287      0.9984315539      0.4671091820
O       2.4252007953      0.1468114484     -0.1094749416
C      -0.2585003250     -1.3342983572     -0.6907219939
C      -1.5761763861     -1.9953915704     -0.9733494138
C      -1.4819606924      1.3675724061      0.9049221295
H       0.8015839967     -1.9413430212     -1.0202513489
H      -2.5971858389     -1.3474454871     -0.4992464648
H      -1.7131374089     -3.1777929025     -1.5144926035
H      -1.1032914803      2.5760139576      2.2951132802
H      -2.9197303590      0.3561730340      1.4306711753
H      -1.4327907893      1.8821160312     -0.3760550124
12
Frame=681  time=341.000fs  energy=-306.20362237Ha  molecule=COOCCCHHHHHH
C      -0.1138078335      0.3543484785      0.2539792591
O       1.1572224297      0.9972995303      0.4677410552
O       2.4288159911      0.1484795959     -0.1087071652
C      -0.2576907128     -1.3335788861     -0.6906280382
C      -1.5744917304     -1.9967235684     -0.9756577702
C      -1.4791725597      1.3644525172      0.9059348042
H       0.7946825621     -1.9411551879     -1.0265148028
H      -2.5876300915     -1.3405997205     -0.4941853245
H      -1.7122006139     -3.1810563623     -1.5047924118
H      -1.1184183213      2.5899158339      2.3023284011
H      -2.9265413899      0.3463849963      1.4266187538
H      -1.4424073448      1.8927202328     -0.3682681720
12
Frame=682  time=341.500fs  energy=-306.20350187Ha  molecule=COOCCCHHHHHH
C      -0.1138003541      0.3545385295      0.2512194021
O       1.1513031933      0.9961387916      0.4685125370
O       2.4325306354      0.1501408410     -0.1079814939
C      -0.2561330762     -1.3321802028     -0.6902973777
C      -1.5735304323     -1.9978278420     -0.9776185796
C      -1.4763623746      1.3617884323      0.9075868863
H       0.7877494716     -1.9404608744     -1.0335641817
H      -2.5771068982     -1.3370114059     -0.4905083669
H      -1.7096924254     -3.1836877712     -1.4969884062
H      -1.1338218975      2.6037672190      2.3075722909
H      -2.9347410865      0.3367089983      1.4198065918
H      -1.4535019070      1.9049223442     -0.3622695984
12
Frame=683  time=342.000fs  energy=-306.20341562Ha  molecule=COOCCCHHHHHH
C      -0.1146538777      0.3534450834      0.2479992512
O       1.1460394624      0.9949579389      0.4694148916
O       2.4363110891      0.1518085281     -0.1072956378
C      -0.2539531228     -1.3301172866     -0.6897716798
C      -1.5732271187     -1.9986932978     -0.9791939682
C      -1.4737398216      1.3596721781      0.9097673872
H       0.7815739412     -1.9398433019     -1.0412240268
H      -2.5661899609     -1.3366806956     -0.4883130979
H      -1.7056804270     -3.1854290493     -1.4912607381
H      -1.1487307042      2.6173456904      2.3109885066
H      -2.9442085508      0.3270989051      1.4109519352
H      -1.4650070251      1.9179980762     -0.3574064805
12
Frame=684  time=342.500fs  energy=-306.20330756Ha  molecule=COOCCCHHHHHH
C      -0.1164024297      0.3511120525      0.2443306024
O       1.1415647598      0.9937619374      0.4704381901
O       2.4401271892      0.1534953343     -0.1066474535
C      -0.2513181011     -1.3274398073     -0.6890937858
C      -1.5734366087     -1.9993392188     -0.9803548383
C      -1.4715133236      1.3581734899      0.9123150065
H       0.7768472686     -1.9397558292     -1.0493054094
H      -2.5558234852     -1.3389633262     -0.4876606603
H      -1.7004044328     -3.1863329422     -1.4877445151
H      -1.1623865994      2.6304390224      2.3128047290
H      -2.9549201710      0.3175834110      1.4010348294
H      -1.4757002857      1.9311801700     -0.3528103225
12
Frame=685  time=343.000fs  energy=-306.20317795Ha  molecule=COOCCCHHHHHH
C      -0.1190278121      0.3476369361      0.2402340716
O       1.1379745077      0.9925524309      0.4715710765
O       2.4439528131      0.1552125907     -0.1060347625
C      -0.2484165625     -1.3242425366     -0.6883073925
C      -1.5739578788     -1.9998036682     -0.9810836192
C      -1.4698670091      1.3573369864      0.9150523067
H       0.7740443689     -1.9403797109     -1.0576095136
H      -2.5471617328     -1.3427609462     -0.4885667468
H      -1.6942536052     -3.1867381114     -1.4865169652
H      -1.1741452228      2.6427910381      2.3133262653
H      -2.9668730552      0.3082519866      1.3911521430
H      -1.4844317532      1.9437403180     -0.3476634466
12
Frame=686  time=343.500fs  energy=-306.20308753Ha  molecule=COOCCCHHHHHH
C      -0.1224598017      0.3431672974      0.2357388026
O       1.1353223432      0.9913278599      0.4728011194
O       2.4477665077      0.1569697600     -0.1054553711
C      -0.2454370367     -1.3206663601     -0.6874557821
C      -1.5745693126     -2.0001279105     -0.9813748781
C      -1.4689419724      1.3571817254      0.9178221686
H       0.7733548196     -1.9415545867     -1.0659342733
H      -2.5413536708     -1.3468214064     -0.4910006623
H      -1.6877078163     -3.1871778257     -1.4875952901
H      -1.1835585081      2.6540613407      2.3129191719
H      -2.9800034129      0.2992348935      1.3823422872
H      -1.4903346221      1.9550690280     -0.3414473394
12
Frame=687  time=344.000fs  energy=-306.20309757Ha  molecule=COOCCCHHHHHH
C      -0.1265832515      0.3378916470      0.2308802852
O       1.1336235803      0.9900837288      0.4741155119
O       2.4515515782      0.1587742267     -0.1049072643
C      -0.2425527473     -1.3168897792     -0.6865805705
C      -1.5750655821     -2.0003420326     -0.9812331445
C      -1.4688293523      1.3577038965      0.9205166047
H       0.7746913532     -1.9428079672     -1.0740797903
H      -2.5393392901     -1.3500610885     -0.4948940208
H      -1.6812546339     -3.1882388798     -1.4909479071
H      -1.1904055672      2.6638097183      2.3119897146
H      -2.9941158367      0.2906819822      1.3754305593
H      -1.4929571074      1.9647261467     -0.3341083417
12
Frame=688  time=344.500fs  energy=-306.20329077Ha  molecule=COOCCCHHHHHH
C      -0.1312815158      0.3319777070      0.2256983981
O       1.1329088785      0.9889528202      0.4755015627
O       2.4553518395      0.1605045608     -0.1043887954
C      -0.2399049284     -1.3130974179     -0.6857214039
C      -1.5752738860     -2.0003836159     -0.9806699350
C      -1.4697458671      1.3588291911      0.9230912166
H       0.7775405464     -1.9435845213     -1.0818494033
H      -2.5420198162     -1.3519853046     -0.5001515158
H      -1.6748942265     -3.1905637460     -1.4965090124
H      -1.1942173498      2.6707911445      2.3109697834
H      -3.0087331429      0.2832986483      1.3710104226
H      -1.4921964147      1.9730066553     -0.3261907290
12
Frame=689  time=345.000fs  energy=-306.20363042Ha  molecule=COOCCCHHHHHH
C      -0.1363719637      0.3256757469      0.2202370241
O       1.1331359113      0.9879254741      0.4769467253
O       2.4591576385      0.1621650449     -0.1038987847
C      -0.2376262582     -1.3095038224     -0.6849165823
C      -1.5751039139     -2.0002401043     -0.9797018442
C      -1.4717003178      1.3605150075      0.9255651600
H       0.7814942035     -1.9431448134     -1.0890471876
H      -2.5495013445     -1.3525589677     -0.5066573858
H      -1.6688769179     -3.1943854414     -1.5041872057
H      -1.1951333048      2.6744337324      2.3103095498
H      -3.0232821187      0.2772261531      1.3692539421
H      -1.4884631800      1.9798173716     -0.3186364486
12
Frame=690  time=345.500fs  energy=-306.20397345Ha  molecule=COOCCCHHHHHH
C      -0.1416059018      0.3193206161      0.2145464315
O       1.1341847794      0.9868438065      0.4784380269
O       2.4629025007      0.1638916719     -0.1034363394
C      -0.2358430303     -1.3063383499     -0.6842035854
C      -1.5745623177     -1.9999566050     -0.9783524904
C      -1.4744911605      1.3627477941      0.9280099617
H       0.7863505243     -1.9407281772     -1.0954791449
H      -2.5610116447     -1.3522649139     -0.5142699714
H      -1.6636697346     -3.1994232211     -1.5138543504
H      -1.1938747459      2.6749505244      2.3104670875
H      -3.0371167047      0.2720058336      1.3699088874
H      -1.4826082142      1.9846347329     -0.3126466775
12
Frame=691  time=346.000fs  energy=-306.20424757Ha  molecule=COOCCCHHHHHH
C      -0.1467476140      0.3132115174      0.2086860051
O       1.1359503844      0.9856949174      0.4799614921
O       2.4665803641      0.1656873200     -0.1030005257
C      -0.2346499272     -1.3037827755     -0.6836183089
C      -1.5737243629     -1.9994976416     -0.9766563223
C      -1.4780660613      1.3654312286      0.9305266267
H       0.7917486556     -1.9359936707     -1.1009634144
H      -2.5755994756     -1.3523089034     -0.5228129366
H      -1.6591019921     -3.2052116955     -1.5253249782
H      -1.1907547516      2.6719604899      2.3118790776
H      -3.0493844715      0.2677223072      1.3725012492
H      -1.4755748477      1.9876394044     -0.3095937649
12
Frame=692  time=346.500fs  energy=-306.20452163Ha  molecule=COOCCCHHHHHH
C      -0.1515318555      0.3080917836      0.2027243258
O       1.1382917753      0.9843618568      0.4815021227
O       2.4701973421      0.1675827575     -0.1025902219
C      -0.2340174925     -1.3021859406     -0.6831936795
C      -1.5727977359     -1.9987716837     -0.9746595507
C      -1.4824300553      1.3684488232      0.9332113223
H       0.7974917039     -1.9293303457     -1.1053423307
H      -2.5926535411     -1.3544438083     -0.5320773457
H      -1.6550621324     -3.2109145272     -1.5383502282
H      -1.1854494238      2.6645559089      2.3149197881
H      -3.0590561779      0.2638564692      1.3766586957
H      -1.4680788049      1.9885282524     -0.3108950136
12
Frame=693  time=347.000fs  energy=-306.20494732Ha  molecule=COOCCCHHHHHH
C      -0.1557129637      0.3044651129      0.1967374355
O       1.1410530280      0.9827914783      0.4830441733
O       2.4737576400      0.1695860372     -0.1022042954
C      -0.2339434662     -1.3017255096     -0.6829594296
C      -1.5719876056     -1.9977490045     -0.9724172972
C      -1.4875501763      1.3716542456      0.9361188317
H       0.8035374740     -1.9214456980     -1.1084847527
H      -2.6111739669     -1.3601158986     -0.5418337789
H      -1.6512507958     -3.2157050564     -1.5526306391
H      -1.1778730670      2.6524811327      2.3198739918
H      -3.0653896359      0.2601801531      1.3818615926
H      -1.4606990917      1.9873323348     -0.3172914501
12
Frame=694  time=347.500fs  energy=-306.20535439Ha  molecule=COOCCCHHHHHH
C      -0.1591144794      0.3018024945      0.1908081816
O       1.1440839926      0.9811905098      0.4845711865
O       2.4772470151      0.1716234651     -0.1018417773
C      -0.2346291745     -1.3020246932     -0.6829426168
C      -1.5713441791     -1.9965935804     -0.9699914066
C      -1.4932341030      1.3748582710      0.9392336735
H       0.8099197401     -1.9127769396     -1.1102840840
H      -2.6288442140     -1.3695784922     -0.5518405313
H      -1.6468810364     -3.2191817050     -1.5678255729
H      -1.1692537465      2.6374713372      2.3269224680
H      -3.0684267170      0.2578074428      1.3871106282
H      -1.4540907904      1.9854025129     -0.3281509918
12
Frame=695  time=348.000fs  energy=-306.20568863Ha  molecule=COOCCCHHHHHH
C      -0.1615592091      0.3002300040      0.1850254474
O       1.1472219704      0.9796042225      0.4860661236
O       2.4806671213      0.1736675016     -0.1015016831
C      -0.2360822095     -1.3029969310     -0.6831660867
C      -1.5709956317     -1.9954159933     -0.9674510831
C      -1.4994021514      1.3778779550      0.9424547825
H       0.8167554803     -1.9044631424     -1.1106700647
H      -2.6448010418     -1.3827444219     -0.5618459772
H      -1.6416667691     -3.2210236540     -1.5835497949
H      -1.1597596000      2.6203265784      2.3361118805
H      -3.0682948563      0.2569440651      1.3921328062
H      -1.4481115695      1.9831465589     -0.3424575360
12
Frame=696  time=348.500fs  energy=-306.20579121Ha  molecule=COOCCCHHHHHH
C      -0.1629225247      0.2998150266      0.1794813186
O       1.1503102900      0.9780889222      0.4875119203
O       2.4840212812      0.1756852853     -0.1011828545
C      -0.2382592914     -1.3045159524     -0.6836464768
C      -1.5710193901     -1.9943737497     -0.9648719755
C      -1.5059599689      1.3805322150      0.9456058953
H       0.8240707061     -1.8976351089     -1.1096209746
H      -2.6587063806     -1.3985904934     -0.5715956390
H      -1.6355576273     -3.2213369005     -1.5993794088
H      -1.1495404074      2.6020375917      2.3473353622
H      -3.0655619129      0.2577825695      1.3969617450
H      -1.4422266891      1.9809497412     -0.3584826376
12
Frame=697  time=349.000fs  energy=-306.20555543Ha  molecule=COOCCCHHHHHH
C      -0.1631522144      0.3005540761      0.1742649978
O       1.1532101276      0.9767075421      0.4888926656
O       2.4873142924      0.1776414473     -0.1008837573
C      -0.2410514279     -1.3064383366     -0.6843913215
C      -1.5714350044     -1.9936480745     -0.9623333777
C      -1.5127831195      1.3826619283      0.9484745623
H       0.8316638852     -1.8931178515     -1.1071777237
H      -2.6707404798     -1.4153025870     -0.5808451991
H      -1.6287925313     -3.2206985852     -1.6148698314
H      -1.1388094757      2.5836490068      2.3603273845
H      -3.0611498437      0.2604467611      1.4018611405
H      -1.4357236161      1.9791823235     -0.3741409186
12
Frame=698  time=349.500fs  energy=-306.20502762Ha  molecule=COOCCCHHHHHH
C      -0.1622792613      0.3023684067      0.1694548829
O       1.1558134488      0.9755232802      0.4901950386
O       2.4905516402      0.1795021300     -0.1006024325
C      -0.2442836273     -1.3086275674     -0.6853970861
C      -1.5722166774     -1.9934066788     -0.9599129204
C      -1.5197078354      1.3841523187      0.9508703660
H       0.8390399570     -1.8912005994     -1.1034480479
H      -2.6814209163     -1.4307226028     -0.5893778979
H      -1.6218649052     -3.2200515559     -1.6295875628
H      -1.1279195448      2.5660856662      2.3746918594
H      -3.0561381871      0.2649341425      1.4071619076
H      -1.4280112480      1.9782080369     -0.3875115541
12
Frame=699  time=350.000fs  energy=-306.20437427Ha  molecule=COOCCCHHHHHH
C      -0.1604106023      0.3051137047      0.1651127447
O       1.1580513059      0.9745938989      0.4914092182
O       2.4937381362      0.1812386601     -0.1003366533
C      -0.2477364996     -1.3109690817     -0.6866498078
C      -1.5733223774     -1.9937694930     -0.9576807794
C      -1.5265353450      1.3849468604      0.9526788306
H       0.8454735217     -1.8916138310     -1.0985943635
H      -2.6913033559     -1.4429423094     -0.5970183998
H      -1.6153886318     -3.2204484538     -1.6431429636
H      -1.1173837523      2.5500201662      2.3899609431
H      -3.0515203352      0.2710829781      1.4130712494
H      -1.4188796136      1.9783864159     -0.3973180088
12
Frame=700  time=350.500fs  energy=-306.20375345Ha  molecule=COOCCCHHHHHH
C      -0.1577064385      0.3086011960      0.1612831311
O       1.1598934732      0.9739690981      0.4925287323
O       2.4968764864      0.1828293352     -0.1000841610
C      -0.2511810621     -1.3133706209     -0.6881283523
C      -1.5747259500     -1.9947937852     -0.9556963866
C      -1.5330487170      1.3850452727      0.9538868800
H       0.8501702910     -1.8937204700     -1.0928104649
H      -2.7006996525     -1.4507816703     -0.6036359780
H      -1.6099202080     -3.2227443912     -1.6552076470
H      -1.1078216387      2.5358487118      2.4056582506
H      -3.0480179420      0.2785775504      1.4195367479
H      -1.4086043884      1.9800664616     -0.4031485843
12
Frame=701  time=351.000fs  energy=-306.20322749Ha  molecule=COOCCCHHHHHH
C      -0.1543550597      0.3126195751      0.1579967961
O       1.1613415355      0.9736907545      0.4935495704
O       2.4999663085      0.1842593598     -0.0998428289
C      -0.2544099766     -1.3157526406     -0.6898082184
C      -1.5764366416     -1.9964794205     -0.9540084672
C      -1.5390333759      1.3844900617      0.9545742746
H       0.8524340479     -1.8967814532     -1.0863001577
H      -2.7095293705     -1.4539870226     -0.6091383927
H      -1.6058233322     -3.2273751253     -1.6655131555
H      -1.0998645086      2.5237613501      2.4213403098
H      -3.0460195329      0.2869811698      1.4262180331
H      -1.3978791194      1.9835699778     -0.4053746949
12
Frame=702  time=351.500fs  energy=-306.20278015Ha  molecule=COOCCCHHHHHH
C      -0.1505555043      0.3169499056      0.1552737705
O       1.1624211798      0.9737934455      0.4944694253
O       2.5030037732      0.1855203919     -0.0996107114
C      -0.2572583035     -1.3180374542     -0.6916638045
C      -1.5784978378     -1.9987834812     -0.9526561732
C      -1.5442955050      1.3833524030      0.9548851773
H       0.8517862892     -1.9001678681     -1.0792662301
H      -2.7173366675     -1.4531610004     -0.6134655295
H      -1.6032206730     -3.2342869202     -1.6738441765
H      -1.0940634189      2.5138376131      2.4366134515
H      -3.0456189912      0.2957764623      1.4325488730
H      -1.3876467442      1.9891619586     -0.4048984648
12
Frame=703  time=352.000fs  energy=-306.20238971Ha  molecule=COOCCCHHHHHH
C      -0.1465070913      0.3213756185      0.1531239383
O       1.1631763821      0.9743035205      0.4952874468
O       2.5059817793      0.1866106216     -0.0993860340
C      -0.2596165942     -1.3201430748     -0.6936691467
C      -1.5809678060     -2.0016365426     -0.9516692464
C      -1.5486785283      1.3817220418      0.9549938487
H       0.8480361333     -1.9034860301     -1.0719067715
H      -2.7234367413     -1.4495122869     -0.6165881199
H      -1.6020227607     -3.2430004499     -1.6800376410
H      -1.0908162130      2.5061198536      2.4511403246
H      -3.0466963964      0.3044062036      1.4378464437
H      -1.3788985964      1.9970104435     -0.4028579540
12
Frame=704  time=352.500fs  energy=-306.20191747Ha  molecule=COOCCCHHHHHH
C      -0.1424009131      0.3256920824      0.1515471865
O       1.1636641779      0.9752378133      0.4960041113
O       2.5088904032      0.1875348380     -0.0991671950
C      -0.2614365177     -1.3219832706     -0.6957984000
C      -1.5838939189     -2.0049590879     -0.9510678913
C      -1.5520754746      1.3796992024      0.9550705976
H       0.8412957217     -1.9066218033     -1.0644125130
H      -2.7271182683     -1.4445186610     -0.6185075872
H      -1.6020017144     -3.2527561190     -1.6839833519
H      -1.0903233270      2.5006583364      2.4646440885
H      -3.0490112316      0.3123153843      1.4414358659
H      -1.3724829077      2.0071500339     -0.4003478061
12
Frame=705  time=353.000fs  energy=-306.20199623Ha  molecule=COOCCCHHHHHH
C      -0.1384886233      0.3282156462      0.1505357925
O       1.1639699032      0.9769759038      0.4966207366
O       2.5116871146      0.1881910944     -0.0989527811
C      -0.2630650358     -1.3227321847     -0.6980267613
C      -1.5870624672     -2.0089019982     -0.9508642040
C      -1.5541860814      1.3773498566      0.9552533153
H       0.8318482864     -1.9087251223     -1.0569640068
H      -2.7255610338     -1.4385936893     -0.6192510973
H      -1.6021021908     -3.2631350118     -1.6856156128
H      -1.0946938061      2.5001049744      2.4769068988
H      -3.0530075556      0.3209624825      1.4418010013
H      -1.3696761695      2.0214416765     -0.3972379286
12
Frame=706  time=353.500fs  energy=-306.20229567Ha  molecule=COOCCCHHHHHH
C      -0.1348899676      0.3293731899      0.1500871242
O       1.1641302353      0.9793213499      0.4971370996
O       2.5143419165      0.1886913623     -0.0987416141
C      -0.2644228406     -1.3225921499     -0.7003321220
C      -1.5905486075     -2.0133567290     -0.9510714859
C      -1.5550041322      1.3748098279      0.9556324755
H       0.8203420023     -1.9104386212     -1.0497364807
H      -2.7191350542     -1.4332202887     -0.6188449072
H      -1.6025503351     -3.2730337131     -1.6848598239
H      -1.1031861733      2.5039625559      2.4877360299
H      -3.0582494212      0.3288572003      1.4388729666
H      -1.3705104671      2.0386480445     -0.3943066923
12
Frame=707  time=354.000fs  energy=-306.20281751Ha  molecule=COOCCCHHHHHH
C      -0.1316483037      0.3301973101      0.1502030783
O       1.1641187014      0.9817714758      0.4975514252
O       2.5167606374      0.1893482452     -0.0985326387
C      -0.2653562533     -1.3220526786     -0.7026941617
C      -1.5944785569     -2.0182461889     -0.9517045679
C      -1.5544261615      1.3722914126      0.9562428504
H       0.8078348671     -1.9127011832     -1.0429084606
H      -2.7088986983     -1.4296752176     -0.6173173403
H      -1.6044264645     -3.2810793090     -1.6816313875
H      -1.1147509739      2.5117903329      2.4969562752
H      -3.0642768203      0.3331495813      1.4330382418
H      -1.3745431056      2.0559995248     -0.3921340682
12
Frame=708  time=354.500fs  energy=-306.20352998Ha  molecule=COOCCCHHHHHH
C      -0.1289159072      0.3306374279      0.1508844776
O       1.1640159640      0.9843299299      0.4978612671
O       2.5189319517      0.1901638587     -0.0983248231
C      -0.2659460739     -1.3210937294     -0.7050933718
C      -1.5987358594     -2.0235226822     -0.9527758899
C      -1.5525486256      1.3698912779      0.9570559317
H       0.7949840918     -1.9160213783     -1.0366646772
H      -2.6954336206     -1.4283646109     -0.6147128957
H      -1.6076397439     -3.2866958405     -1.6758592421
H      -1.1287397920      2.5235043666      2.5044244378
H      -3.0710326256      0.3334031109      1.4244883819
H      -1.3812075042      2.0729074383     -0.3903421168
12
Frame=709  time=355.000fs  energy=-306.20414510Ha  molecule=COOCCCHHHHHH
C      -0.1268930307      0.3305603405      0.1521247278
O       1.1639924663      0.9872479032      0.4980645515
O       2.5209451820      0.1909129722     -0.0981171276
C      -0.2662803926     -1.3196936157     -0.7075106721
C      -1.6031046830     -2.0290158306     -0.9542903325
C      -1.5498268100      1.3676200864      0.9579799477
H       0.7820477880     -1.9209729528     -1.0311920641
H      -2.6803913619     -1.4293901208     -0.6111070860
H      -1.6115008939     -3.2899193223     -1.6675169760
H      -1.1435509449      2.5376416771      2.5100554564
H      -3.0783984590      0.3303035700      1.4139093450
H      -1.3893534105      2.0896198479     -0.3882763300
12
Frame=710  time=355.500fs  energy=-306.20457028Ha  molecule=COOCCCHHHHHH
C      -0.1256730381      0.3299649768      0.1539003749
O       1.1641236821      0.9904842795      0.4981614150
O       2.5227780077      0.1916281718     -0.0979085978
C      -0.2664880836     -1.3179207021     -0.7099276260
C      -1.6073307178     -2.0346952589     -0.9562369798
C      -1.5464220545      1.3655925774      0.9588753688
H       0.7696182904     -1.9275413912     -1.0266623946
H      -2.6652171583     -1.4319635499     -0.6066241174
H      -1.6162815177     -3.2909093939     -1.6566715458
H      -1.1584213367      2.5539898505      2.5138672443
H      -3.0865467396      0.3236276041      1.4021895439
H      -1.3977502823      2.1051630262     -0.3849050089
12
Frame=711  time=356.000fs  energy=-306.20475951Ha  molecule=COOCCCHHHHHH
C      -0.1252905742      0.3288837978      0.1561674514
O       1.1644709189      0.9939785639      0.4981553113
O       2.5244096737      0.1923497042     -0.0976985654
C      -0.2667012169     -1.3159057461     -0.7123268307
C      -1.6111285024     -2.0405122947     -0.9585857967
C      -1.5425172127      1.3639206822      0.9595919845
H       0.7581082053     -1.9352535573     -1.0232159216
H      -2.6515691158     -1.4349169149     -0.6014375317
H      -1.6223648487     -3.2902799137     -1.6435039014
H      -1.1726534704      2.5720957687      2.5160061316
H      -3.0956658578      0.3133709365      1.3904604750
H      -1.4051582633      2.1185460307     -0.3793280579
12
Frame=712  time=356.500fs  energy=-306.20478382Ha  molecule=COOCCCHHHHHH
C      -0.1257120699      0.3273831314      0.1588637663
O       1.1650704372      0.9976544269      0.4980532272
O       2.5258228984      0.1931223523     -0.0974868133
C      -0.2670387093     -1.3138315457     -0.7146921051
C      -1.6142361165     -2.0463866105     -0.9612898599
C      -1.5382865769      1.3627039440      0.9600168223
H       0.7477424381     -1.9432335992     -1.0209532908
H      -2.6409766298     -1.4370914966     -0.5957557009
H      -1.6301238832     -3.2889415568     -1.6282981137
H      -1.1857275093      2.5912493004      2.5167422969
H      -3.1058521827      0.2997336443      1.3798817313
H      -1.4106517524      2.1289002523     -0.3711611643
12
Frame=713  time=357.000fs  energy=-306.20474516Ha  molecule=COOCCCHHHHHH
C      -0.1268416840      0.3255584093      0.1619151374
O       1.1659279801      1.0014260274      0.4978650897
O       2.5270044509      0.1939916937     -0.0972736003
C      -0.2675949964     -1.3119063636     -0.7170084845
C      -1.6164700567     -2.0522021122     -0.9642912043
C      -1.5338745926      1.3620200594      0.9601127600
H       0.7386365541     -1.9504188906     -1.0199383455
H      -2.6345120779     -1.4377637270     -0.5898010931
H      -1.6397606633     -3.2878055585     -1.6114101541
H      -1.1973434809      2.6105486307      2.5164387454
H      -3.1169985779      0.2830621854      1.3713950581
H      -1.4138423359      2.1355804406     -0.3607629764
12
Frame=714  time=357.500fs  energy=-306.20467515Ha  molecule=COOCCCHHHHHH
C      -0.1285360927      0.3235278187      0.1652414269
O       1.1670191199      1.0052037317      0.4976029779
O       2.5279448952      0.1950010904     -0.0970596138
C      -0.2684346819     -1.3103329787     -0.7192621517
C      -1.6177628661     -2.0578130281     -0.9675262762
C      -1.5293933869      1.3619163308      0.9599319550
H       0.7309102531     -1.9558294326     -1.0202054519
H      -2.6325881859     -1.4369388769     -0.5837941546
H      -1.6511656261     -3.2874805929     -1.5932384512
H      -1.2073822882      2.6290189011      2.5155124345
H      -3.1287268241      0.2637920302      1.3655465641
H      -1.4149120953      2.1382016833     -0.3492126960
12
Frame=715  time=358.000fs  energy=-306.20452643Ha  molecule=COOCCCHHHHHH
C      -0.1306196869      0.3214258136      0.1687601725
O       1.1682926404      1.0088984830      0.4972806175
O       2.5286388692      0.1961891485     -0.0968459635
C      -0.2695909725     -1.3092815398     -0.7214406707
C      -1.6181748324     -2.0630591716     -0.9709287951
C      -1.5249342689      1.3624014269      0.9596025553
H       0.7247736596     -1.9587944094     -1.0217616236
H      -2.6349259353     -1.4353930767     -0.5779443430
H      -1.6638550586     -3.2881037881     -1.5742075519
H      -1.2158300052      2.6457447690      2.5143996654
H      -3.1403960209      0.2424231445      1.3624234808
H      -1.4144810874      2.1366358116     -0.3380755094
12
Frame=716  time=358.500fs  energy=-306.20420231Ha  molecule=COOCCCHHHHHH
C      -0.1328995767      0.3193936663      0.1723892097
O       1.1696762543      1.0124265892      0.4969129632
O       2.5290862656      0.1975868487     -0.0966342228
C      -0.2710660080     -1.3088681750     -0.7235339040
C      -1.6178763012     -2.0677897862     -0.9744310780
C      -1.5205827556      1.3634391000      0.9592957499
H       0.7205481725     -1.9590880503     -1.0245808025
H      -2.6406949151     -1.4344301735     -0.5724437700
H      -1.6770217794     -3.2893682160     -1.5547580443
H      -1.2227093696      2.6599942508      2.5135222198
H      -3.1511905672      0.2195218377      1.3616949158
H      -1.4133761423      2.1309921728     -0.3290362593
12
Frame=717  time=359.000fs  energy=-306.20396910Ha  molecule=COOCCCHHHHHH
C      -0.1351382411      0.3184509402      0.1760501750
O       1.1710731782      1.0154956663      0.4965154605
O       2.5293107970      0.1992815935     -0.0964264282
C      -0.2726333231     -1.3095804948     -0.7255352643
C      -1.6172405276     -2.0717565234     -0.9779657734
C      -1.5165751256      1.3649712217      0.9591827686
H       0.7186710361     -1.9575229662     -1.0285986023
H      -2.6501148395     -1.4360528665     -0.5674612380
H      -1.6901394662     -3.2904351882     -1.5353325900
H      -1.2267857409      2.6697897124      2.5132508217
H      -3.1598455500      0.1945535999      1.3633080264
H      -1.4119464175      2.1204075122     -0.3240663023
12
Frame=718  time=359.500fs  energy=-306.20389376Ha  molecule=COOCCCHHHHHH
C      -0.1371614902      0.3186399548      0.1796716131
O       1.1723974809      1.0180635925      0.4961030195
O       2.5293201866      0.2012798272     -0.0962249755
C      -0.2742609270     -1.3113771065     -0.7274417959
C      -1.6165068525     -2.0749017178     -0.9814677260
C      -1.5130036554      1.3668846933      0.9593978261
H       0.7195261970     -1.9546012735     -1.0337243447
H      -2.6619754593     -1.4413305866     -0.5631449493
H      -1.7021703327     -3.2907184533     -1.5163654349
H      -1.2281230336      2.6750623865      2.5138801171
H      -3.1656582857      0.1683029006      1.3665047182
H      -1.4107265158      2.1053807428     -0.3239685600
12
Frame=719  time=360.000fs  energy=-306.20382180Ha  molecule=COOCCCHHHHHH
C      -0.1388613496      0.3191028974      0.1831892842
O       1.1735784633      1.0203177720      0.4956897901
O       2.5291064702      0.2035143284     -0.0960326039
C      -0.2760954405     -1.3137421169     -0.7292538081
C      -1.6157562080     -2.0773487811     -0.9848739800
C      -1.5098310995      1.3690232582      0.9600137611
H       0.7233781384     -1.9504117616     -1.0398485843
H      -2.6739615798     -1.4502002461     -0.5596271105
H      -1.7117260353     -3.2900435742     -1.4982835463
H      -1.2279604794      2.6774732758      2.5156168115
H      -3.1685618558      0.1427667034      1.3700508052
H      -1.4102824212      2.0876045863     -0.3282959337
12
Frame=720  time=360.500fs  energy=-306.20379042Ha  molecule=COOCCCHHHHHH
C      -0.1401146338      0.3198269655      0.1865466636
O       1.1745408956      1.0222427510      0.4952892413
O       2.5286820742      0.2059748843     -0.0958524154
C      -0.2780655842     -1.3165587530     -0.7309748506
C      -1.6151551708     -2.0791407256     -0.9881242232
C      -1.5071683536      1.3712372965      0.9610281251
H       0.7303819634     -1.9456368275     -1.0468418040
H      -2.6854076668     -1.4624881873     -0.5570215534
H      -1.7180800178     -3.2882647529     -1.4815026276
H      -1.2262803604      2.6773815917      2.5185663067
H      -3.1683974267      0.1188416580      1.3734864046
H      -1.4103518440      2.0676500528     -0.3364321370
12
Frame=721  time=361.000fs  energy=-306.20370957Ha  molecule=COOCCCHHHHHH
C      -0.1408323094      0.3207851894      0.1896956628
O       1.1752211290      1.0238333760      0.4949141769
O       2.5280627160      0.2086438181     -0.0956878708
C      -0.2800751203     -1.3196994445     -0.7326112799
C      -1.6148091818     -2.0803614574     -0.9911617502
C      -1.5051190337      1.3733705860      0.9623670629
H       0.7404591531     -1.9408440502     -1.0545569405
H      -2.6960494044     -1.4773159963     -0.5554210560
H      -1.7208043791     -3.2856162273     -1.4664210138
H      -1.2230625824      2.6752498101      2.5227262939
H      -3.1653631905      0.0974310826      1.3766426957
H      -1.4103261414      2.0460998087     -0.3471571392
12
Frame=722  time=361.500fs  energy=-306.20348415Ha  molecule=COOCCCHHHHHH
C      -0.1409673285      0.3219369043      0.1925988118
O       1.1755722957      1.0250961070      0.4945765307
O       2.5272682867      0.2114955371     -0.0955427251
C      -0.2820038113     -1.3230369096     -0.7341719375
C      -1.6147582261     -2.0811241845     -0.9939362114
C      -1.5037581156      1.3752704237      0.9639045483
H       0.7532385150     -1.9363792464     -1.0628297916
H      -2.7059857535     -1.4932284121     -0.5548877578
H      -1.7198289183     -3.2827266516     -1.4533999525
H      -1.2183519243      2.6715716394      2.5279839968
H      -3.1600008743      0.0793855074      1.3796284482
H      -1.4094141612      2.0235690482     -0.3588839131
12
Frame=723  time=362.000fs  energy=-306.20309995Ha  molecule=COOCCCHHHHHH
C      -0.1405206589      0.3232289392      0.1952320754
O       1.1755692953      1.0260500668      0.4942868597
O       2.5263230426      0.2144969850     -0.0954208403
C      -0.2837155485     -1.3264528702     -0.7356675334
C      -1.6149843482     -2.0815543859     -0.9964077764
C      -1.5031102805      1.3768011257      0.9654954733
H       0.7680550585     -1.9323191664     -1.0714833230
H      -2.7155519812     -1.5084855950     -0.5554413903
H      -1.7154427678     -3.2805222498     -1.4427340106
H      -1.2123248774      2.6667939587      2.5341262250
H      -3.1531084979      0.0654172286      1.3827424857
H      -1.4068688574      2.0007191723     -0.3699985322
12
Frame=724  time=362.500fs  energy=-306.20264347Ha  molecule=COOCCCHHHHHH
C      -0.1395393028      0.3245988652      0.1975858903
O       1.1752101903      1.0267257071      0.4940538866
O       2.5252542392      0.2176099251     -0.0953259215
C      -0.2850739893     -1.3298428679     -0.7371095980
C      -1.6154315657     -2.0817701460     -0.9985502430
C      -1.5031397266      1.3778562058      0.9670146062
H       0.7840365654     -1.9285129257     -1.0803380361
H      -2.7251289200     -1.5214575988     -0.5570545356
H      -1.7082039319     -3.2800211268     -1.4346301328
H      -1.2053180697      2.6612523953      2.5408676791
H      -3.1455827031      0.0560279952      1.3863342820
H      -1.4022061294      1.9782488829     -0.3792133528
12
Frame=725  time=363.000fs  energy=-306.20222847Ha  molecule=COOCCCHHHHHH
C      -0.1381196208      0.3259573193      0.1996628940
O       1.1745316992      1.0272185611      0.4938845587
O       2.5241129487      0.2207419295     -0.0952613604
C      -0.2859544267     -1.3331074370     -0.7385092923
C      -1.6160261732     -2.0818374564     -1.0003506361
C      -1.5038287019      1.3783415161      0.9683872423
H       0.8001556390     -1.9247468797     -1.0892236961
H      -2.7350895357     -1.5310327063     -0.5596599874
H      -1.6986102565     -3.2821594066     -1.4292125632
H      -1.1976103408      2.6548539852      2.5478881656
H      -3.1382041203      0.0517183042      1.3906919031
H      -1.3952894183      1.9571000096     -0.3858287200
12
Frame=726  time=363.500fs  energy=-306.20203192Ha  molecule=COOCCCHHHHHH
C      -0.1364022773      0.3271772879      0.2014732653
O       1.1736144875      1.0277209882      0.4937847523
O       2.5229865812      0.2237159160     -0.0952303542
C      -0.2862501863     -1.3361406673     -0.7398764389
C      -1.6166950357     -2.0817463932     -1.0018053279
C      -1.5052421703      1.3781563847      0.9696015040
H       0.8152981876     -1.9209042016     -1.0979855600
H      -2.7457621437     -1.5368331414     -0.5631657108
H      -1.6868334076     -3.2876544904     -1.4265528347
H      -1.1892364966      2.6469161465      2.5548612627
H      -3.1314951273      0.0531698809      1.3959643116
H      -1.3863076602      1.9385865865     -0.3897908825
12
Frame=727  time=364.000fs  energy=-306.20200238Ha  molecule=COOCCCHHHHHH
C      -0.1344840061      0.3282151863      0.2030303657
O       1.1724718878      1.0282041468      0.4937602397
O       2.5218710252      0.2265566546     -0.0952362287
C      -0.2858993745     -1.3388629373     -0.7412189601
C      -1.6174078271     -2.0815780865     -1.0029155222
C      -1.5071615606      1.3772981928      0.9707045240
H       0.8288216119     -1.9167839674     -1.1064827985
H      -2.7566572469     -1.5388797014     -0.5674668296
H      -1.6735383194     -3.2965609087     -1.4267044202
H      -1.1809443561      2.6378344800      2.5614644767
H      -3.1259145140      0.0600547057      1.4019489130
H      -1.3759333668      1.9231486101     -0.3914179375
12
Frame=728  time=364.500fs  energy=-306.20202999Ha  molecule=COOCCCHHHHHH
C      -0.1324493554      0.3290590091      0.2043498504
O       1.1710940040      1.0285532292      0.4938170052
O       2.5207255733      0.2293675970     -0.0952825800
C      -0.2848784232     -1.3411970313     -0.7425427610
C      -1.6181611931     -2.0814430588     -1.0036865156
C      -1.5092627499      1.3758101545      0.9717911885
H       0.8403757264     -1.9122798166     -1.1145851819
H      -2.7668103237     -1.5376756707     -0.5724455107
H      -1.6594686766     -3.3083990167     -1.4297085228
H      -1.1737038344      2.6284395012      2.5673800238
H      -3.1217667591      0.0715784355      1.4081675571
H      -1.3651352446      1.9108724485     -0.3913424902
12
Frame=729  time=365.000fs  energy=-306.20202150Ha  molecule=COOCCCHHHHHH
C      -0.1304562363      0.3290897941      0.2054508819
O       1.1695345401      1.0289384572      0.4939608831
O       2.5195563971      0.2320777036     -0.0953731472
C      -0.2833160111     -1.3427658913     -0.7438517302
C      -1.6188592041     -2.0814524702     -1.0041297396
C      -1.5113224165      1.3736860301      0.9729870746
H       0.8495358017     -1.9072514720     -1.1221740059
H      -2.7745913660     -1.5339594495     -0.5779659542
H      -1.6445081812     -3.3226140540     -1.4355772036
H      -1.1686712088      2.6197831641      2.5723009745
H      -3.1193147103      0.0881069951      1.4136782728
H      -1.3551553580      1.9030908742     -0.3901335520
12
Frame=730  time=365.500fs  energy=-306.20255354Ha  molecule=COOCCCHHHHHH
C      -0.1286924678      0.3272336660      0.2063555472
O       1.1678595734      1.0296443681      0.4941976538
O       2.5183594166      0.2345816977     -0.0955118788
C      -0.2814839247     -1.3429608973     -0.7451475777
C      -1.6193266539     -2.0817893525     -1.0042624397
C      -1.5130654416      1.3709254986      0.9744260294
H       0.8560365086     -1.9014497280     -1.1291416502
H      -2.7776438680     -1.5283822997     -0.5838752853
H      -1.6282054771     -3.3384818110     -1.4442952405
H      -1.1674935789      2.6137585912      2.5759347749
H      -3.1188903175      0.1104753624      1.4171252827
H      -1.3474306821      1.9016372924     -0.3880798765
12
Frame=731  time=366.000fs  energy=-306.20304325Ha  molecule=COOCCCHHHHHH
C      -0.1272394664      0.3246823191      0.2070869447
O       1.1661084452      1.0303938723      0.4945339225
O       2.5171755692      0.2369433469     -0.0957033725
C      -0.2791754289     -1.3422843435     -0.7464295764
C      -1.6197093803     -2.0823087406     -1.0041052370
C      -1.5146188703      1.3675984040      0.9762283459
H       0.8598853767     -1.8962723786     -1.1353852332
H      -2.7771099226     -1.5231089821     -0.5900054793
H      -1.6112456431     -3.3544164387     -1.4558435729
H      -1.1684695818      2.6084550155      2.5779932362
H      -3.1196742646      0.1364408526      1.4185642397
H      -1.3421780800      1.9052530184     -0.3867424028
12
Frame=732  time=366.500fs  energy=-306.20361865Ha  molecule=COOCCCHHHHHH
C      -0.1262171737      0.3219460465      0.2076715590
O       1.1643355566      1.0310808549      0.4949760782
O       2.5160313157      0.2391750831     -0.0959524662
C      -0.2763754158     -1.3409094851     -0.7476946230
C      -1.6200033992     -2.0829863055     -1.0036860668
C      -1.5160347029      1.3637800642      0.9784716466
H       0.8611812793     -1.8927327172     -1.1408145601
H      -2.7733551751     -1.5196002151     -0.5961688256
H      -1.5940070145     -3.3690043965     -1.4701653232
H      -1.1706778962      2.6032170685      2.5782154190
H      -3.1211627233      0.1645542173      1.4177051637
H      -1.3396396965      1.9133864590     -0.3868742882
12
Frame=733  time=367.000fs  energy=-306.20427980Ha  molecule=COOCCCHHHHHH
C      -0.1257647777      0.3191105560      0.2081393708
O       1.1626046186      1.0317065104      0.4955298829
O       2.5149435514      0.2412579748     -0.0962640711
C      -0.2731967758     -1.3388227436     -0.7489369529
C      -1.6200800557     -2.0838802916     -1.0030413518
C      -1.5173341061      1.3595619141      0.9811629336
H       0.8600796393     -1.8914928261     -1.1453576047
H      -2.7664961876     -1.5185569832     -0.6021592189
H      -1.5767801475     -3.3811214512     -1.4871536491
H      -1.1736328349      2.5981906903      2.5763880816
H      -3.1231318304      0.1938497953      1.4142295710
H      -1.3398298555      1.9257990638     -0.3884176484
12
Frame=734  time=367.500fs  energy=-306.20491558Ha  molecule=COOCCCHHHHHH
C      -0.1260091317      0.3162712858      0.2085235208
O       1.1609783736      1.0322713458      0.4962000668
O       2.5139279208      0.2431752509     -0.0966429709
C      -0.2697720042     -1.3360564024     -0.7501476668
C      -1.6197473813     -2.0850592298     -1.0022168334
C      -1.5185738910      1.3550661842      0.9842201515
H       0.8567535415     -1.8929811070     -1.1489676438
H      -2.7571384204     -1.5200565105     -0.6077555132
H      -1.5600697117     -3.3900075969     -1.5066405260
H      -1.1767254031      2.5935378957      2.5723723236
H      -3.1255002861      0.2233103959      1.4082033256
H      -1.3422661304      1.9419573063     -0.3907125853
12
Frame=735  time=368.000fs  energy=-306.20535300Ha  molecule=COOCCCHHHHHH
C      -0.1270474646      0.3135300853      0.2088599619
O       1.1595114194      1.0327756928      0.4969892836
O       2.5129976761      0.2449141799     -0.0970932622
C      -0.2662406065     -1.3327078398     -0.7513143991
C      -1.6187630614     -2.0865855015     -1.0012684601
C      -1.5198330743      1.3504491635      0.9874717812
H       0.8513449637     -1.8972134980     -1.1516359105
H      -2.7463632364     -1.5235172774     -0.6127305827
H      -1.5446258268     -3.3954540228     -1.5283755670
H      -1.1793176323      2.5893696543      2.5661474844
H      -3.1283496515      0.2519145179      1.4001528401
H      -1.3460173040      1.9610218324     -0.3925934167
12
Frame=736  time=368.500fs  energy=-306.20547948Ha  molecule=COOCCCHHHHHH
C      -0.1289258027      0.3109890291      0.2091861649
O       1.1582406404      1.0332202498      0.4978969263
O       2.5121621338      0.2464682960     -0.0976176573
C      -0.2627334396     -1.3289481097     -0.7524216040
C      -1.6168731635     -2.0884926723     -1.0002611348
C      -1.5211902056      1.3458981794      0.9906851794
H       0.8439500023     -1.9036931357     -1.1534027029
H      -2.7355572376     -1.5278611044     -0.6168681182
H      -1.5313825123     -3.3978808971     -1.5520138000
H      -1.1808737024      2.5856608935      2.5578535913
H      -3.1318785445      0.2787019596      1.3910242599
H      -1.3499115197      1.9819042810     -0.3927007013
12
Frame=737  time=369.000fs  energy=-306.20533756Ha  molecule=COOCCCHHHHHH
C      -0.1316244930      0.3087431811      0.2095388245
O       1.1571775788      1.0336062185      0.4989186650
O       2.5114256321      0.2478384798     -0.0982170443
C      -0.2593586864     -1.3250080768     -0.7534517691
C      -1.6138688153     -2.0907673451     -0.9992647022
C      -1.5226983342      1.3416195659      0.9936211654
H       0.8346547392     -1.9114881408     -1.1543575368
H      -2.7260933073     -1.5318770165     -0.6199804920
H      -1.5212910729     -3.3982061991     -1.5771293021
H      -1.1810787799      2.5821881267      2.5478017105
H      -3.1362963748      0.3028388721      1.3820002484
H      -1.3528700569      2.0034039201     -0.3899328689
12
Frame=738  time=369.500fs  energy=-306.20507686Ha  molecule=COOCCCHHHHHH
C      -0.1350600075      0.3068757473      0.2099514966
O       1.1563071276      1.0339348962      0.5000470778
O       2.5107876105      0.2490321237     -0.0988905112
C      -0.2561943311     -1.3211450986     -0.7543870952
C      -1.6096401587     -2.0933454127     -0.9983490831
C      -1.5243706979      1.3378206334      0.9960934285
H       0.8236122399     -1.9194791003     -1.1546270892
H      -2.7189823002     -1.5346604557     -0.6219180495
H      -1.5151014896     -3.3975151416     -1.6032503475
H      -1.1798761150      2.5785402823      2.5364429688
H      -3.1416879884      0.3236499772      1.3742261979
H      -1.3542257895      2.0243713443     -0.3838364252
12
Frame=739  time=370.000fs  energy=-306.20481074Ha  molecule=COOCCCHHHHHH
C      -0.1391002388      0.3054569705      0.2104531605
O       1.1555921817      1.0342070815      0.5012729328
O       2.5102435465      0.2500609911     -0.0996357728
C      -0.2532874129     -1.3176063615     -0.7552106942
C      -1.6042088583     -2.0961233630     -0.9975808416
C      -1.5261837695      1.3346917517      0.9980070511
H       0.8111247914     -1.9266516810     -1.1543584509
H      -2.7146399609     -1.5359407622     -0.6225670358
H      -1.5131786459     -3.3966767171     -1.6298962312
H      -1.1774046344      2.5742106736      2.5243177653
H      -3.1479022994      0.3406113421      1.3685582569
H      -1.3538876786      2.0438283006     -0.3747673107
12
Frame=740  time=370.500fs  energy=-306.20453535Ha  molecule=COOCCCHHHHHH
C      -0.1435818441      0.3045441851      0.2110677404
O       1.1549801511      1.0344229041      0.5025861906
O       2.5097858753      0.2509392869     -0.1004496119
C      -0.2506573351     -1.3146015594     -0.7559071739
C      -1.5977334954     -2.0989782211     -0.9970215122
C      -1.5280915612      1.3323915296      0.9993659732
H       0.7977034825     -1.9323191310     -1.1537063436
H      -2.7128425904     -1.5361627933     -0.6218439775
H      -1.5154103271     -3.3960855336     -1.6566000784
H      -1.1738900025      2.5687264574      2.5120114956
H      -3.1545130909      0.3533370675      1.3654276474
H      -1.3523219755      2.0610188214     -0.3638116780
12
Frame=741  time=371.000fs  energy=-306.20407134Ha  molecule=COOCCCHHHHHH
C      -0.1483235622      0.3041785980      0.2118136435
O       1.1544087279      1.0345825813      0.5039762761
O       2.5094043908      0.2516827535     -0.1013279799
C      -0.2483002500     -1.3122849222     -0.7564633221
C      -1.5904904552     -2.1017907592     -0.9967259291
C      -1.5300419071      1.3310324034      1.0002560032
H       0.7840887049     -1.9362409837     -1.1528266288
H      -2.7128592933     -1.5363006296     -0.6196966627
H      -1.5212149675     -3.3956116012     -1.6829209235
H      -1.1695500664      2.5617745188      2.5001188948
H      -3.1608658728      0.3615986167      1.3648318265
H      -1.3504011111      2.0754210860     -0.3525413322
12
Frame=742  time=371.500fs  energy=-306.20386413Ha  molecule=COOCCCHHHHHH
C      -0.1530757782      0.3056271791      0.2127029736
O       1.1537939726      1.0343783050      0.5054321014
O       2.5091117078      0.2524019036     -0.1022659287
C      -0.2459113570     -1.3113610766     -0.7568689898
C      -1.5830237515     -2.1042803537     -0.9967396412
C      -1.5321954002      1.3306987641      1.0008113813
H       0.7712817961     -1.9394522757     -1.1518728039
H      -2.7155861204     -1.5383298042     -0.6161110795
H      -1.5302899057     -3.3943548109     -1.7084567697
H      -1.1627817741      2.5511582821      2.4892034538
H      -3.1656027231      0.3637220679      1.3672214042
H      -1.3485721326      2.0850969622     -0.3434574736
12
Frame=743  time=372.000fs  energy=-306.20362114Ha  molecule=COOCCCHHHHHH
C      -0.1576942713      0.3081799869      0.2137430112
O       1.1530798258      1.0339899621      0.5069428788
O       2.5088801474      0.2530590000     -0.1032582818
C      -0.2436153766     -1.3115169417     -0.7571159503
C      -1.5755972365     -2.1064988937     -0.9971008140
C      -1.5344106480      1.3313756274      1.0011701269
H       0.7602651059     -1.9420161163     -1.1509925020
H      -2.7189934419     -1.5426986029     -0.6110987650
H      -1.5411513110     -3.3918408617     -1.7328445181
H      -1.1546501711      2.5383028231      2.4797703036
H      -3.1683116119      0.3607863251      1.3716165310
H      -1.3481217573      2.0908492608     -0.3375749386
12
Frame=744  time=372.500fs  energy=-306.20340016Ha  molecule=COOCCCHHHHHH
C      -0.1620484004      0.3111142602      0.2149363154
O       1.1522142064      1.0335983753      0.5084980805
O       2.5086817988      0.2536155237     -0.1042996086
C      -0.2415228451     -1.3124041038     -0.7571980878
C      -1.5684553252     -2.1085373009     -0.9978392034
C      -1.5365718326      1.3330008345      1.0014380716
H       0.7519953108     -1.9441414646     -1.1503288771
H      -2.7212834023     -1.5493932843     -0.6047012284
H      -1.5523104025     -3.3876633295     -1.7557633839
H      -1.1461427657      2.5248661156      2.4722382764
H      -3.1687180481      0.3540410091      1.3770148912
H      -1.3500177340      2.0935854319     -0.3353753777
12
Frame=745  time=373.000fs  energy=-306.20330358Ha  molecule=COOCCCHHHHHH
C      -0.1659963364      0.3143111086      0.2162814985
O       1.1511435280      1.0332330042      0.5100876220
O       2.5085015327      0.2540779235     -0.1053843984
C      -0.2395908218     -1.3139609226     -0.7571110767
C      -1.5618847622     -2.1104253020     -0.9989764386
C      -1.5386885819      1.3354916421      1.0016618798
H       0.7473098833     -1.9463817447     -1.1500216092
H      -2.7219285948     -1.5582290182     -0.5969884826
H      -1.5627458229     -3.3815083785     -1.7769345084
H      -1.1373475503      2.5116164775      2.4669205508
H      -3.1664916814      0.3440743746      1.3829247876
H      -1.3544680377      2.0934561370     -0.3370101727
12
Frame=746  time=373.500fs  energy=-306.20332282Ha  molecule=COOCCCHHHHHH
C      -0.1694177655      0.3176522039      0.2177746643
O       1.1498226855      1.0329225515      0.5117020489
O       2.5083252570      0.2544514382     -0.1065073273
C      -0.2377598300     -1.3161332261     -0.7568513484
C      -1.5561055957     -2.1122083376     -1.0005282709
C      -1.5407886875      1.3387453403      1.0018186270
H       0.7467998833     -1.9490576723     -1.1502098539
H      -2.7207737840     -1.5684558938     -0.5880518691
H      -1.5716992077     -3.3734789609     -1.7961095265
H      -1.1283630363      2.4993850490      2.4640241879
H      -3.1615784574      0.3315697751      1.3890677197
H      -1.3611823329      2.0906118197     -0.3418954141
12
Frame=747  time=374.000fs  energy=-306.20338245Ha  molecule=COOCCCHHHHHH
C      -0.1722170921      0.3210201391      0.2194097516
O       1.1482167708      1.0326953119      0.5133325552
O       2.5081400283      0.2547400974     -0.1076632337
C      -0.2359544844     -1.3188835730     -0.7564158484
C      -1.5512641033     -2.1139330730     -1.0025045342
C      -1.5429046927      1.3426474633      1.0018229490
H       0.7507417931     -1.9521478470     -1.1510351512
H      -2.7179923828     -1.5788591196     -0.5780054918
H      -1.5787330860     -3.3641645288     -1.8130682290
H      -1.1193608287      2.4889816349      2.4636426910
H      -3.1542152861      0.3172781821      1.3954057717
H      -1.3694396721      2.0852048774     -0.3488231611
12
Frame=748  time=374.500fs  energy=-306.20341866Ha  molecule=COOCCCHHHHHH
C      -0.1743304233      0.3242990036      0.2211780814
O       1.1463041227      1.0325790707      0.5149710768
O       2.5079342134      0.2549470322     -0.1088469627
C      -0.2340888018     -1.3221891780     -0.7558027415
C      -1.5474284358     -2.1156350475     -1.0049067378
C      -1.5450562117      1.3470752925      1.0015503898
H       0.7590578341     -1.9552686605     -1.1526396802
H      -2.7139986245     -1.5879469788     -0.5669924046
H      -1.5837462456     -3.3546129255     -1.8276307487
H      -1.1106418137      2.4811018359      2.4657384796
H      -3.1449155434      0.3019884585      1.4021147290
H      -1.3782466585      2.0774282106     -0.3561974660
12
Frame=749  time=375.000fs  energy=-306.20345394Ha  molecule=COOCCCHHHHHH
C      -0.1757317380      0.3273779225      0.2230683360
O       1.1440796153      1.0326002574      0.5166104658
O       2.5076977383      0.2550747750     -0.1100533162
C      -0.2320780043     -1.3260320769     -0.7550125758
C      -1.5445932599     -2.1173308321     -1.0077259768
C      -1.5472323844      1.3519018533      1.0008739228
H       0.7713432997     -1.9577678147     -1.1551582977
H      -2.7093103920     -1.5942300684     -0.5551858618
H      -1.5869271792     -3.3461644526     -1.8396722761
H      -1.1026658507      2.4762404292      2.4701362566
H      -3.1344025337      0.2864810246      1.4095038733
H      -1.3865810642      2.0675632169     -0.3623890885
12
Frame=750  time=375.500fs  energy=-306.20359150Ha  molecule=COOCCCHHHHHH
C      -0.1764316497      0.3301553889      0.2250677039
O       1.1415561916      1.0327831302      0.5182444709
O       2.5074220350      0.2551253917     -0.1112771548
C      -0.2298525538     -1.3303872424     -0.7540492400
C      -1.5427007536     -2.1190166799     -1.0109436461
C      -1.5493819048      1.3570005973      0.9997030973
H       0.7869723140     -1.9589008253     -1.1587087411
H      -2.7043812128     -1.5965251153     -0.5427821006
H      -1.5886372481     -3.3401793526     -1.8491227569
H      -1.0960419973      2.4746575899      2.4765445630
H      -3.1234898603      0.2714811649      1.4178894651
H      -1.3936514868      2.0560137890     -0.3661061085
12
Frame=751  time=376.000fs  energy=-306.20392825Ha  molecule=COOCCCHHHHHH
C      -0.1764694919      0.3325407121      0.2271635358
O       1.1387645603      1.0331498115      0.5198673793
O       2.5070994697      0.2551005256     -0.1125135038
C      -0.2273683282     -1.3352127265     -0.7529204720
C      -1.5416721912     -2.1206722636     -1.0145342208
C      -1.5514141451      1.3622467994      0.9980136594
H       0.8052301999     -1.9580079008     -1.1633860357
H      -2.6994457377     -1.5941968212     -0.5299918865
H      -1.5892601783     -3.3377582148     -1.8559497369
H      -1.0914874883      2.4764174760      2.4845925633
H      -3.1129497877      0.2576353180      1.4274495062
H      -1.3990767859      2.0433224764     -0.3666428504
12
Frame=752  time=376.500fs  energy=-306.20445663Ha  molecule=COOCCCHHHHHH
C      -0.1759068424      0.3344533828      0.2293442711
O       1.1357535168      1.0337205643      0.5214735245
O       2.5067225738      0.2550017066     -0.1137575221
C      -0.2246128930     -1.3404404662     -0.7516386339
C      -1.5414339383     -2.1222669412     -1.0184666913
C      -1.5532086119      1.3675136268      0.9958653440
H       0.8254108025     -1.9546484335     -1.1692591076
H      -2.6944140874     -1.5873185572     -0.5170394517
H      -1.5890699915     -3.3395143003     -1.8601438517
H      -1.0897663723      2.4814610223      2.4938530600
H      -3.1034105076      0.2455069939      1.4380887801
H      -1.4029580958      2.0301795065     -0.3639762703
12
Frame=753  time=377.000fs  energy=-306.20494701Ha  molecule=COOCCCHHHHHH
C      -0.1748284008      0.3358262929      0.2315990995
O       1.1325925678      1.0345123348      0.5230570196
O       2.5062837144      0.2548313866     -0.1150043827
C      -0.2216121750     -1.3459655755     -0.7502226795
C      -1.5419244333     -2.1237691012     -1.0227022904
C      -1.5546314994      1.3726663488      0.9934104414
H       0.8468661221     -1.9487162606     -1.1763599976
H      -2.6888465713     -1.5767540267     -0.5041674582
H      -1.5881503635     -3.3453943038     -1.8617290085
H      -1.0915907944      2.4896624612      2.5038422243
H      -3.0952868087      0.2355636102      1.4493370345
H      -1.4058684233      2.0174181905     -0.3587588973
12
Frame=754  time=377.500fs  energy=-306.20552113Ha  molecule=COOCCCHHHHHH
C      -0.1734003346      0.3355519458      0.2339168626
O       1.1293888629      1.0357987114      0.5246119797
O       2.5057541335      0.2545146381     -0.1162492486
C      -0.2186774074     -1.3511142403     -0.7487006330
C      -1.5429161631     -2.1253205413     -1.0271903323
C      -1.5553876418      1.3775355047      0.9908854424
H       0.8689712906     -1.9398357276     -1.1846636227
H      -2.6804547016     -1.5633565796     -0.4916369124
H      -1.5858356967     -3.3549124791     -1.8607962284
H      -1.0989642907      2.5026813081      2.5140171444
H      -3.0892468567      0.2295381512      1.4596463807
H      -1.4092491406      2.0073616373     -0.3515115361
12
Frame=755  time=378.000fs  energy=-306.20594013Ha  molecule=COOCCCHHHHHH
C      -0.1717480911      0.3338574687      0.2362855286
O       1.1262514428      1.0375201280      0.5261327756
O       2.5051319864      0.2540779135     -0.1174874073
C      -0.2158679372     -1.3558181802     -0.7471096156
C      -1.5443576543     -2.1268958631     -1.0318681085
C      -1.5554367692      1.3819820591      0.9885741995
H       0.8912772397     -1.9289165249     -1.1940807518
H      -2.6689014319     -1.5492213392     -0.4797199738
H      -1.5820013303     -3.3665632502     -1.8575126685
H      -1.1117197030      2.5199492948      2.5237950462
H      -3.0851199732      0.2272802916      1.4680154128
H      -1.4140434152      2.0005872443     -0.3438294044
