12
MVKO B3LYP/6-31G* optimised  E=-306.31858401 Ha
C  0.00475169  0.02928901  0.00000000
O  1.28414818  -0.12777159  0.00000000
O  2.12046044  0.94586659  0.00000000
C  -0.68910120  1.28848411  0.00000000
C  -0.14593546  2.52636191  0.00000000
C  -0.74614992  -1.26962700  0.00000000
H  -1.77306019  1.18612461  0.00000000
H  0.92470893  2.66386108  0.00000000
H  -0.80060280  3.39484027  0.00000000
H  -0.04815587  -2.10926621  0.00000000
H  -1.39253190  -1.34508139  0.88327571
H  -1.39253190  -1.34508139  -0.88327571
