12
Frame=0  time=0.500fs  energy=-306.21075588Ha  molecule=COOCCCHHHHHH
C      -0.0140893803      0.0367205747     -0.0463722736
O       1.2474122114     -0.1426758824      0.0104011523
O       2.0802803321      0.9134265096      0.0300057088
C      -0.6875854206      1.3163268460     -0.0802903732
C      -0.1371694934      2.5341852549      0.0136217860
C      -0.7328763629     -1.2751897658      0.0146261430
H      -1.8120128132      1.2005382231     -0.1151463170
H       0.9004393699      2.6394807109      0.0967300237
H      -0.8104268187      3.4104572140      0.0257735541
H      -0.0301635353     -2.0789399295     -0.1095664840
H      -1.2343203009     -1.3705414059      0.9522649369
H      -1.4638100775     -1.3538579654     -0.8133422272
12
Frame=1  time=1.000fs  energy=-306.20218121Ha  molecule=COOCCCHHHHHH
C      -0.0153661271      0.0396744827     -0.0460992770
O       1.2448583407     -0.1498962999      0.0129941379
O       2.0802919556      0.9151683733      0.0291746463
C      -0.6846604347      1.3246496424     -0.0827444158
C      -0.1371536534      2.5337589899      0.0109100176
C      -0.7293106697     -1.2774832837      0.0180989305
H      -1.8348073257      1.1900635189     -0.0871488642
H       0.8765685681      2.6155917551      0.1061104686
H      -0.8260810022      3.4081170924      0.0409541975
H      -0.0418294887     -2.0673705236     -0.1347873294
H      -1.2021593080     -1.3587824440      0.9350541610
H      -1.4439525835     -1.3554892018     -0.8345145109
12
Frame=2  time=1.500fs  energy=-306.19745017Ha  molecule=COOCCCHHHHHH
C      -0.0165129337      0.0425448980     -0.0459799848
O       1.2423728047     -0.1568008695      0.0155542422
O       2.0801052158      0.9166875036      0.0283691960
C      -0.6832001322      1.3322433312     -0.0852917852
C      -0.1389977873      2.5336489569      0.0084683464
C      -0.7255622355     -1.2788287072      0.0199207191
H      -1.8428498741      1.1821499560     -0.0618245228
H       0.8737589008      2.5966913453      0.1155701864
H      -0.8368152561      3.4027377372      0.0557623553
H      -0.0431413719     -2.0651109547     -0.1589049996
H      -1.1819834010     -1.3498817021      0.9337986443
H      -1.4252412970     -1.3563237793     -0.8502644495
12
Frame=3  time=2.000fs  energy=-306.19909443Ha  molecule=COOCCCHHHHHH
C      -0.0174652637      0.0453105640     -0.0460772405
O       1.2399620210     -0.1632890671      0.0180856783
O       2.0796482980      0.9178889193      0.0275940980
C      -0.6834322844      1.3388384373     -0.0879667005
C      -0.1426710103      2.5339869062      0.0063875786
C      -0.7215427441     -1.2791061060      0.0198611973
H      -1.8345244896      1.1773464502     -0.0396773109
H       0.8924617398      2.5834470130      0.1248349275
H      -0.8422156466      3.3947545470      0.0701595951
H      -0.0328574008     -2.0728991534     -0.1812505759
H      -1.1753767768     -1.3446384935      0.9501461785
H      -1.4082523119     -1.3560989347     -0.8594151336
12
Frame=4  time=2.500fs  energy=-306.20273083Ha  molecule=COOCCCHHHHHH
C      -0.0181525206      0.0479240982     -0.0463890699
O       1.2376625351     -0.1692346518      0.0205874125
O       2.0789164606      0.9187065909      0.0268397079
C      -0.6852511235      1.3441429334     -0.0906894652
C      -0.1474062402      2.5348667091      0.0046976450
C      -0.7172895541     -1.2784459580      0.0180626825
H      -1.8122870750      1.1758319239     -0.0211347761
H       0.9254148423      2.5753230606      0.1334930144
H      -0.8432490428      3.3861976086      0.0839896225
H      -0.0126643110     -2.0884966550     -0.2008845734
H      -1.1806489353     -1.3435397493      0.9807811078
H      -1.3936064920     -1.3547144910     -0.8614511734
12
Frame=5  time=3.000fs  energy=-306.20321849Ha  molecule=COOCCCHHHHHH
C      -0.0185122422      0.0503222349     -0.0468953430
O       1.2355189888     -0.1744974596      0.0230511924
O       2.0779285452      0.9190848773      0.0260938689
C      -0.6882631632      1.3479108079     -0.0933458974
C      -0.1521086259      2.5363618329      0.0034114778
C      -0.7128872783     -1.2771716559      0.0150120316
H      -1.7818177047      1.1774536906     -0.0066186451
H       0.9617356192      2.5711592271      0.1411291762
H      -0.8414190600      3.3795763321      0.0970476133
H       0.0135948131     -2.1074711953     -0.2168240383
H      -1.1934756239     -1.3467990599      1.0188401329
H      -1.3821980368     -1.3522635416     -0.8566826391
12
Frame=6  time=3.500fs  energy=-306.19966610Ha  molecule=COOCCCHHHHHH
C      -0.0185155664      0.0524611334     -0.0476113366
O       1.2335406099     -0.1789870842      0.0254769611
O       2.0766749570      0.9189647189      0.0253491092
C      -0.6918802937      1.3500655526     -0.0958999763
C      -0.1558160392      2.5385332623      0.0025601583
C      -0.7083452138     -1.2757007979      0.0114485020
H      -1.7505191511      1.1817685863      0.0035445784
H       0.9915513856      2.5697079312      0.1475462384
H      -0.8380044438      3.3767633700      0.1092591547
H       0.0412463606     -2.1245577191     -0.2284827991
H      -1.2080865103     -1.3543833788      1.0563238660
H      -1.3752700165     -1.3490399898     -0.8464055660
12
Frame=7  time=4.000fs  energy=-306.19504930Ha  molecule=COOCCCHHHHHH
C      -0.0181800208      0.0543341370     -0.0485938984
O       1.2316915333     -0.1826965491      0.0278837011
O       2.0751072566      0.9182871828      0.0246011449
C      -0.6954740453      1.3507348325     -0.0984224661
C      -0.1579442204      2.5414143331      0.0021931918
C      -0.7035645158     -1.2744274865      0.0081683449
H      -1.7256007636      1.1881568799      0.0092159780
H       1.0085796999      2.5699706686      0.1528184897
H      -0.8337795593      3.3786191740      0.1207426787
H       0.0661541903     -2.1351228665     -0.2358650400
H      -1.2188244795     -1.3660680305      1.0863680727
H      -1.3741594455     -1.3454623368     -0.8325963365
12
Frame=8  time=4.500fs  energy=-306.19298331Ha  molecule=COOCCCHHHHHH
C      -0.0175627847      0.0559551934     -0.0499046123
O       1.2299251467     -0.1856689838      0.0303011403
O       2.0731687414      0.9170075992      0.0238449736
C      -0.6985310334      1.3501689985     -0.1010255764
C      -0.1582898478      2.5449856070      0.0023584039
C      -0.6984180145     -1.2736339821      0.0058142370
H      -1.7124641834      1.1959800803      0.0104155315
H       1.0103528190      2.5713565388      0.1571387438
H      -0.8291042445      3.3852509141      0.1316870332
H       0.0855544425     -2.1361300014     -0.2393842416
H      -1.2214208558     -1.3815070957      1.1044095236
H      -1.3798765803     -1.3419516026     -0.8172296455
12
Frame=9  time=5.000fs  energy=-306.19514483Ha  molecule=COOCCCHHHHHH
C      -0.0167468110      0.0573258063     -0.0515645690
O       1.2282325278     -0.1879314215      0.0327477215
O       2.0708367351      0.9151116741      0.0230745028
C      -0.7007481579      1.3486279368     -0.1037705501
C      -0.1569353678      2.5491537542      0.0030825742
C      -0.6928686009     -1.2734542291      0.0047427766
H      -1.7138306376      1.2046937441      0.0072235552
H       0.9973994842      2.5737325970      0.1606064734
H      -0.8240821094      3.3963607996      0.1421507889
H       0.0982450406     -2.1264665306     -0.2395424151
H      -1.2136282079     -1.4002576919      1.1083000926
H      -1.3927522168     -1.3388386377     -0.8016771145
12
Frame=10  time=5.500fs  energy=-306.20040764Ha  molecule=COOCCCHHHHHH
C      -0.0158323582      0.0584135110     -0.0535287072
O       1.2266708629     -0.1894512666      0.0352108360
O       2.0681502731      0.9126290411      0.0222860519
C      -0.7020605783      1.3463202685     -0.1066137222
C      -0.1541858971      2.5537427910      0.0043613868
C      -0.6870433249     -1.2738751186      0.0049841892
H      -1.7294833429      1.2138755058     -0.0002667030
H       0.9726157999      2.5774040990      0.1631117652
H      -0.8186133485      3.4113247093      0.1519287011
H       0.1044388892     -2.1069120639     -0.2367461910
H      -1.1953676157     -1.4217384822      1.0980906571
H      -1.4122462837     -1.3363299656     -0.7864685632
12
Frame=11  time=6.000fs  energy=-306.20558687Ha  molecule=COOCCCHHHHHH
C      -0.0149335869      0.0591604681     -0.0556955196
O       1.2253507813     -0.1901498460      0.0376468713
O       2.0652048269      0.9096347623      0.0214813673
C      -0.7026244449      1.3434147073     -0.1094257316
C      -0.1505578612      2.5585142451      0.0061616738
C      -0.6812090549     -1.2747573472      0.0062719555
H      -1.7564287076      1.2232103304     -0.0119023149
H       0.9410540210      2.5830223734      0.1643876396
H      -0.8123428899      3.4290422322      0.1605898644
H       0.1055727502     -2.0799337426     -0.2313607352
H      -1.1685773450     -1.4452097757      1.0759631680
H      -1.4369744649     -1.3345137422     -0.7713912127
12
Frame=12  time=6.500fs  energy=-306.20761321Ha  molecule=COOCCCHHHHHH
C      -0.0141737266      0.0595177979     -0.0579493392
O       1.2243871764     -0.1899627500      0.0400030268
O       2.0621145310      0.9062321091      0.0206673188
C      -0.7027608361      1.3400928181     -0.1120725659
C      -0.1467501278      2.5632180255      0.0084359544
C      -0.6756570749     -1.2758728804      0.0081339274
H      -1.7895409707      1.2324737484     -0.0273857201
H       0.9095330532      2.5913940571      0.1641938013
H      -0.8046386495      3.4478429456      0.1676744757
H       0.1040693820     -2.0492495246     -0.2239116824
H      -1.1367375889     -1.4698453899      1.0461625239
H      -1.4649978582     -1.3333898276     -0.7558159027
12
Frame=13  time=7.000fs  energy=-306.20588579Ha  molecule=COOCCCHHHHHH
C      -0.0136731845      0.0594817794     -0.0602113338
O       1.2238431962     -0.1889017251      0.0422483176
O       2.0589632880      0.9025204356      0.0198514890
C      -0.7028663477      1.3365857315     -0.1145044875
C      -0.1435146483      2.5676544176      0.0111426143
C      -0.6705631903     -1.2769593611      0.0100274116
H      -1.8227536855      1.2415315082     -0.0462510449
H       0.8853273264      2.6032004507      0.1625026069
H      -0.7947535934      3.4657556235      0.1729270780
H       0.1029186988     -2.0190720020     -0.2152303650
H      -1.1040385188     -1.4949020432      1.0144805158
H      -1.4943219324     -1.3329116954     -0.7390836594
12
Frame=14  time=7.500fs  energy=-306.20251504Ha  molecule=COOCCCHHHHHH
C      -0.0135336181      0.0591014235     -0.0624612977
O       1.2237096256     -0.1870639473      0.0443882858
O       2.0557825451      0.8985698380      0.0190374203
C      -0.7033105700      1.3331545099     -0.1167807963
C      -0.1414334721      2.5717053676      0.0142573053
C      -0.6659277515     -1.2777818786      0.0114720395
H      -1.8505026772      1.2503280507     -0.0679464195
H       0.8740036776      2.6187166801      0.1595374174
H      -0.7821827585      3.4811261315      0.1763822424
H       0.1050271978     -1.9931919535     -0.2063742184
H      -1.0744133033     -1.5198611261      0.9870951634
H      -1.5233532127     -1.3330302360     -0.7207888070
12
Frame=15  time=8.000fs  energy=-306.20015858Ha  molecule=COOCCCHHHHHH
C      -0.0138267647      0.0584525457     -0.0647145713
O       1.2239319983     -0.1845836451      0.0464502394
O       2.0525736590      0.8944238993      0.0182243627
C      -0.7043552687      1.3300326707     -0.1190120592
C      -0.1407323252      2.5753135837      0.0177650641
C      -0.6616396993     -1.2781830670      0.0121300120
H      -1.8688124253      1.2588325472     -0.0919445584
H       0.8776148653      2.6376582780      0.1556462821
H      -0.7670020880      3.4931562393      0.1782433481
H       0.1125257270     -1.9742759776     -0.1983735146
H      -1.0508215579     -1.5444023495      0.9691824947
H      -1.5510316992     -1.3337254578     -0.7008733568
12
Frame=16  time=8.500fs  energy=-306.19997120Ha  molecule=COOCCCHHHHHH
C      -0.0145916850      0.0576051226     -0.0669807804
O       1.2244529341     -0.1815762509      0.0484551293
O       2.0493492856      0.8901241658      0.0174113400
C      -0.7061163189      1.3273828479     -0.1212790241
C      -0.1412536386      2.5784390165      0.0216406714
C      -0.6575953772     -1.2781098992      0.0118281171
H      -1.8756968982      1.2669642564     -0.1177824465
H       0.8944074762      2.6592161140      0.1511456820
H      -0.7499418868      3.5019716092      0.1786944113
H       0.1263102183     -1.9635810783     -0.1920103071
H      -1.0349282621     -1.5682403429      0.9639121121
H      -1.5766473345     -1.3350152475     -0.6795639148
12
Frame=17  time=9.000fs  energy=-306.20138320Ha  molecule=COOCCCHHHHHH
C      -0.0158369194      0.0566088710     -0.0692403660
O       1.2252337240     -0.1781177413      0.0504007372
O       2.0461564761      0.8857310083      0.0166010870
C      -0.7085632346      1.3252926332     -0.1235929674
C      -0.1425808113      2.5810354569      0.0258346617
C      -0.6537744750     -1.2776173819      0.0105513372
H      -1.8710452982      1.2745494746     -0.1450290405
H       0.9199942200      2.6822371227      0.1462539998
H      -0.7321637344      3.5082634526      0.1778058409
H       0.1459437467     -1.9610004007     -0.1877519714
H      -1.0270504674     -1.5909838912      0.9720875593
H      -1.5996084003     -1.3369444970     -0.6572549764
12
Frame=18  time=9.500fs  energy=-306.20305357Ha  molecule=COOCCCHHHHHH
C      -0.0175440060      0.0554983689     -0.0714497335
O       1.2262491620     -0.1742579442      0.0522647380
O       2.0430691535      0.8813245479      0.0158005531
C      -0.7115423926      1.3237960055     -0.1259097604
C      -0.1442137432      2.5830585197      0.0302750144
C      -0.6502380147     -1.2768519331      0.0084276581
H      -1.8562879601      1.2813361170     -0.1732504429
H       0.9490711643      2.7054613765      0.1411182006
H      -0.7149108902      3.5128334425      0.1755639162
H       0.1698890619     -1.9652997637     -0.1858069096
H      -1.0262633127     -1.6121262621      0.9923637630
H      -1.6193811245     -1.3395678979     -0.6344283979
12
Frame=19  time=10.000fs  energy=-306.20383542Ha  molecule=COOCCCHHHHHH
C      -0.0196722756      0.0543054888     -0.0735631986
O       1.2274705417     -0.1700440718      0.0540201273
O       2.0401621358      0.8769881294      0.0150181509
C      -0.7148147889      1.3228983429     -0.1281716383
C      -0.1457070233      2.5844878419      0.0348820703
C      -0.6470748693     -1.2760179345      0.0057021172
H      -1.8339764956      1.2870508218     -0.2020193471
H       0.9768342464      2.7277359134      0.1358739140
H      -0.6992206174      3.5163044055      0.1719577769
H       0.1959618217     -1.9744788869     -0.1862203564
H      -1.0306629382     -1.6311520785      1.0218697365
H      -1.6356053475     -1.3429368800     -0.6116283760
12
Frame=20  time=10.500fs  energy=-306.20326410Ha  molecule=COOCCCHHHHHH
C      -0.0221658710      0.0530684104     -0.0755548143
O       1.2288524418     -0.1655357088      0.0556512329
O       2.0374853060      0.8727870032      0.0142599696
C      -0.7181015708      1.3225934471     -0.1303463653
C      -0.1467382707      2.5853429792      0.0395873654
C      -0.6443422783     -1.2753361437      0.0026953536
H      -1.8073045064      1.2914645294     -0.2309622797
H       0.9997481351      2.7481589493      0.1306881156
H      -0.6857865350      3.5190530150      0.1670513429
H       0.2218514303     -1.9862010999     -0.1889567698
H      -1.0377669338     -1.6476760717      1.0570150873
H      -1.6482492096     -1.3470926573     -0.5894506626
12
Frame=21  time=11.000fs  energy=-306.20156687Ha  molecule=COOCCCHHHHHH
C      -0.0249623620      0.0518331156     -0.0774287744
O       1.2303306220     -0.1608055863      0.0571620629
O       2.0350508888      0.8687545747      0.0135272211
C      -0.7211288820      1.3228709196     -0.1324458049
C      -0.1471177311      2.5856832030      0.0443469327
C      -0.6420337875     -1.2750061667     -0.0002482066
H      -1.7796070644      1.2944370475     -0.2598087818
H       1.0157253675      2.7661410199      0.1257656744
H      -0.6749592940      3.5212793742      0.1610035954
H       0.2455533793     -1.9982038982     -0.1939503460
H      -1.0449612366     -1.6615315546      1.0942372823
H      -1.6576688565     -1.3520623899     -0.5685047356
12
Frame=22  time=11.500fs  energy=-306.19937818Ha  molecule=COOCCCHHHHHH
C      -0.0280005471      0.0506488054     -0.0792156751
O       1.2318299027     -0.1559305345      0.0585746771
O       2.0328372887      0.8648922942      0.0128160911
C      -0.7236631352      1.3237166317     -0.1345208385
C      -0.1467657496      2.5855929835      0.0491437249
C      -0.6400839752     -1.2751820851     -0.0028099133
H      -1.7539166726      1.2959281265     -0.2884086550
H       1.0239386183      2.7813921028      0.1213270204
H      -0.6668282738      3.5231033419      0.1540395126
H       0.2656147648     -2.0086060549     -0.2011249215
H      -1.0498831559     -1.6727719824      1.1305118888
H      -1.6645303606     -1.3578553569     -0.5493506393
12
Frame=23  time=12.000fs  energy=-306.19738897Ha  molecule=COOCCCHHHHHH
C      -0.0312250207      0.0495611168     -0.0809590105
O       1.2332762887     -0.1509805519      0.0599203857
O       2.0308046546      0.8611814643      0.0121197565
C      -0.7255315905      1.3251096787     -0.1366406390
C      -0.1456814061      2.5851615733      0.0539796487
C      -0.6383985773     -1.2759631550     -0.0047329593
H      -1.7326500108      1.2959808415     -0.3167063406
H       1.0244880836      2.7938590786      0.1175753719
H      -0.6613252429      3.5246227497      0.1463972085
H       0.2811858611     -2.0160726083     -0.2103923654
H      -1.0506734643     -1.6816014466      1.1635771858
H      -1.6696408155     -1.3644578590     -0.5324407049
12
Frame=24  time=12.500fs  energy=-306.19609223Ha  molecule=COOCCCHHHHHH
C      -0.0345867222      0.0486065610     -0.0826991506
O       1.2346075627     -0.1460119485      0.0612288089
O       2.0289137214      0.8576003255      0.0114314207
C      -0.7266287475      1.3270184252     -0.1388681597
C      -0.1439158616      2.5844654749      0.0588619837
C      -0.6368906943     -1.2773957118     -0.0058408492
H      -1.7174535184      1.2946928138     -0.3446854990
H       1.0180768669      2.8036445771      0.1146696796
H      -0.6583095235      3.5259219301      0.1382793037
H       0.2919393489     -2.0198508194     -0.2216401221
H      -1.0460911530     -1.6882783574      1.1919362251
H      -1.6737681043     -1.3718271992     -0.5180894293
12
Frame=25  time=13.000fs  energy=-306.19567703Ha  molecule=COOCCCHHHHHH
C      -0.0380405525      0.0478097881     -0.0844608524
O       1.2357792225     -0.1410663925      0.0625191471
O       2.0271406614      0.8541393072      0.0107470938
C      -0.7269128859      1.3293973304     -0.1412412905
C      -0.1415550345      2.5835589026      0.0637900054
C      -0.6355076695     -1.2794806552     -0.0060407740
H      -1.7091861744      1.2921898547     -0.3723080215
H       1.0057683870      2.8109340658      0.1127109286
H      -0.6576168933      3.5270486937      0.1298253439
H       0.2979369055     -2.0197185737     -0.2347171690
H      -1.0355231155     -1.6930342427      1.2147430639
H      -1.6775092928     -1.3798861194     -0.5064727497
12
Frame=26  time=13.500fs  energy=-306.19604623Ha  molecule=COOCCCHHHHHH
C      -0.0415421815      0.0471836167     -0.0862473867
O       1.2367654549     -0.1361743463      0.0637959720
O       2.0254841440      0.8508097040      0.0100672317
C      -0.7263977292      1.3321856612     -0.1437642684
C      -0.1387104488      2.5824729957      0.0687462607
C      -0.6342417655     -1.2821822877     -0.0053171196
H      -1.7079933230      1.2886097498     -0.3994699286
H       0.9888377728      2.8159466030      0.1117417555
H      -0.6590728016      3.5279840641      0.1211083560
H       0.2995028670     -2.0158882928     -0.2494255284
H      -1.0189287633     -1.6960305787      1.2316644912
H      -1.6812307457     -1.3885198245     -0.4976435048
12
Frame=27  time=14.000fs  energy=-306.19690852Ha  molecule=COOCCCHHHHHH
C      -0.0450461571      0.0467309383     -0.0880416256
O       1.2375564727     -0.1313599349      0.0650498851
O       2.0239641611      0.8476440997      0.0093968803
C      -0.7251425725      1.3353088835     -0.1464096866
C      -0.1355143208      2.5812215477      0.0736947298
C      -0.6331251159     -1.2854367460     -0.0037195983
H      -1.7134284306      1.2840966155     -0.4259879123
H       0.9686914519      2.8189119614      0.1117555809
H      -0.6624818787      3.5286232165      0.1121493061
H       0.2971321321     -2.0088961233     -0.2655224506
H      -0.9967479718     -1.6973564328      1.2427675862
H      -1.6850743806     -1.3975780983     -0.4915492020
12
Frame=28  time=14.500fs  energy=-306.19789908Ha  molecule=COOCCCHHHHHH
C      -0.0485064298      0.0464475279     -0.0898125068
O       1.2381539203     -0.1266447838      0.0662619661
O       2.0226145945      0.8446896500      0.0087444638
C      -0.7232420801      1.3386829540     -0.1491285980
C      -0.1321146823      2.5798098268      0.0785856279
C      -0.6322138156     -1.2891600034     -0.0013485459
H      -1.7245957942      1.2788017999     -0.4516179968
H       0.9468158777      2.8200670338      0.1127109697
H      -0.6676101976      3.5287770208      0.1029400397
H       0.2914326510     -1.9994916222     -0.2827349753
H      -0.9697871553     -1.6970558515      1.2484432846
H      -1.6890099587     -1.4068839171     -0.4880460483
12
Frame=29  time=15.000fs  energy=-306.19869171Ha  molecule=COOCCCHHHHHH
C      -0.0518790595      0.0463249990     -0.0915242037
O       1.2385658233     -0.1220497312      0.0674101225
O       2.0214727976      0.8419972758      0.0081197398
C      -0.7208158246      1.3422207922     -0.1518646332
C      -0.1286678442      2.5782432210      0.0833645419
C      -0.6315677469     -1.2932558129      0.0016611880
H      -1.7402994166      1.2728863119     -0.4760966044
H       0.9247227418      2.8196603048      0.1145475088
H      -0.6741748034      3.5281950964      0.0934662099
H       0.2830897117     -1.9885353648     -0.3007838885
H      -0.9390934643     -1.6951680379      1.2493525723
H      -1.6929090551     -1.4162476251     -0.4869105863
12
Frame=30  time=15.500fs  energy=-306.19907576Ha  molecule=COOCCCHHHHHH
C      -0.0551259963      0.0463533514     -0.0931451351
O       1.2388021991     -0.1175944334      0.0684753098
O       2.0205696143      0.8396104603      0.0075315934
C      -0.7179975544      1.3458394886     -0.1545677879
C      -0.1253275962      2.5765333285      0.0879826787
C      -0.6312324000     -1.2976236312      0.0051564670
H      -1.7591877139      1.2665208873     -0.4991889181
H       0.9038739798      2.8179543328      0.1172001718
H      -0.6818489222      3.5266046144      0.0837241404
H       0.2728375929     -1.9769095156     -0.3194108694
H      -0.9058283561     -1.6917640584      1.2463765138
H      -1.6966182950     -1.4254838274     -0.4878529877
12
Frame=31  time=16.000fs  energy=-306.19898387Ha  molecule=COOCCCHHHHHH
C      -0.0582185215      0.0465227897     -0.0946545108
O       1.2388719969     -0.1132956461      0.0694459956
O       2.0199224808      0.8375568451      0.0069862884
C      -0.7149245863      1.3494665693     -0.1572043975
C      -0.1222325024      2.5747003837      0.0924051637
C      -0.6312271130     -1.3021660759      0.0089807525
H      -1.7798844238      1.2598819464     -0.5207294028
H       0.8855882490      2.8152204319      0.1206100562
H      -0.6902836245      3.5237549857      0.0737288334
H       0.2614288003     -1.9654456488     -0.3384016855
H      -0.8711536022     -1.6869688029      1.2405567023
H      -1.7000153594     -1.4344272137     -0.4905350430
12
Frame=32  time=16.500fs  energy=-306.19847375Ha  molecule=COOCCCHHHHHH
C      -0.0611391697      0.0468247148     -0.0960452043
O       1.2387815649     -0.1091653023      0.0703200322
O       2.0195328698      0.8358444758      0.0064865696
C      -0.7117281893      1.3530439567     -0.1597614750
C      -0.1194939052      2.5727722402      0.0966153454
C      -0.6315414913     -1.3067951264      0.0129861907
H      -1.8010962858      1.2531440144     -0.5406438603
H       0.8709453291      2.8117250960      0.1247304833
H      -0.6991399634      3.5194577558      0.0635136674
H       0.2495981978     -1.9548729615     -0.3575996973
H      -0.8361418698     -1.6809641468      1.2330227532
H      -1.7030395135     -1.4429438311     -0.4945927456
12
Frame=33  time=17.000fs  energy=-306.19768095Ha  molecule=COOCCCHHHHHH
C      -0.0638816189      0.0472519837     -0.0973230173
O       1.2385344471     -0.1052093230      0.0711040062
O       2.0193878036      0.8344628156      0.0060316900
C      -0.7085259623      1.3565290468     -0.1622455218
C      -0.1171873350      2.5707810970      0.1006146067
C      -0.6321391116     -1.3114363584      0.0170419007
H      -1.8216903428      1.2464707051     -0.5589498531
H       0.8607104976      2.8077120580      0.1295285762
H      -0.7081220411      3.5136134528      0.0531246209
H       0.2380253355     -1.9457876049     -0.3769073127
H      -0.8017189362     -1.6739761264      1.2249127396
H      -1.7056968851     -1.4509358866     -0.4996602380
12
Frame=34  time=17.500fs  energy=-306.19676524Ha  molecule=COOCCCHHHHHH
C      -0.0664487971      0.0477986485     -0.0985033934
O       1.2381320761     -0.1014275835      0.0718108379
O       2.0194640542      0.8333872246      0.0056181520
C      -0.7054168878      1.3598932329     -0.1646774250
C      -0.1153490215      2.5687595012      0.1044186180
C      -0.6329658491     -1.3160309358      0.0210382796
H      -1.8407385285      1.2400066614     -0.5757395236
H       0.8552962567      2.8033855978      0.1349833371
H      -0.7170020562      3.5062215784      0.0426125656
H       0.2273008804     -1.9386408128     -0.3962769012
H      -0.7686371709     -1.6662531154      1.2172970931
H      -1.7080470275     -1.4583402616     -0.5053906193
12
Frame=35  time=18.000fs  energy=-306.19586838Ha  molecule=COOCCCHHHHHH
C      -0.0688499515      0.0484594281     -0.0996070431
O       1.2375748765     -0.0978149214      0.0724566689
O       2.0197332819      0.8325849686      0.0052408093
C      -0.7024791568      1.3631188270     -0.1670856768
C      -0.1139777250      2.5667369104      0.1080517490
C      -0.6339597025     -1.3205356056      0.0248879398
H      -1.8575327010      1.2338721181     -0.5911529309
H       0.8547677299      2.7988997003      0.1410817051
H      -0.7256321093      3.4973745715      0.0320264831
H       0.2179022646     -1.9337412245     -0.4156953125
H      -0.7374736842     -1.6580426192      1.2111158343
H      -1.7101799849     -1.4651225636     -0.5114701804
12
Frame=36  time=18.500fs  energy=-306.19509113Ha  molecule=COOCCCHHHHHH
C      -0.0710975358      0.0492291307     -0.1006557660
O       1.2368633778     -0.0943627577      0.0730579421
O       2.0201666678      0.8320209991      0.0048939827
C      -0.6997703273      1.3661954816     -0.1694998953
C      -0.1130408130      2.5647375195      0.1115413546
C      -0.6350596001     -1.3249212787      0.0285243553
H      -1.8715771953      1.2281606335     -0.6053502522
H       0.8588864448      2.7943550872      0.1478140270
H      -0.7339422210      3.4872398843      0.0214091043
H       0.2101810112     -1.9312661754     -0.4351667733
H      -0.7086438690     -1.6495722778      1.2071350647
H      -1.7121923560     -1.4712691811     -0.5176250577
12
Frame=37  time=19.000fs  energy=-306.19448802Ha  molecule=COOCCCHHHHHH
C      -0.0732045653      0.0501021719     -0.1016692634
O       1.2359990973     -0.0910608410      0.0736292191
O       2.0207382286      0.8316623986      0.0045723569
C      -0.6973290876      1.3691169787     -0.1719458752
C      -0.1124828131      2.5627794638      0.1149131286
C      -0.6362117802     -1.3291708485      0.0318993343
H      -1.8825672354      1.2229396050     -0.6184887731
H       0.8671795415      2.7898035191      0.1551699926
H      -0.7419276619      3.4760357109      0.0107951838
H       0.2043614577     -1.9312775772     -0.4546979247
H      -0.6824219316     -1.6410376702      1.2059241330
H      -1.7141681235     -1.4767795092     -0.5236216428
12
Frame=38  time=19.500fs  energy=-306.19407370Ha  molecule=COOCCCHHHHHH
C      -0.0751827685      0.0510722554     -0.1026632107
O       1.2349850986     -0.0878987445      0.0741819066
O       2.0214266212      0.8314810991      0.0042715596
C      -0.6951778795      1.3718788626     -0.1744425967
C      -0.1122346174      2.5608751148      0.1181880548
C      -0.6373733849     -1.3332767773      0.0349801730
H      -1.8903605884      1.2182527020     -0.6307073833
H       0.8790191374      2.7852570966      0.1631356044
H      -0.7496303880      3.4640056231      0.0002118133
H       0.2005487928     -1.9337395136     -0.4742870708
H      -0.6589627438     -1.6325969772      1.2078515164
H      -1.7161668895     -1.4816597272     -0.5292633429
12
Frame=39  time=20.000fs  energy=-306.19383409Ha  molecule=COOCCCHHHHHH
C      -0.0770415859      0.0521322317     -0.1036484924
O       1.2338262309     -0.0848669234      0.0747238064
O       2.0222156526      0.8314550026      0.0039884271
C      -0.6933257874      1.3744770301     -0.1770010575
C      -0.1122218941      2.5590320331      0.1213809616
C      -0.6385135965     -1.3372387915      0.0377470050
H      -1.8949477582      1.2141232936     -0.6421187080
H       0.8936986696      2.7806998094      0.1716913605
H      -0.7571192699      3.4513960373     -0.0103201043
H       0.1987436379     -1.9385360464     -0.4939181786
H      -0.6383221791     -1.6243710853      1.2130957064
H      -1.7182196563     -1.4859186727     -0.5343862837
12
Frame=40  time=20.500fs  energy=-306.19373798Ha  molecule=COOCCCHHHHHH
C      -0.0787878905      0.0532741134     -0.1046313228
O       1.2325291032     -0.0819572852      0.0752592819
O       2.0230938801      0.8315678877      0.0037210179
C      -0.6917713127      1.3769071667     -0.1796245133
C      -0.1123718254      2.5572541680      0.1245003889
C      -0.6396129632     -1.3410618644      0.0401905560
H      -1.8964238268      1.2105581436     -0.6528075219
H       0.9104974168      2.7760989840      0.1808115946
H      -0.7644725842      3.4384387521     -0.0207840207
H       0.1988604862     -1.9454885865     -0.5135591709
H      -0.6204750585     -1.6164472500      1.2216669037
H      -1.7203307642     -1.4895657377     -0.5388556950
12
Frame=41  time=21.000fs  energy=-306.19374658Ha  molecule=COOCCCHHHHHH
C      -0.0804262325      0.0544892187     -0.1056139392
O       1.2311018588     -0.0791633352      0.0757898142
O       2.0240536962      0.8318085439      0.0034684538
C      -0.6905048413      1.3791648057     -0.1823096503
C      -0.1126178383      2.5555430161      0.1275493754
C      -0.6406616033     -1.3447545532      0.0423103176
H      -1.8949633327      1.2075509174     -0.6628335555
H       0.9287290896      2.7714150858      0.1904647939
H      -0.7717646796      3.4253392734     -0.0311661002
H       0.2007477575     -1.9543725332     -0.5331635590
H      -0.6053308180     -1.6088846075      1.2334355305
H      -1.7224839376     -1.4926103527     -0.5425636272
12
Frame=42  time=21.500fs  energy=-306.19382060Ha  molecule=COOCCCHHHHHH
C      -0.0819593996      0.0557684047     -0.1065955936
O       1.2295538186     -0.0764800037      0.0763147510
O       2.0250902130      0.8321695237      0.0032306649
C      -0.6895107457      1.3812457672     -0.1850482610
C      -0.1129023983      2.5538985791      0.1305267792
C      -0.6416568815     -1.3483276908      0.0441130538
H      -1.8907985238      1.2050852870     -0.6722368441
H       0.9477741021      2.7666091493      0.2006146550
H      -0.7790573529      3.4122705497     -0.0414540442
H       0.2042077191     -1.9649329024     -0.5526742975
H      -0.5927473088     -1.6017202480      1.2481640330
H      -1.7246503381     -1.4950624974     -0.5454277858
12
Frame=43  time=22.000fs  energy=-306.19392484Ha  molecule=COOCCCHHHHHH
C      -0.0833891163      0.0571023529     -0.1075736260
O       1.2278950526     -0.0739032804      0.0768320975
O       2.0262001686      0.8326458058      0.0030080985
C      -0.6887691334      1.3831467611     -0.1878290818
C      -0.1131781830      2.5523200675      0.1334288093
C      -0.6426010080     -1.3517933997      0.0456115354
H      -1.8842008289      1.2031375700     -0.6810440838
H       0.9670974923      2.7616477382      0.2112216132
H      -0.7863955231      3.3993711168     -0.0516364442
H       0.2090149644     -1.9768985830     -0.5720287906
H      -0.5825430728     -1.5949750063      1.2655389821
H      -1.7267968370     -1.4969337001     -0.5473908468
12
Frame=44  time=22.500fs  energy=-306.19403081Ha  molecule=COOCCCHHHHHH
C      -0.0847167427      0.0584818686     -0.1085444723
O       1.2261359343     -0.0714297668      0.0773392477
O       2.0273809885      0.8332335696      0.0028014384
C      -0.6882572836      1.3848659880     -0.1906395450
C      -0.1134080556      2.5508063610      0.1362505238
C      -0.6434988654     -1.3551643845      0.0468234108
H      -1.8754652396      1.2016789184     -0.6892748645
H       0.9862555733      2.7565057150      0.2222445906
H      -0.7938062975      3.3867464091     -0.0617025986
H       0.2149325347     -1.9899948323     -0.5911641453
H      -0.5745082775     -1.5886584789      1.2852011034
H      -1.7288932159     -1.4982381023     -0.5484195953
12
Frame=45  time=23.000fs  energy=-306.19411775Ha  molecule=COOCCCHHHHHH
C      -0.0859438815      0.0598981657     -0.1095045117
O       1.2242867228     -0.0690562326      0.0778335914
O       2.0286300703      0.8339291973      0.0026113631
C      -0.6879508186      1.3864036255     -0.1934672829
C      -0.1135642531      2.5493562648      0.1389871302
C      -0.6443562405     -1.3584534500      0.0477701615
H      -1.8648972955      1.2006771057     -0.6969470401
H       1.0048945885      2.7511672767      0.2336427435
H      -0.8013003822      3.3744720370     -0.0716426712
H       0.2217251529     -2.0039537085     -0.6100219918
H      -0.5684143755     -1.5827730418      1.3067715612
H      -1.7309175450     -1.4989933018     -0.5485034421
12
Frame=46  time=23.500fs  energy=-306.19417251Ha  molecule=COOCCCHHHHHH
C      -0.0870728404      0.0613431113     -0.1104507087
O       1.2223572004     -0.0667792345      0.0783129699
O       2.0299443084      0.8347285564      0.0024383604
C      -0.6878246522      1.3877621405     -0.1963012957
C      -0.1136271488      2.5479686170      0.1416349969
C      -0.6451785312     -1.3616731961      0.0484761146
H      -1.8528023968      1.2000979674     -0.7040808365
H       1.0227442899      2.7456257440      0.2453770389
H      -0.8088748673      3.3625980354     -0.0814480544
H       0.2291693795     -2.0185222874     -0.6285524241
H      -0.5640225191     -1.5773168275      1.3298735328
H      -1.7328594746     -1.4992208245     -0.5476521645
12
Frame=47  time=24.000fs  energy=-306.19418868Ha  molecule=COOCCCHHHHHH
C      -0.0881069284      0.0628094161     -0.1113810370
O       1.2203563885     -0.0645948338      0.0787759733
O       2.0313198427      0.8356265628      0.0022826027
C      -0.6878537521      1.3889464050     -0.1991327551
C      -0.1135838552      2.5466422955      0.1441923412
C      -0.6459699225     -1.3648358366      0.0489675113
H      -1.8394772130      1.1999065501     -0.7107015693
H       1.0396087335      2.7398825516      0.2574115454
H      -0.8165166070      3.3511533616     -0.0911118095
H       0.2370607934     -2.0334686820     -0.6467168253
H      -0.5610907625     -1.5722857480      1.3541487440
H      -1.7347215465     -1.4989461836     -0.5458929557
12
Frame=48  time=24.500fs  energy=-306.19416531Ha  molecule=COOCCCHHHHHH
C      -0.0890505937      0.0642907626     -0.1122947039
O       1.2182923474     -0.0624984214      0.0792220940
O       2.0327519935      0.8366169959      0.0021438808
C      -0.6880137453      1.3899636269     -0.2019554578
C      -0.1134268512      2.5453761689      0.1466596026
C      -0.6467329718     -1.3679530992      0.0492716407
H      -1.8252029800      1.2000680176     -0.7168410375
H       1.0553559415      2.7339458002      0.2697143741
H      -0.8242056354      3.3401501810     -0.1006290811
H       0.2452184993     -2.0485860188     -0.6644895167
H      -0.5593801049     -1.5676747218      1.3792691382
H      -1.7365188609     -1.4981985617     -0.5432670191
12
Frame=49  time=25.000fs  energy=-306.19410546Ha  molecule=COOCCCHHHHHH
C      -0.0899094213      0.0657818727     -0.1131922032
O       1.2161720600     -0.0604846497      0.0796517584
O       2.0342353357      0.8376925150      0.0020215878
C      -0.6882813892      1.3908231265     -0.2047659741
C      -0.1131527394      2.5441690241      0.1490395423
C      -0.6474685173     -1.3710361706      0.0494160543
H      -1.8102404930      1.2005483548     -0.7225377885
H       1.0699075120      2.7278286473      0.2822582530
H      -0.8319182612      3.3295876912     -0.1099974152
H       0.2534873883     -2.0636946268     -0.6818583074
H      -0.5586594456     -1.5634782895      1.4049441925
H      -1.7382775433     -1.4970101995     -0.5398260002
12
Frame=50  time=25.500fs  energy=-306.19401487Ha  molecule=COOCCCHHHHHH
C      -0.0906900219      0.0672785170     -0.1140752375
O       1.2140013925     -0.0585474544      0.0800662677
O       2.0357638656      0.8388448205      0.0019147435
C      -0.6886349278      1.3915359997     -0.2075635521
C      -0.1127611845      2.5430194936      0.1513371229
C      -0.6481758189     -1.3740956608      0.0494278747
H      -1.7948266071      1.2013149016     -0.7278365099
H       1.0832288220      2.7215477250      0.2950207533
H      -0.8396296508      3.3194553837     -0.1192169390
H       0.2617386178     -2.0786427406     -0.6988241031
H      -0.5587095339     -1.5596908031      1.4309245797
H      -1.7400324616     -1.4954155928     -0.5356285252
12
Frame=51  time=26.000fs  energy=-306.19390077Ha  molecule=COOCCCHHHHHH
C      -0.0913998454      0.0687774773     -0.1149465495
O       1.2117851183     -0.0566801478      0.0804676740
O       2.0373312170      0.8400649072      0.0018220453
C      -0.6890543479      1.3921147104     -0.2103498418
C      -0.1122540465      2.5419259960      0.1535592299
C      -0.6488528438     -1.3771415701      0.0493332111
H      -1.7791720558      1.2023367458     -0.7327868204
H       1.0953201643      2.7151217076      0.3079842118
H      -0.8473158308      3.3097357380     -0.1282903920
H       0.2698687677     -2.0933060324     -0.7153997844
H      -0.5593260001     -1.5563063465      1.4570029452
H      -1.7418245904     -1.4934505982     -0.5307370613
12
Frame=52  time=26.500fs  energy=-306.19377091Ha  molecule=COOCCCHHHHHH
C      -0.0920469489      0.0702764708     -0.1158096981
O       1.2095269935     -0.0548755605      0.0808586188
O       2.0389308926      0.8413433596      0.0017419372
C      -0.6895215481      1.3925726536     -0.2131285042
C      -0.1116346988      2.5408866975      0.1557142927
C      -0.6494966247     -1.3801832534      0.0491566842
H      -1.7634604006      1.2035849952     -0.7374417108
H       1.1062089566      2.7085700917      0.3211354095
H      -0.8549551194      3.3004063932     -0.1372230139
H       0.2777980826     -2.1075862708     -0.7316085706
H      -0.5603215605     -1.5533185159      1.4830125384
H      -1.7436983349     -1.4911515335     -0.5252152321
12
Frame=53  time=27.000fs  energy=-306.19363288Ha  molecule=COOCCCHHHHHH
C      -0.0926397470      0.0717740482     -0.1166688109
O       1.2072298679     -0.0531262120      0.0812421561
O       2.0405564839      0.8426706549      0.0016726868
C      -0.6900204328      1.3929237222     -0.2159047561
C      -0.1109075081      2.5398994955      0.1578118565
C      -0.6501036367     -1.3832293771      0.0489210624
H      -1.7478479250      1.2050329491     -0.7418558462
H       1.1159430378      2.7019122173      0.3344650684
H      -0.8625290454      3.2914418662     -0.1460223124
H       0.2854681397     -2.1214093681     -0.7474820763
H      -0.5615274867     -1.5507201538      1.5088243601
H      -1.7456990366     -1.4885543408     -0.5191256533
12
Frame=54  time=27.500fs  energy=-306.19349364Ha  molecule=COOCCCHHHHHH
C      -0.0931867655      0.0732694747     -0.1175283366
O       1.2048958178     -0.0514244910      0.0816215762
O       2.0422018646      0.8440374450      0.0016124616
C      -0.6905369427      1.3931819028     -0.2186848998
C      -0.1100774508      2.5389620245      0.1598621454
C      -0.6506701513     -1.3862878728      0.0486470019
H      -1.7324642998      1.2066561851     -0.7460838946
H       1.1245849972      2.6951665259      0.3479672323
H      -0.8700228371      3.2828148893     -0.1546977390
H       0.2928392161     -2.1347230389     -0.7630582372
H      -0.5627944285     -1.5485030992      1.5343433810
H      -1.7478707998     -1.4856938558     -0.5125282945
12
Frame=55  time=28.000fs  energy=-306.19335914Ha  molecule=COOCCCHHHHHH
C      -0.0936964133      0.0747626047     -0.1183928145
O       1.2025262910     -0.0497628323      0.0820002416
O       2.0438613456      0.8454347998      0.0015594016
C      -0.6910590307      1.3933609183     -0.2214758678
C      -0.1091498380      2.5380716786      0.1618756477
C      -0.6511925448     -1.3893658910      0.0483528840
H      -1.7174138552      1.2084325767     -0.7501789985
H       1.1322074479      2.6883500377      0.3616385863
H      -0.8774255681      3.2744974375     -0.1632603025
H       0.2998875598     -2.1474942466     -0.7783792498
H      -0.5639926786     -1.5466579926      1.5595042715
H      -1.7502547134     -1.4826032098     -0.5054793307
12
Frame=56  time=28.500fs  energy=-306.19323422Ha  molecule=COOCCCHHHHHH
C      -0.0941767839      0.0762537555     -0.1192666727
O       1.2001222515     -0.0481338793      0.0823814442
O       2.0455297899      0.8468544034      0.0015116823
C      -0.6915765933      1.3934739286     -0.2242848082
C      -0.1081301242      2.5372256490      0.1638627442
C      -0.6516675475     -1.3924697603      0.0480547379
H      -1.7027773107      1.2103422541     -0.7541914674
H       1.1388891405      2.6814780198      0.3754777650
H      -0.8847300457      3.2664615056     -0.1717221523
H       0.3066027093     -2.1597065778     -0.7934896322
H      -0.5650119606     -1.5451741542      1.5842669777
H      -1.7528874903     -1.4793133741     -0.4980304234
12
Frame=57  time=29.000fs  energy=-306.19312254Ha  molecule=COOCCCHHHHHH
C      -0.0946354920      0.0777435879     -0.1201540616
O       1.1976843183     -0.0465306255      0.0827682873
O       2.0472026859      0.8482886991      0.0014675676
C      -0.6920813674      1.3935332918     -0.2271187268
C      -0.1070237796      2.5364209707      0.1658333933
C      -0.6520924284     -1.3956049559      0.0477662374
H      -1.6886138320      1.2123675203     -0.7581677282
H       1.1447118152      2.6745638136      0.3894846889
H      -0.8919325192      3.2586796853     -0.1800961548
H       0.3129849642     -2.1713576483     -0.8084344822
H      -0.5657608197     -1.5440395405      1.6086123850
H      -1.7558005128     -1.4758528446     -0.4902283594
12
Frame=58  time=29.500fs  energy=-306.19302663Ha  molecule=COOCCCHHHHHH
C      -0.0950795465      0.0792329962     -0.1210587243
O       1.1952128913     -0.0449465295      0.0831635937
O       2.0488761840      0.8497309840      0.0014254512
C      -0.6925667990      1.3935503884     -0.2299841921
C      -0.1058362069      2.5356545744      0.1677968779
C      -0.6524651182     -1.3987760809      0.0474987594
H      -1.6749632980      1.2144927342     -0.7621495510
H       1.1497576915      2.6676187881      0.4036599579
H      -0.8990322706      3.2511255862     -0.1883954877
H       0.3190430671     -2.1824566173     -0.8232579802
H      -0.5661656885     -1.5432407754      1.6325382345
H      -1.7590192517     -1.4722474553     -0.4821149713
12
Frame=59  time=30.000fs  energy=-306.19294795Ha  molecule=COOCCCHHHHHH
C      -0.0955152611      0.0807230117     -0.1219839051
O       1.1927082614     -0.0433756035      0.0835698404
O       2.0505471012      0.8511754588      0.0013838862
C      -0.6930278925      1.3935355029     -0.2328871080
C      -0.1045726903      2.5349233404      0.1697616161
C      -0.6527842756     -1.4019868641      0.0472614923
H      -1.6618486773      1.2167041695     -0.7661735404
H       1.1541075066      2.6606523888      0.4180043238
H      -0.9060311439      3.2437741317     -0.1966332666
H       0.3247921328     -2.1930218633     -0.8380021588
H      -0.5661696986     -1.5427632467      1.6560553958
H      -1.7625630124     -1.4685203059     -0.4737272704
12
Frame=60  time=30.500fs  energy=-306.19288704Ha  molecule=COOCCCHHHHHH
C      -0.0959481992      0.0822147206     -0.1229322921
O       1.1901707017     -0.0418124744      0.0839891171
O       2.0522128993      0.8526172368      0.0013416040
C      -0.6934610482      1.3934977579     -0.2358325508
C      -0.1032383649      2.5342241507      0.1717350331
C      -0.6530493053     -1.4052401734      0.0470615823
H      -1.6492784307      1.2189898586     -0.7702708736
H       1.1578390222      2.6536722564      0.4325182535
H      -0.9129330523      3.2366017589     -0.2048222183
H       0.3302518396     -2.2030788568     -0.8527059452
H      -0.5657313012     -1.5425912551      1.6791845533
H      -1.7664449571     -1.4646917821     -0.4650977276
12
Frame=61  time=31.000fs  energy=-306.19284365Ha  molecule=COOCCCHHHHHH
C      -0.0963831499      0.0837091968     -0.1239059915
O       1.1876005397     -0.0402524188      0.0844231072
O       2.0538716427      0.8540523210      0.0012975240
C      -0.6938638925      1.3934450946     -0.2388246678
C      -0.1018381993      2.5335539380      0.1737234880
C      -0.6532603360     -1.4085380460      0.0469043088
H      -1.6372488670      1.2213394287     -0.7744672548
H       1.1610259254      2.6466843899      0.4472015895
H      -0.9197434947      3.2295865426     -0.2129744066
H       0.3354448816     -2.2126582519     -0.8674044676
H      -0.5648227557     -1.5427082027      1.7019533298
H      -1.7706723493     -1.4607796525     -0.4562546498
12
Frame=62  time=31.500fs  energy=-306.19281693Ha  molecule=COOCCCHHHHHH
C      -0.0968241304      0.0852074491     -0.1249065279
O       1.1849982107     -0.0386913757      0.0848730863
O       2.0555219428      0.8554775555      0.0012507547
C      -0.6942351083      1.3933842902     -0.2418666285
C      -0.1003769860      2.5329097284      0.1757322498
C      -0.6534181688     -1.4118817339      0.0467932768
H      -1.6257463972      1.2237439363     -0.7787830509
H       1.1637370644      2.6396933370      0.4620533059
H      -0.9264691047      3.2227082605     -0.2211010153
H       0.3403956747     -2.2217942077     -0.8821286034
H      -0.5634285410     -1.5430968076      1.7243938447
H      -1.7752469711     -1.4567992200     -0.4472226078
12
Frame=63  time=32.000fs  energy=-306.19280553Ha  molecule=COOCCCHHHHHH
C      -0.0972744109      0.0867103834     -0.1259348663
O       1.1823642934     -0.0371259379      0.0853399365
O       2.0571628933      0.8568905588      0.0012005884
C      -0.6945742686      1.3933210063     -0.2449606234
C      -0.0988593348      2.5322886777      0.1777655134
C      -0.6535242034     -1.4152717623      0.0467306207
H      -1.6147496409      1.2261957044     -0.7832335735
H       1.1660359594      2.6327023953      0.4770713551
H      -0.9331172457      3.2159484138     -0.2292121879
H       0.3451292979     -2.2305229399     -0.8969047454
H      -0.5615437386     -1.5437393330      1.7465406885
H      -1.7801656632     -1.4527635125     -0.4380228817
12
Frame=64  time=32.500fs  energy=-306.19280779Ha  molecule=COOCCCHHHHHH
C      -0.0977365569      0.0882187760     -0.1269914515
O       1.1796995295     -0.0355533277      0.0858241717
O       2.0587940016      0.8582896436      0.0011464903
C      -0.6948816779      1.3932598596     -0.2481078987
C      -0.0972896687      2.5316881008      0.1798264489
C      -0.6535803513     -1.4187079983      0.0467172093
H      -1.6042313521      1.2286881674     -0.7878294689
H       1.1679805434      2.6257138135      0.4922525962
H      -0.9396956594      3.2092902127     -0.2373169227
H       0.3496706515     -2.2388814991     -0.9117547532
H      -0.5591724299     -1.5446178178      1.7684292837
H      -1.7854209470     -1.4486834962     -0.4286738990
12
Frame=65  time=33.000fs  energy=-306.19282184Ha  molecule=COOCCCHHHHHH
C      -0.0982124842      0.0897332585     -0.1280762581
O       1.1770048298     -0.0339713591      0.0863259722
O       2.0604151189      0.8596737319      0.0010880841
C      -0.6951582249      1.3932045094     -0.2513088219
C      -0.0956722201      2.5311054927      0.1819172752
C      -0.6535889417     -1.4221897276      0.0467528479
H      -1.5941601438      1.2312157260     -0.7925771849
H       1.1696230881      2.6187289838      0.5075927929
H      -0.9462121728      3.2027185358     -0.2454230162
H       0.3540438081     -2.2469067651     -0.9266960587
H      -0.5563261456     -1.5457143026      1.7900945955
H      -1.7910016901     -1.4445683008     -0.4191916470
12
Frame=66  time=33.500fs  energy=-306.19284574Ha  molecule=COOCCCHHHHHH
C      -0.0987035227      0.0912543119     -0.1291888496
O       1.1742812694     -0.0323783901      0.0868452237
O       2.0620263741      0.8610422658      0.0010251356
C      -0.6954052472      1.3931577542     -0.2545629668
C      -0.0940110261      2.5305385435      0.1840393506
C      -0.6535526263     -1.4257157351      0.0468364718
H      -1.5845019973      1.2337736131     -0.7974794821
H       1.1710102784      2.6117486201      0.5230866691
H      -0.9526744615      3.1962198693     -0.2535370525
H       0.3582715351     -2.2546346434     -0.9417418925
H      -0.5530223977     -1.5470110397      1.8115701530
H      -1.7968937826     -1.4404254444     -0.4095900492
12
Frame=67  time=34.000fs  energy=-306.19287755Ha  molecule=COOCCCHHHHHH
C      -0.0992104859      0.0927822675     -0.1303284405
O       1.1715300736     -0.0307732691      0.0873815602
O       2.0636281108      0.8623951214      0.0009575340
C      -0.6956244117      1.3931216344     -0.2578692133
C      -0.0923099252      2.5299851459      0.1861932743
C      -0.6534742872     -1.4292843871      0.0469663264
H      -1.5752215527      1.2363577725     -0.8025359639
H       1.1721834020      2.6047729183      0.5387280078
H      -0.9590898669      3.1897822315     -0.2616644279
H       0.3623749626     -2.2620994456     -0.9569016004
H      -0.5492833182     -1.5484906843      1.8328873398
H      -1.8030807995     -1.4362610512     -0.3998812983
12
Frame=68  time=34.500fs  energy=-306.19291540Ha  molecule=COOCCCHHHHHH
C      -0.0997337413      0.0943173144     -0.1314939598
O       1.1687525987     -0.0291552766      0.0879344068
O       2.0652208319      0.8637325261      0.0008852736
C      -0.6958176089      1.3930975349     -0.2612258542
C      -0.0905725529      2.5294433970      0.1883789930
C      -0.6533569521     -1.4328937125      0.0471401326
H      -1.5662831853      1.2389647516     -0.8077436046
H       1.1731786268      2.5978016961      0.5545097813
H      -0.9654652627      3.1833950853     -0.2698094074
H       0.3663733765     -2.2693334365     -0.9721810229
H      -0.5451344227     -1.5501364605      1.8540749163
H      -1.8095446270     -1.4320800566     -0.3900761441
12
Frame=69  time=35.000fs  energy=-306.19295757Ha  molecule=COOCCCHHHHHH
C      -0.1002732813      0.0958595102     -0.1326841125
O       1.1659503078     -0.0275240668      0.0885030224
O       2.0668051495      0.8650549828      0.0008084356
C      -0.6959868632      1.3930862852     -0.2646307037
C      -0.0888023390      2.5289115957      0.1905959076
C      -0.6532037168     -1.4365414807      0.0473552339
H      -1.5576518759      1.2415916062     -0.8130972562
H       1.1740273391      2.5908345126      0.5704243009
H      -0.9718069645      3.1770492440     -0.2779752030
H       0.3702841134     -2.2763665260     -0.9875829118
H      -0.5406035101     -1.5519323019      1.8751587329
H      -1.8162660388     -1.4278863958     -0.3801841375
12
Frame=70  time=35.500fs  energy=-306.19300250Ha  molecule=COOCCCHHHHHH
C      -0.1008287904      0.0974087952     -0.1338974377
O       1.1631247445     -0.0258796091      0.0890865396
O       2.0683817434      0.8663632010      0.0007271704
C      -0.6961342583      1.3930882543     -0.2680812033
C      -0.0870025049      2.5283882351      0.1928429759
C      -0.6530176790     -1.4402252746      0.0476087252
H      -1.5492938902      1.2442358180     -0.8185901229
H       1.1747565237      2.5838707677      0.5864633762
H      -0.9781206760      3.1707367705     -0.2861640692
H       0.3741225379     -2.2832260854     -1.0031073627
H      -0.5357197050     -1.5538629629      1.8961616025
H      -1.8232252108     -1.4236831728     -0.3702138313
12
Frame=71  time=36.000fs  energy=-306.19304884Ha  molecule=COOCCCHHHHHH
C      -0.1013997086      0.0989650081     -0.1351323616
O       1.1602775067     -0.0242221325      0.0896840011
O       2.0699513257      0.8676580373      0.0006416823
C      -0.6962618758      1.3931034384     -0.2715745221
C      -0.0851760633      2.5278719925      0.1951188102
C      -0.6528018821     -1.4439425563      0.0478975639
H      -1.5411772857      1.2468952246     -0.8242141928
H       1.1753891659      2.5769097819      0.6026184750
H      -0.9844114665      3.1644508740     -0.2943774087
H       0.3779020843     -2.2899368689     -1.0187522473
H      -0.5305126409     -1.5559141029      1.9171032978
H      -1.8304021696     -1.4194728108     -0.3601729437
12
Frame=72  time=36.500fs  energy=-306.19309542Ha  molecule=COOCCCHHHHHH
C      -0.1019852891      0.1005279024     -0.1363872447
O       1.1574102202     -0.0225520734      0.0902943934
O       2.0715146130      0.8689404430      0.0005522146
C      -0.6963717478      1.3931315404     -0.2751076485
C      -0.0833258186      2.5273617167      0.1974217656
C      -0.6525592697     -1.4476907272      0.0482186613
H      -1.5332722654      1.2495679592     -0.8299606225
H       1.1759446613      2.5699508591      0.6188808773
H      -0.9906837716      3.1581858050     -0.3026158834
H       0.3816343465     -2.2965210192     -1.0345136296
H      -0.5250117837     -1.5580723445      1.9380006467
H      -1.8377771716     -1.4152571816     -0.3500684883
12
Frame=73  time=37.000fs  energy=-306.19314128Ha  molecule=COOCCCHHHHHH
C      -0.1025846499      0.1020971631     -0.1376604229
O       1.1545245145     -0.0208700277      0.0909166746
O       2.0730723046      0.8702114214      0.0004590372
C      -0.6964658205      1.3931720401     -0.2786774721
C      -0.0814543687      2.5268564144      0.1997500194
C      -0.6522926505     -1.4514671789      0.0485689579
H      -1.5255513991      1.2522524011     -0.8358200709
H       1.1764392209      2.5629933326      0.6352418186
H      -0.9969414147      3.1519367512     -0.3108795263
H       0.3853292014     -2.3029981399     -1.0503861571
H      -0.5192458847     -1.5603253064      1.9588676986
H      -1.8453310138     -1.4110377167     -0.3399068753
12
Frame=74  time=37.500fs  energy=-306.19318566Ha  molecule=COOCCCHHHHHH
C      -0.1031968192      0.1036724219     -0.1389502422
O       1.1516220006     -0.0191767088      0.0915497997
O       2.0746250663      0.8714719920      0.0003624354
C      -0.6965459284      1.3932242558     -0.2822808551
C      -0.0795641094      2.5263552352      0.2021016400
C      -0.6520046719     -1.4552693371      0.0489454825
H      -1.5179897359      1.2549471345     -0.8417829830
H       1.1768862623      2.5560365981      0.6516926186
H      -1.0031876404      3.1456997350     -0.3191678504
H       0.3889949552     -2.3093854180     -1.0663634190
H      -0.5132425548     -1.5626616148      1.9797159416
H      -1.8530452792     -1.4068155013     -0.3296939896
12
Frame=75  time=38.000fs  energy=-306.19322797Ha  molecule=COOCCCHHHHHH
C      -0.1038207739      0.1052532728     -0.1402550867
O       1.1487042513     -0.0174729091      0.0921927404
O       2.0761735191      0.8727231628      0.0002627015
C      -0.6966137765      1.3932873966     -0.2859146922
C      -0.0776572393      2.5258574567      0.2044746466
C      -0.6516978025     -1.4590946980      0.0493453969
H      -1.5105648251      1.2576509141     -0.8478398240
H       1.1772967788      2.5490801349      0.6682247931
H      -1.0094251597      3.1394715145     -0.3274799516
H       0.3926385005     -2.3156977824     -1.0824382672
H      -0.5070279482     -1.5650708960      2.0005545507
H      -1.8609025225     -1.4025913507     -0.3194352495
12
Frame=76  time=38.500fs  energy=-306.19326778Ha  molecule=COOCCCHHHHHH
C      -0.1044554716      0.1068392847     -0.1415734015
O       1.1457727856     -0.0157594688      0.0928445011
O       2.0777182320      0.8739659084      0.0001601267
C      -0.6966709309      1.3933606054     -0.2895759604
C      -0.0757357665      2.5253624699      0.2068670574
C      -0.6513743217     -1.4629408569      0.0497660277
H      -1.5032566675      1.2603626385     -0.8539812685
H       1.1776796827      2.5421235170      0.6848301479
H      -1.0156561992      3.1332494895     -0.3358146041
H       0.3962654788     -2.3219480841     -1.0986030965
H      -0.5006265404     -1.5675437521      2.0213906522
H      -1.8688864009     -1.3983658744     -0.3091356519
12
Frame=77  time=39.000fs  energy=-306.19330481Ha  molecule=COOCCCHHHHHH
C      -0.1050998774      0.1084300138     -0.1429037094
O       1.1428290544     -0.0140372481      0.0935041320
O       2.0792597184      0.8752011544      0.0000549952
C      -0.6967188143      1.3934429956     -0.2932617578
C      -0.0738015165      2.5248697653      0.2092769303
C      -0.6510363152     -1.4668055303      0.0502048883
H      -1.4960476129      1.2630813278     -0.8601983468
H       1.1780421183      2.5351664171      0.7015008549
H      -1.0218825543      3.1270316128     -0.3441703468
H       0.3998804398     -2.3281472903     -1.1148500845
H      -0.4940609903     -1.5700717249      2.0422295913
H      -1.8769817572     -1.3941395263     -0.2987998052
12
Frame=78  time=39.500fs  energy=-306.19333890Ha  molecule=COOCCCHHHHHH
C      -0.1057529842      0.1100250139     -0.1442446235
O       1.1398744307     -0.0123071056      0.0941707375
O       2.0807984349      0.8764297662     -0.0000524199
C      -0.6967587068      1.3935336787     -0.2969693334
C      -0.0718561410      2.5243789196      0.2117023933
C      -0.6506856756     -1.4706865722      0.0506596907
H      -1.4889222198      1.2658061062     -0.8664825540
H       1.1783897445      2.5282086047      0.7182295108
H      -1.0281056434      3.1208163082     -0.3525455586
H       0.4034869946     -2.3343046815     -1.1311713923
H      -0.4873520703     -1.5726472491      2.0630751938
H      -1.8851746626     -1.3899126448     -0.2884319552
12
Frame=79  time=40.000fs  energy=-306.19336997Ha  molecule=COOCCCHHHHHH
C      -0.1064138289      0.1116238447     -0.1455948548
O       1.1369102019     -0.0105698802      0.0948434829
O       2.0823347824      0.8776525427     -0.0001618604
C      -0.6967917499      1.3936317867     -0.3006961082
C      -0.0699011274      2.5238895838      0.2141416680
C      -0.6503241073     -1.4745819844      0.0511283507
H      -1.4818670893      1.2685361880     -0.8728259262
H       1.1787269843      2.5212499392      0.7350091788
H      -1.0343265590      3.1146023954     -0.3609385245
H       0.4070879577     -2.3404280456     -1.1475593266
H      -0.4805186540     -1.5752635985      2.0839300142
H      -1.8934524254     -1.3856854845     -0.2780360054
12
Frame=80  time=40.500fs  energy=-306.19339806Ha  molecule=COOCCCHHHHHH
C      -0.1070815033      0.1132260789     -0.1469532169
O       1.1339375647     -0.0088263777      0.0955215981
O       2.0838691083      0.8788702122     -0.0002730848
C      -0.6968189533      1.3937364886     -0.3044396890
C      -0.0679378093      2.5234014721      0.2165930865
C      -0.6499531339     -1.4784899228      0.0516089864
H      -1.4748706858      1.2712708666     -0.8792210890
H       1.1790572444      2.5142903611      0.7518334161
H      -1.0405461182      3.1083890223     -0.3693474909
H       0.4106854782     -2.3465238648     -1.1640064672
H      -0.4735777486     -1.5779148270      2.1047955647
H      -1.9018035716     -1.3814582393     -0.2676155345
12
Frame=81  time=41.000fs  energy=-306.19342323Ha  molecule=COOCCCHHHHHH
C      -0.1077551623      0.1148313079     -0.1483186273
O       1.1309576230     -0.0070773607      0.0962043787
O       2.0854017108      0.8800834321     -0.0003858704
C      -0.6968412032      1.3938470018     -0.3081978752
C      -0.0659673761      2.5229143520      0.2190551016
C      -0.6495741083     -1.4824086986      0.0520999130
H      -1.4679231512      1.2740095055     -0.8856612814
H       1.1793831051      2.5073298808      0.7686962877
H      -1.0467649079      3.1021756047     -0.3777707106
H       0.4142811558     -2.3525974904     -1.1805057637
H      -0.4665445625     -1.5805957074      2.1256725225
H      -1.9102178045     -1.3772310611     -0.2571738112
12
Frame=82  time=41.500fs  energy=-306.19344563Ha  molecule=COOCCCHHHHHH
C      -0.1084340280      0.1164391457     -0.1496901062
O       1.1279713868     -0.0053235417      0.0968911863
O       2.0869328423      0.8812927898     -0.0005000133
C      -0.6968592724      1.3939625997     -0.3119686609
C      -0.0639908847      2.5224280360      0.2215262929
C      -0.6491882240     -1.4863367779      0.0525996332
H      -1.4610161206      1.2767515313     -0.8921403619
H       1.1797064820      2.5003685670      0.7855923683
H      -1.0529833265      3.0959617733     -0.3862064795
H       0.4178761446     -2.3586533043     -1.1970506033
H      -0.4594325976     -1.5833016692      2.1465609140
H      -1.9186859478     -1.3730040721     -0.2467138086
12
Frame=83  time=42.000fs  energy=-306.19346540Ha  molecule=COOCCCHHHHHH
C      -0.1091173921      0.1180492319     -0.1510667733
O       1.1249797739     -0.0035655786      0.0975814466
O       2.0884627145      0.8824988059     -0.0006153287
C      -0.6968738296      1.3940826163     -0.3157502324
C      -0.0620092693      2.5219423738      0.2240053685
C      -0.6487965275     -1.4902727764      0.0531068265
H      -1.4541425455      1.2794964279     -0.8986527986
H       1.1800287634      2.4934065352      0.8025167354
H      -1.0592016209      3.0897473279     -0.3946531644
H       0.4214712421     -2.3646948648     -1.2136348554
H      -0.4522537607     -1.5860287361      2.1674602734
H      -1.9271998778     -1.3687773748     -0.2362382193
12
Frame=84  time=42.500fs  energy=-306.19348276Ha  molecule=COOCCCHHHHHH
C      -0.1098046149      0.1196612336     -0.1524478437
O       1.1219836121     -0.0018040731      0.0982746470
O       2.0899915029      0.8837019378     -0.0007316507
C      -0.6968854506      1.3942064474     -0.3195409620
C      -0.0600233522      2.5214572459      0.2264911632
C      -0.6483999309     -1.4942154544      0.0536203355
H      -1.4472965249      1.2822437312     -0.9051936474
H       1.1803509245      2.4864439359      0.8194649543
H      -1.0654199187      3.0835321984     -0.4031092231
H       0.4250669657     -2.3707250375     -1.2302528957
H      -0.4450184840     -1.5887734671      2.1883697792
H      -1.9357524471     -1.3645510578     -0.2257494693
12
Frame=85  time=43.000fs  energy=-306.19349788Ha  molecule=COOCCCHHHHHH
C      -0.1104951243      0.1212748460     -0.1538326222
O       1.1189836435     -0.0000395698      0.0989703331
O       2.0915193515      0.8849025843     -0.0008488313
C      -0.6968946278      1.3943335508     -0.3233393990
C      -0.0580338539      2.5209725578      0.2289826344
C      -0.6479992250     -1.4981637081      0.0541391527
H      -1.4404731510      1.2849930252     -0.9117585225
H       1.1806736217      2.4794809449      0.8364330562
H      -1.0716382562      3.0773164117     -0.4115732185
H       0.4286636172     -2.3767461101     -1.2468996134
H      -0.4377358526     -1.5915328980      2.2092883670
H      -1.9443374051     -1.3603252009     -0.2152497337
12
Frame=86  time=43.500fs  energy=-306.19351098Ha  molecule=COOCCCHHHHHH
C      -0.1111884126      0.1228897924     -0.1552204969
O       1.1159805285      0.0017274423      0.0996681047
O       2.0930463770      0.8861010908     -0.0009667398
C      -0.6969017799      1.3944634439     -0.3271442600
C      -0.0560414028      2.5204882356      0.2314788564
C      -0.6475950913     -1.5021165614      0.0546624060
H      -1.4336683672      1.2877439378     -0.9183435597
H       1.1809972697      2.4725177538      0.8534175126
H      -1.0778566014      3.0711000645     -0.4200438273
H       0.4322613359     -2.3827598927     -1.2635704056
H      -0.4304137320     -1.5943044882      2.2302148225
H      -1.9529493167     -1.3560998770     -0.2047409524
12
Frame=87  time=44.000fs  energy=-306.19352226Ha  molecule=COOCCCHHHHHH
C      -0.1118840321      0.1245058242     -0.1566109325
O       1.1129748516      0.0034965277      0.1003676117
O       2.0945726729      0.8872977542     -0.0010852610
C      -0.6969072613      1.3945957010     -0.3309544163
C      -0.0540465445      2.5200042219      0.2339790131
C      -0.6471881145     -1.5060731561      0.0551893452
H      -1.4268788413      1.2904961379     -0.9249453775
H       1.1813221037      2.4655545623      0.8704152063
H      -1.0840748739      3.0648833012     -0.4285198435
H       0.4358601422     -2.3887678044     -1.2802611602
H      -0.4230588940     -1.5970860699      2.2511478557
H      -1.9615834824     -1.3518751545     -0.1942248464
12
Frame=88  time=44.500fs  energy=-306.19353192Ha  molecule=COOCCCHHHHHH
C      -0.1125815915      0.1261227193     -0.1580034638
O       1.1099671266      0.0052673016      0.1010685496
O       2.0960983135      0.8884928284     -0.0012042946
C      -0.6969113700      1.3947299495     -0.3347688817
C      -0.0520497510      2.5195204725      0.2364823896
C      -0.6467787931     -1.5100327423      0.0557193285
H      -1.4201018523      1.2932493315     -0.9315610350
H       1.1816482281      2.4585915716      0.8874233999
H      -1.0902929603      3.0586662958     -0.4370001787
H       0.4394599729     -2.3947709463     -1.2969682328
H      -0.4156771373     -1.5998758019      2.2720861579
H      -1.9702358601     -1.3476510976     -0.1837029343
12
Frame=89  time=45.000fs  energy=-306.19354014Ha  molecule=COOCCCHHHHHH
C      -0.1132807505      0.1277402812     -0.1593976886
O       1.1069578027      0.0070394263      0.1017706553
O       2.0976233567      0.8896865288     -0.0013237534
C      -0.6969143556      1.3948658653     -0.3385867996
C      -0.0500514281      2.5190369536      0.2389883639
C      -0.6463675506     -1.5139946682      0.0562518094
H      -1.4133351916      1.2960032590     -0.9381879899
H       1.1819756554      2.4516289792      0.9044397040
H      -1.0965107275      3.0524492387     -0.4454838597
H       0.4430607086     -2.4007701643     -1.3136884161
H      -0.4082734013     -1.6026721275      2.2930284460
H      -1.9789029914     -1.3434277667     -0.1731765487
12
Frame=90  time=45.500fs  energy=-306.19354711Ha  molecule=COOCCCHHHHHH
C      -0.1139812156      0.1293583367     -0.1607932611
O       1.1039472702      0.0088126077      0.1024737025
O       2.0991478472      0.8908790373     -0.0014435625
C      -0.6969164262      1.3950031689     -0.3424074303
C      -0.0480519237      2.5185536398      0.2414963982
C      -0.6459547447     -1.5179583708      0.0567863254
H      -1.4065770770      1.2987576921     -0.9448240574
H       1.1823043363      2.4446669746      0.9214620448
H      -1.1027280318      3.0462323253     -0.4539700230
H       0.4466621952     -2.4067661002     -1.3304189078
H      -0.4008518721     -1.6054737361      2.3139734932
H      -1.9875819323     -1.3392052189     -0.1626468528
12
Frame=91  time=46.000fs  energy=-306.19355297Ha  molecule=COOCCCHHHHHH
C      -0.1146827346      0.1309767348     -0.1621898858
O       1.1009358667      0.0105865910      0.1031774980
O       2.1006718190      0.8920705066     -0.0015636575
C      -0.6969177543      1.3951416206     -0.3462301389
C      -0.0460515346      2.5180705120      0.2440060301
C      -0.6455406762     -1.5219233660      0.0573224870
H      -1.3998260789      1.3015124313     -0.9514673706
H       1.1826341818      2.4377057368      0.9384886330
H      -1.1089447272      3.0400157485     -0.4624579091
H       0.4502642604     -2.4127592351     -1.3471572755
H      -0.3934160801     -1.6082795293      2.3349201507
H      -1.9962701892     -1.3349835074     -0.1521148564
12
Frame=92  time=46.500fs  energy=-306.19355790Ha  molecule=COOCCCHHHHHH
C      -0.1153850926      0.1325953443     -0.1635873114
O       1.0979238817      0.0123611572      0.1038818773
O       2.1021952976      0.8932610644     -0.0016839834
C      -0.6969184822      1.3952810159     -0.3500543831
C      -0.0440505126      2.5175875562      0.2465168643
C      -0.6451255968     -1.5258892401      0.0578599675
H      -1.3930810566      1.3042673027     -0.9581163428
H       1.1829650804      2.4307454318      0.9555179327
H      -1.1151606706      3.0337996932     -0.4709468547
H       0.4538667257     -2.4187499243     -1.3639014213
H      -0.3859689880     -1.6110885903      2.3558673616
H      -2.0049656600     -1.3307626817     -0.1415814311
12
Frame=93  time=47.000fs  energy=-306.19356200Ha  molecule=COOCCCHHHHHH
C      -0.1160881071      0.1342140523     -0.1649853252
O       1.0949115632      0.0141361188      0.1045867015
O       2.1037183014      0.8944508163     -0.0018044939
C      -0.6969187268      1.3954211818     -0.3538797024
C      -0.0420490708      2.5171047621      0.2490285652
C      -0.6447097162     -1.5298556415      0.0583984944
H      -1.3863411057      1.3070221560     -0.9647696325
H       1.1832969103      2.4237862114      0.9725486334
H      -1.1213757255      3.0275843325     -0.4794362846
H       0.4574694147     -2.4247384257     -1.3806495471
H      -0.3785130707     -1.6139001573      2.3768141670
H      -2.0136665814     -1.3265427873     -0.1310473258
12
Frame=94  time=47.500fs  energy=-306.19356541Ha  molecule=COOCCCHHHHHH
C      -0.1167916244      0.1358327618     -0.1663837484
O       1.0918991217      0.0159113168      0.1052918535
O       2.1052408438      0.8956398500     -0.0019251498
C      -0.6969185840      1.3955619726     -0.3577057079
C      -0.0400473885      2.5166221224      0.2515408487
C      -0.6442932085     -1.5338222725      0.0589378415
H      -1.3796055131      1.3097768616     -0.9714261120
H       1.1836295477      2.4168282130      0.9895796226
H      -1.1275897651      3.0213698251     -0.4879257034
H       0.4610721594     -2.4307249230     -1.3974001210
H      -0.3710503857     -1.6167135997      2.3977597090
H      -2.0223714810     -1.3223238658     -0.1205131797
12
Frame=95  time=48.000fs  energy=-306.19356822Ha  molecule=COOCCCHHHHHH
C      -0.1174955153      0.1374513904     -0.1677824310
O       1.0888867350      0.0176866164      0.1059972355
O       2.1067629340      0.8968282375     -0.0020459181
C      -0.6969181316      1.3957032660     -0.3615320727
C      -0.0380456157      2.5161396321      0.2540534765
C      -0.6438762171     -1.5377888829      0.0594778218
H      -1.3728737193      1.3125313085     -0.9780848374
H       1.1839628729      2.4098715592      1.0066099611
H      -1.1338026734      3.0151563144     -0.4964146875
H       0.4646748038     -2.4367095438     -1.4141518454
H      -0.3635826360     -1.6195283980      2.4187032283
H      -2.0310791351     -1.3181059547     -0.1099795359
12
Frame=96  time=48.500fs  energy=-306.19357054Ha  molecule=COOCCCHHHHHH
C      -0.1181996722      0.1390698683     -0.1691812484
O       1.0858745529      0.0194619047      0.1067027660
O       2.1082845781      0.8980160376     -0.0021667715
C      -0.6969174330      1.3958449603     -0.3653585236
C      -0.0360438777      2.5156572874      0.2565662489
C      -0.6434588602     -1.5417552630      0.0600182814
H      -1.3661452885      1.3152854023     -0.9847450232
H       1.1842967742      2.4029163583      1.0236388603
H      -1.1400143462      3.0089439280     -0.5049028768
H       0.4682772058     -2.4426923740     -1.4309036278
H      -0.3561112243     -1.6223441257      2.4396440604
H      -2.0397885317     -1.3138890874     -0.0994468534
12
Frame=97  time=49.000fs  energy=-306.19357243Ha  molecule=COOCCCHHHHHH
C      -0.1189040056      0.1406881367     -0.1705800969
O       1.0828627006      0.0212370872      0.1074083773
O       2.1098057802      0.8992032984     -0.0022876872
C      -0.6969165391      1.3959869712     -0.3691848334
C      -0.0340422785      2.5151750861      0.2590790002
C      -0.6430412343     -1.5457212385      0.0605590943
H      -1.3594198824      1.3180390630     -0.9914060189
H       1.1846311494      2.3959627052      1.0406656614
H      -1.1462246911      3.0027327782     -0.5133899675
H       0.4718792386     -2.4486734688     -1.4476545534
H      -0.3486373014     -1.6251604345      2.4605816293
H      -2.0484988371     -1.3096732935     -0.0889155175
12
Frame=98  time=49.500fs  energy=-306.19357398Ha  molecule=COOCCCHHHHHH
C      -0.1196084418      0.1423061466     -0.1719788913
O       1.0798512819      0.0230120853      0.1081140138
O       2.1113265425      0.9003900588     -0.0024086463
C      -0.6969154911      1.3961292292     -0.3730108142
C      -0.0320409038      2.5146930266      0.2615915931
C      -0.6426234182     -1.5496866646      0.0611001579
H      -1.3526972405      1.3207922232     -0.9980672884
H       1.1849659073      2.3890106817      1.0576898173
H      -1.1524336273      2.9965229625     -0.5218757045
H       0.4754807906     -2.4546528617     -1.4644038604
H      -0.3411618067     -1.6279770406      2.4815154404
H      -2.0572093685     -1.3054585991     -0.0783858504
12
Frame=99  time=50.000fs  energy=-306.19357523Ha  molecule=COOCCCHHHHHH
C      -0.1203129199      0.1439238571     -0.1733775615
O       1.0768403832      0.0247868344      0.1088196298
O       2.1128468661      0.9015763505     -0.0025296335
C      -0.6969143218      1.3962716772     -0.3768363114
C      -0.0300398243      2.5142111080      0.2641039145
C      -0.6422054758     -1.5536514224      0.0616413885
H      -1.3459771627      1.3235448264     -1.0047283919
H       1.1853009678      2.3820603582      1.0747108761
H      -1.1586410850      2.9903145648     -0.5303598752
H       0.4790817645     -2.4606305707     -1.4811509184
H      -0.3336855037     -1.6307937144      2.5024450726
H      -2.0659195684     -1.3012450264     -0.0678581197
12
Frame=100  time=50.500fs  energy=-306.19357625Ha  molecule=COOCCCHHHHHH
C      -0.1210173905      0.1455412346     -0.1747760504
O       1.0738300751      0.0265612811      0.1095251880
O       2.1143667515      0.9027621987     -0.0026506361
C      -0.6969130576      1.3964142687     -0.3806611983
C      -0.0280390978      2.5137293297      0.2666158722
C      -0.6417874587     -1.5576154143      0.0621827188
H      -1.3392594966      1.3262968260     -1.0113889708
H       1.1856362615      2.3751117943      1.0917284667
H      -1.1648470044      2.9841076565     -0.5388423034
H       0.4826820769     -2.4666066037     -1.4978952084
H      -0.3262090105     -1.6336102704      2.5233701708
H      -2.0746289844     -1.2970325948     -0.0573325463
12
Frame=101  time=51.000fs  energy=-306.19357706Ha  molecule=COOCCCHHHHHH
C      -0.1217218130      0.1471582513     -0.1761743114
O       1.0708204156      0.0283353818      0.1102306580
O       2.1158861986      0.9039476239     -0.0027716437
C      -0.6969117193      1.3965569659     -0.3844853718
C      -0.0260387711      2.5132476914      0.2691273908
C      -0.6413694082     -1.5615785607      0.0627240947
H      -1.3325441262      1.3290481830     -1.0180487338
H       1.1859717289      2.3681650401      1.1087422860
H      -1.1710513351      2.9779022975     -0.5473228443
H       0.4862816571     -2.4725809615     -1.5146363054
H      -0.3187328249     -1.6364265597      2.5442904377
H      -2.0833372509     -1.2928213205     -0.0468093118
12
Frame=102  time=51.500fs  energy=-306.19357771Ha  molecule=COOCCCHHHHHH
C      -0.1224261550      0.1487748847     -0.1775723070
O       1.0678114516      0.0301091014      0.1109360154
O       2.1174052072      0.9051326425     -0.0028926481
C      -0.6969103233      1.3966997380     -0.3883087485
C      -0.0240388824      2.5127661930      0.2716384093
C      -0.6409513578     -1.5655407972      0.0632654725
H      -1.3258309640      1.3317988657     -1.0247074457
H       1.1863073197      2.3612201375      1.1257520880
H      -1.1772540349      2.9716985380     -0.5558013793
H       0.4898804453     -2.4785536410     -1.5313738640
H      -0.3112573459     -1.6392424632      2.5652056267
H      -2.0920440738     -1.2886112170     -0.0362885641
12
Frame=103  time=52.000fs  energy=-306.19357823Ha  molecule=COOCCCHHHHHH
C      -0.1231303900      0.1503911166     -0.1789700070
O       1.0648032213      0.0318824112      0.1116412404
O       2.1189237768      0.9063172676     -0.0030136425
C      -0.6969088828      1.3968425606     -0.3921312613
C      -0.0220394622      2.5122848345      0.2741488789
C      -0.6405333337     -1.5695020721      0.0638068176
H      -1.3191199440      1.3345488481     -1.0313649176
H       1.1866429917      2.3542771208      1.1427576746
H      -1.1834550689      2.9654964193     -0.5642778125
H       0.4934783920     -2.4845246369     -1.5481076047
H      -0.3037828921     -1.6420578860      2.5861155351
H      -2.1007492180     -1.2844022955     -0.0257704231
12
Frame=104  time=52.500fs  energy=-306.19357865Ha  molecule=COOCCCHHHHHH
C      -0.1238344971      0.1520069322     -0.1803673874
O       1.0617957550      0.0336552884      0.1123463174
O       2.1204419070      0.9075015095     -0.0031346215
C      -0.6969074080      1.3969854139     -0.3959528564
C      -0.0200405349      2.5118036159      0.2766587602
C      -0.6401153571     -1.5734623439      0.0643481026
H      -1.3124110166      1.3372981095     -1.0380209985
H       1.1869787099      2.3473360178      1.1597588872
H      -1.1896544085      2.9592959751     -0.5727520663
H       0.4970754562     -2.4904939427     -1.5648373031
H      -0.2963097166     -1.6448727530      2.6070199976
H      -2.1094524963     -1.2801945651     -0.0152549853
12
Frame=105  time=53.000fs  energy=-306.19357897Ha  molecule=COOCCCHHHHHH
C      -0.1245384594      0.1536223198     -0.1817644291
O       1.0587890769      0.0354277149      0.1130512338
O       2.1219595974      0.9086853767     -0.0032555809
C      -0.6969059068      1.3971282822     -0.3997734913
C      -0.0180421201      2.5113225371      0.2791680221
C      -0.6396974446     -1.5774215797      0.0648893057
H      -1.3057041444      1.3400466329     -1.0446755686
H       1.1873144455      2.3403968511      1.1767556000
H      -1.1958520308      2.9530972327     -0.5812240790
H       0.5006716044     -2.4964615523     -1.5815627803
H      -0.2888380191     -1.6476870051      2.6279188809
H      -2.1181537607     -1.2759880329     -0.0047423277
12
Frame=106  time=53.500fs  energy=-306.19357923Ha  molecule=COOCCCHHHHHH
C      -0.1252422637      0.1552372703     -0.1831611168
O       1.0557832062      0.0371996763      0.1137559796
O       2.1234768477      0.9098688757     -0.0033765172
C      -0.6969043856      1.3972711530     -0.4035931322
C      -0.0160442330      2.5108415982      0.2816766399
C      -0.6392796091     -1.5813797537      0.0654304098
H      -1.2989992994      1.3427944051     -1.0513285331
H       1.1876501748      2.3334596382      1.1937477140
H      -1.2020479176      2.9469002135     -0.5896938017
H       0.5042668097     -2.5024274596     -1.5982838946
H      -0.2813679569     -1.6505005960      2.6488120785
H      -2.1268528947     -1.2717827045      0.0057674889
12
Frame=107  time=54.000fs  energy=-306.19357943Ha  molecule=COOCCCHHHHHH
C      -0.1259458996      0.1568517763     -0.1845574390
O       1.0527781578      0.0389711613      0.1144605473
O       2.1249936577      0.9110520120     -0.0034974277
C      -0.6969028490      1.3974140165     -0.4074117529
C      -0.0140468855      2.5103607991      0.2841845945
C      -0.6388618608     -1.5853368458      0.0659714015
H      -1.2922964604      1.3455414157     -1.0579798180
H       1.1879858788      2.3265243928      1.2107351521
H      -1.2082420545      2.9407049347     -0.5981611961
H       0.5078610505     -2.5083916597     -1.6150005349
H      -0.2738996526     -1.6533134894      2.6696995064
H      -2.1355498075     -1.2675785840      0.0162744170
12
Frame=108  time=54.500fs  energy=-306.19357959Ha  molecule=COOCCCHHHHHH
C      -0.1266493588      0.1584658324     -0.1859533863
O       1.0497739431      0.0407421613      0.1151649307
O       2.1265100275      0.9122347899     -0.0036183104
C      -0.6969013010      1.3975568648     -0.4112293331
C      -0.0120500869      2.5098801399      0.2866918710
C      -0.6384442078     -1.5892928406      0.0665122705
H      -1.2855956112      1.3482876566     -1.0646293655
H       1.1883215420      2.3195911254      1.2277178552
H      -1.2144344309      2.9345114091     -0.6066262326
H       0.5114543095     -2.5143541483     -1.6317126151
H      -0.2664332016     -1.6561256576      2.6905810993
H      -2.1442444287     -1.2633756743      0.0267784198
12
Frame=109  time=55.000fs  energy=-306.19357972Ha  molecule=COOCCCHHHHHH
C      -0.1273526350      0.1600794343     -0.1873489518
O       1.0467705709      0.0425126696      0.1158691252
O       2.1280259571      0.9134172128     -0.0037391635
C      -0.6968997443      1.3976996920     -0.4150458572
C      -0.0100538442      2.5093996204      0.2891984579
C      -0.6380266560     -1.5932477262      0.0670530087
H      -1.2788967391      1.3510331217     -1.0712771311
H       1.1886571521      2.3126598435      1.2446957787
H      -1.2206250385      2.9283196466     -0.6150888890
H       0.5150465736     -2.5203149224     -1.6484200689
H      -0.2589686773     -1.6589370791      2.7114568076
H      -2.1529367041     -1.2591739774      0.0372794694
12
Frame=110  time=55.500fs  energy=-306.19357981Ha  molecule=COOCCCHHHHHH
C      -0.1280557235      0.1616925790     -0.1887441303
O       1.0437680477      0.0442826812      0.1165731272
O       2.1295414469      0.9145992836     -0.0038599858
C      -0.6968981812      1.3978424934     -0.4188613135
C      -0.0080581627      2.5089192405      0.2917043465
C      -0.6376092102     -1.5972014941      0.0675936100
H      -1.2721998344      1.3537778066     -1.0779230809
H       1.1889926994      2.3057305522      1.2616688898
H      -1.2268138718      2.9221296542     -0.6235491484
H       0.5186378325     -2.5262739798     -1.6651228464
H      -0.2515061357     -1.6617477377      2.7323265939
H      -2.1616265929     -1.2549734943      0.0477775451
12
Frame=111  time=56.000fs  energy=-306.19357988Ha  molecule=COOCCCHHHHHH
C      -0.1287586205      0.1633052641     -0.1901389176
O       1.0407663781      0.0460521925      0.1172769342
O       2.1310564970      0.9157810047     -0.0039807764
C      -0.6968966133      1.3979852653     -0.4226756933
C      -0.0060630462      2.5084390002      0.2942095306
C      -0.6371918740     -1.6011541379      0.0681340697
H      -1.2655048888      1.3565217080     -1.0845671894
H       1.1893281761      2.2988032548      1.2786371646
H      -1.2330009270      2.9159414367     -0.6320069990
H       0.5222280786     -2.5322313194     -1.6818209108
H      -0.2440456195     -1.6645576211      2.7531904316
H      -2.1703140644     -1.2507742255      0.0582726321
12
Frame=112  time=56.500fs  energy=-306.19357994Ha  molecule=COOCCCHHHHHH
C      -0.1294613231      0.1649174882     -0.1915333110
O       1.0377655655      0.0478212008      0.1179805440
O       2.1325711080      0.9169623779     -0.0041015344
C      -0.6968950420      1.3981280048     -0.4264889906
C      -0.0040684975      2.5079588991      0.2967140054
C      -0.6367746500     -1.6051056533      0.0686743842
H      -1.2588118957      1.3592648238     -1.0912094377
H       1.1896635762      2.2918779533      1.2956005872
H      -1.2391862018      2.9097549971     -0.6404624323
H       0.5258173062     -2.5381869406     -1.6985142355
H      -0.2365871603     -1.6673667204      2.7740483021
H      -2.1789990959     -1.2465761707      0.0687647198
12
Frame=113  time=57.000fs  energy=-306.19357998Ha  molecule=COOCCCHHHHHH
C      -0.1301638295      0.1665292502     -0.1929273084
O       1.0347656119      0.0495897044      0.1186839553
O       2.1340852804      0.9181434050     -0.0042222593
C      -0.6968934683      1.3982707100     -0.4303012010
C      -0.0020745184      2.5074789372      0.2992177677
C      -0.6363575403     -1.6090560374      0.0692145509
H      -1.2521208492      1.3620071525     -1.0978498122
H       1.1899988950      2.2849546479      1.3125591473
H      -1.2453696953      2.9035703370     -0.6489154431
H       0.5294055114     -2.5441408439     -1.7152028020
H      -0.2291307814     -1.6701750291      2.7949001938
H      -2.1876816713     -1.2423793291      0.0792538018
12
Frame=114  time=57.500fs  energy=-306.19358002Ha  molecule=COOCCCHHHHHH
C      -0.1308661381      0.1681405496     -0.1943209085
O       1.0317665186      0.0513577020      0.1193871670
O       2.1355990148      0.9193240875     -0.0043429508
C      -0.6968918929      1.3984133790     -0.4341123217
C      -0.0000811102      2.5069991141      0.3017208154
C      -0.6359405462     -1.6130052887      0.0697545679
H      -1.2454317442      1.3647486936     -1.1044883032
H       1.1903341289      2.2780333381      1.3295128394
H      -1.2515514076      2.8973874568     -0.6573660285
H       0.5329926917     -2.5500930302     -1.7318865985
H      -0.2216764996     -1.6729825426      2.8157461004
H      -2.1963617795     -1.2381836998      0.0897398743
12
Frame=115  time=58.000fs  energy=-306.19358004Ha  molecule=COOCCCHHHHHH
C      -0.1315682478      0.1697513863     -0.1957141104
O       1.0287682862      0.0531251931      0.1200901785
O       2.1371123119      0.9205044266     -0.0044636084
C      -0.6968903162      1.3985560108     -0.4379223513
C       0.0019117267      2.5065194298      0.3042231472
C      -0.6355236690     -1.6169534063      0.0702944337
H      -1.2387445759      1.3674894469     -1.1111249045
H       1.1906692752      2.2711140226      1.3464616617
H      -1.2577313398      2.8912063560     -0.6658141873
H       0.5365788455     -2.5560435011     -1.7485656184
H      -0.2142243266     -1.6757892577      2.8365860199
H      -2.2050394133     -1.2339892812      0.1002229360
12
Frame=116  time=58.500fs  energy=-306.19358006Ha  molecule=COOCCCHHHHHH
C      -0.1322701581      0.1713617603     -0.1971069136
O       1.0257709145      0.0548921775      0.1207929895
O       2.1386251724      0.9216844233     -0.0045842321
C      -0.6968887389      1.3986986043     -0.4417312890
C       0.0039039921      2.5060398839      0.3067247624
C      -0.6351069093     -1.6209003904      0.0708341475
H      -1.2320593397      1.3702294127     -1.1177596121
H       1.1910043317      2.2641966993      1.3634056153
H      -1.2639094933      2.8850270333     -0.6742599200
H       0.5401639721     -2.5619922585     -1.7652398587
H      -0.2067742702     -1.6785951727      2.8574199537
H      -2.2137145684     -1.2297960716      0.1107029872
12
Frame=117  time=59.000fs  energy=-306.19358008Ha  molecule=COOCCCHHHHHH
C      -0.1329718684      0.1729716719     -0.1984993181
O       1.0227744031      0.0566586553      0.1214955996
O       2.1401375971      0.9228640789     -0.0047048216
C      -0.6968871611      1.3988411590     -0.4455391349
C       0.0058956860      2.5055604762      0.3092256611
C      -0.6346902676     -1.6248462416      0.0713737084
H      -1.2253760314      1.3729685916     -1.1243924241
H       1.1913392970      2.2572813657      1.3803447036
H      -1.2700858702      2.8788494867     -0.6827032280
H       0.5437480716     -2.5679393047     -1.7819093201
H      -0.1993263351     -1.6814002864      2.8782479059
H      -2.2223872429     -1.2256040693      0.1211800300
12
Frame=118  time=59.500fs  energy=-306.19358009Ha  molecule=COOCCCHHHHHH
C      -0.1336733786      0.1745811216     -0.1998913239
O       1.0197787512      0.0584246267      0.1221980089
O       2.1416495869      0.9240433942     -0.0048253769
C      -0.6968855831      1.3989836743     -0.4493458897
C       0.0078868090      2.5050812064      0.3117258434
C      -0.6342737442     -1.6287909610      0.0719131161
H      -1.2186946466      1.3757069844     -1.1310233400
H       1.1916741700      2.2503680188      1.3972789315
H      -1.2762604731      2.8726737140     -0.6911441139
H       0.5473311446     -2.5738846424     -1.7985740051
H      -0.1918805237     -1.6842045986      2.8990698826
H      -2.2310574367     -1.2214132720      0.1316540671
12
Frame=119  time=60.000fs  energy=-306.19358009Ha  molecule=COOCCCHHHHHH
C      -0.1343746886      0.1761901101     -0.2012829314
O       1.0167839577      0.0601900924      0.1229002174
O       2.1431611424      0.9252223702     -0.0049458979
C      -0.6968840051      1.3991261499     -0.4531515545
C       0.0098773617      2.5046020742      0.3142253100
C      -0.6338573392     -1.6327345499      0.0724523705
H      -1.2120151812      1.3784445923     -1.1376523606
H       1.1920089497      2.2434566554      1.4142083056
H      -1.2824333049      2.8664997124     -0.6995825806
H       0.5509131918     -2.5798282743     -1.8152339184
H      -0.1844368367     -1.6870081094      2.9198858917
H      -2.2397251510     -1.2172236776      0.1421251026
12
Frame=120  time=60.500fs  energy=-306.19358010Ha  molecule=COOCCCHHHHHH
C      -0.1350757986      0.1777986380     -0.2026741410
O       1.0137900214      0.0619550530      0.1236022253
O       2.1446722647      0.9264010077     -0.0050663846
C      -0.6968824272      1.3992685855     -0.4569561306
C       0.0118673448      2.5041230794      0.3167240618
C      -0.6334410529     -1.6366770101      0.0729914714
H      -1.2053376311      1.3811814165     -1.1442794873
H       1.1923436357      2.2365472717      1.4311328333
H      -1.2886043685      2.8603274789     -0.7080186319
H       0.5544942146     -2.5857702037     -1.8318890662
H      -0.1769952734     -1.6898108194      2.9406959423
H      -2.2483903882     -1.2130352839      0.1525931409
12
Frame=121  time=61.000fs  energy=-306.19358010Ha  molecule=COOCCCHHHHHH
C      -0.1357767086      0.1794067060     -0.2040649532
O       1.0107969409      0.0637195092      0.1243040329
O       2.1461829547      0.9275793075     -0.0051868370
C      -0.6968808495      1.3994109811     -0.4607596197
C       0.0138567592      2.5036442216      0.3192220998
C      -0.6330248850     -1.6406183433      0.0735304187
H      -1.1986619921      1.3839174583     -1.1509047225
H       1.1926782275      2.2296398643      1.4480525229
H      -1.2947736673      2.8541570104     -0.7164522718
H       0.5580742145     -2.5917104337     -1.8485394555
H      -0.1695558321     -1.6926127296      2.9615000445
H      -2.2570531514     -1.2088480884      0.1630581870
12
Frame=122  time=61.500fs  energy=-306.19358011Ha  molecule=COOCCCHHHHHH
C      -0.1364774189      0.1810143151     -0.2054553687
O       1.0078047145      0.0654834620      0.1250056403
O       2.1476932131      0.9287572705     -0.0053072552
C      -0.6968792721      1.3995533365     -0.4645620236
C       0.0158456060      2.5031655007      0.3217194252
C      -0.6326088356     -1.6445585517      0.0740692128
H      -1.1919882601      1.3866527191     -1.1575280687
H       1.1930127250      2.2227344290      1.4649673831
H      -1.3009412048      2.8479883034     -0.7248835047
H       0.5616531931     -2.5976489676     -1.8651850945
H      -0.1621185103     -1.6954138409      2.9822982090
H      -2.2657134443     -1.2046620886      0.1735202464
12
Frame=123  time=62.000fs  energy=-306.19358011Ha  molecule=COOCCCHHHHHH
C      -0.1371779298      0.1826214662     -0.2068453882
O       1.0048133408      0.0672469123      0.1257070479
O       2.1492030409      0.9299348975     -0.0054276391
C      -0.6968776950      1.3996956516     -0.4683633443
C       0.0178338862      2.5026869162      0.3242160392
C      -0.6321929045     -1.6484976375      0.0746078536
H      -1.1853164310      1.3893872006     -1.1641495290
H       1.1933471280      2.2158309621      1.4818774234
H      -1.3071069844      2.8418213545     -0.7333123352
H       0.5652311523     -2.6035858089     -1.8818259916
H      -0.1546833051     -1.6982141548      3.0030904473
H      -2.2743712710     -1.2004772822      0.1839793248
12
Frame=124  time=62.500fs  energy=-306.19358011Ha  molecule=COOCCCHHHHHH
C      -0.1378782416      0.1842281600     -0.2082350124
O       1.0018228179      0.0690098611      0.1264082562
O       2.1507124391      0.9311121891     -0.0055479888
C      -0.6968761182      1.3998379265     -0.4721635839
C       0.0198216008      2.5022084679      0.3267119432
C      -0.6317770915     -1.6524356027      0.0751463415
H      -1.1786465006      1.3921209041     -1.1707691069
H       1.1936814364      2.2089294593      1.4987826533
H      -1.3132710097      2.8356561601     -0.7417387680
H       0.5688080940     -2.6095209611     -1.8984621561
H      -0.1472502129     -1.7010136726      3.0238767710
H      -2.2830266360     -1.1962936666      0.1944354280
12
Frame=125  time=63.000fs  energy=-306.19358011Ha  molecule=COOCCCHHHHHH
C      -0.1385783547      0.1858343976     -0.2096242421
O       0.9988331442      0.0707723092      0.1271092654
O       2.1522214086      0.9322891463     -0.0056683044
C      -0.6968745418      1.3999801612     -0.4759627446
C       0.0218087511      2.5017301556      0.3292071387
C      -0.6313613964     -1.6563724497      0.0756846767
H      -1.1719784648      1.3948538314     -1.1773868058
H       1.1940156504      2.2020299165      1.5156830827
H      -1.3194332845      2.8294927165     -0.7501628081
H       0.5723840202     -2.6154544278     -1.9150935973
H      -0.1398192299     -1.7038123957      3.0446571924
H      -2.2916795440     -1.1921112392      0.2048885621
12
Frame=126  time=63.500fs  energy=-306.19358011Ha  molecule=COOCCCHHHHHH
C      -0.1392782694      0.1874401799     -0.2110130781
O       0.9958443179      0.0725342579      0.1278100760
O       2.1537299503      0.9334657697     -0.0057885859
C      -0.6968729658      1.4001223557     -0.4797608284
C       0.0237953381      2.5012519788      0.3317016269
C      -0.6309458191     -1.6603081808      0.0762228593
H      -1.1653123195      1.3975859841     -1.1840026296
H       1.1943497700      2.1951323297      1.5325787218
H      -1.3255938125      2.8233310200     -0.7585844605
H       0.5759589330     -2.6213862124     -1.9317203249
H      -0.1323903522     -1.7066103258      3.0654317237
H      -2.3003300000     -1.1879299975      0.2153387334
12
Frame=127  time=64.000fs  energy=-306.19358011Ha  molecule=COOCCCHHHHHH
C      -0.1399779862      0.1890455080     -0.2124015212
O       0.9928563372      0.0742957081      0.1285106883
O       2.1552380651      0.9346420600     -0.0059088335
C      -0.6968713902      1.4002645101     -0.4835578378
C       0.0257813632      2.5007739374      0.3341954095
C      -0.6305303593     -1.6642427985      0.0767608898
H      -1.1586480605      1.4003173637     -1.1906165820
H       1.1946837953      2.1882366944      1.5494695806
H      -1.3317525974      2.8171710669     -0.7670037302
H       0.5795328345     -2.6273163187     -1.9483423487
H      -0.1249635756     -1.7094074645      3.0862003774
H      -2.3089780091     -1.1837499389      0.2257859482
12
Frame=128  time=64.500fs  energy=-306.19358012Ha  molecule=COOCCCHHHHHH
C      -0.1406775055      0.1906503826     -0.2137895723
O       0.9898692002      0.0760566609      0.1292111029
O       2.1567457539      0.9358180182     -0.0060290470
C      -0.6968698151      1.4004066243     -0.4873537750
C       0.0277668274      2.5002960310      0.3366884879
C      -0.6301150167     -1.6681763050      0.0772987685
H      -1.1519856836      1.4030479721     -1.1972286669
H       1.1950177265      2.1813430066      1.5663556695
H      -1.3379096430      2.8110128534     -0.7754206223
H       0.5831057268     -2.6332447503     -1.9649596789
H      -0.1175388957     -1.7122038135      3.1069631663
H      -2.3176235763     -1.1795710608      0.2362302127
12
Frame=129  time=65.000fs  energy=-306.19358012Ha  molecule=COOCCCHHHHHH
C      -0.1413768276      0.1922548050     -0.2151772321
O       0.9868829053      0.0778171173      0.1299113200
O       2.1582530178      0.9369936448     -0.0061492267
C      -0.6968682403      1.4005486986     -0.4911486423
C       0.0297517320      2.4998182592      0.3391808636
C      -0.6296997912     -1.6721087028      0.0778364956
H      -1.1453251848      1.4057778107     -1.2038388883
H       1.1953515636      2.1744512619      1.5832369989
H      -1.3440649531      2.8048563757     -0.7838351421
H       0.5866776121     -2.6391715108     -1.9815723256
H      -0.1101163081     -1.7149993743      3.1277201030
H      -2.3262667068     -1.1753933607      0.2466715334
12
Frame=130  time=65.500fs  energy=-306.19358012Ha  molecule=COOCCCHHHHHH
C      -0.1420759530      0.1938587759     -0.2165645016
O       0.9838974504      0.0795770786      0.1306113402
O       2.1597598577      0.9381689406     -0.0062693726
C      -0.6968666660      1.4006907330     -0.4949424420
C       0.0317360782      2.4993406220      0.3416725382
C      -0.6292846825     -1.6760399944      0.0783740714
H      -1.1386665599      1.4085068814     -1.2104472503
H       1.1956853069      2.1675614560      1.6001135791
H      -1.3502185316      2.7987016300     -0.7922472947
H       0.5902484926     -2.6450966040     -1.9981802988
H      -0.1026958085     -1.7177941488      3.1484712002
H      -2.3349074060     -1.1712168359      0.2571099168
12
Frame=131  time=66.000fs  energy=-306.19358012Ha  molecule=COOCCCHHHHHH
C      -0.1427748821      0.1954622965     -0.2179513816
O       0.9809128338      0.0813365456      0.1313111638
O       2.1612662744      0.9393439064     -0.0063894848
C      -0.6968650922      1.4008327274     -0.4987351765
C       0.0337198672      2.4988631188      0.3441635131
C      -0.6288696903     -1.6799701821      0.0789114963
H      -1.1320098046      1.4112351858     -1.2170537568
H       1.1960189566      2.1606735848      1.6169854205
H      -1.3563703821      2.7925486125     -0.8006570852
H       0.5938183705     -2.6510200334     -2.0147836087
H      -0.0952773922     -1.7205881385      3.1692164708
H      -2.3435456791     -1.1670414839      0.2675453691
12
Frame=132  time=66.500fs  energy=-306.19358012Ha  molecule=COOCCCHHHHHH
C      -0.1434736154      0.1970653677     -0.2193378729
O       0.9779290536      0.0830955196      0.1320107913
O       2.1627722689      0.9405185429     -0.0065095633
C      -0.6968635187      1.4009746821     -0.5025268482
C       0.0357031003      2.4983857494      0.3466537900
C      -0.6284548144     -1.6838992684      0.0794487706
H      -1.1253549150      1.4139627257     -1.2236584120
H       1.1963525128      2.1537876439      1.6338525337
H      -1.3625205086      2.7863973193     -0.8090645189
H       0.5973872480     -2.6569418028     -2.0313822657
H      -0.0878610548     -1.7233813453      3.1899559276
H      -2.3521815313     -1.1628673020      0.2779778970
12
Frame=133  time=67.000fs  energy=-306.19358012Ha  molecule=COOCCCHHHHHH
C      -0.1441721532      0.1986679905     -0.2207239764
O       0.9749461081      0.0848540015      0.1327102231
O       2.1642778422      0.9416928509     -0.0066296082
C      -0.6968619457      1.4011165971     -0.5063174592
C       0.0376857787      2.4979085136      0.3491433704
C      -0.6280400546     -1.6878272557      0.0799858947
H      -1.1187018868      1.4166895026     -1.2302612198
H       1.1966859757      2.1469036291      1.6507149289
H      -1.3686689148      2.7802477468     -0.8174696010
H       0.6009551272     -2.6628619158     -2.0479762800
H      -0.0804467917     -1.7261737708      3.2106895834
H      -2.3608149682     -1.1586942877      0.2884075068
12
Frame=134  time=67.500fs  energy=-306.19358012Ha  molecule=COOCCCHHHHHH
C      -0.1448704961      0.2002701659     -0.2221096929
O       0.9719639952      0.0866119926      0.1334094596
O       2.1657829952      0.9428668310     -0.0067496197
C      -0.6968603732      1.4012584725     -0.5101070121
C       0.0396679036      2.4974314110      0.3516322557
C      -0.6276254105     -1.6917541464      0.0805228688
H      -1.1120507160      1.4194155182     -1.2368621843
H       1.1970193456      2.1400215361      1.6675726168
H      -1.3748156046      2.7740998910     -0.8258723367
H       0.6045220104     -2.6687803761     -2.0645656618
H      -0.0730345984     -1.7289654168      3.2314174511
H      -2.3694459949     -1.1545224384      0.2988342050
12
Frame=135  time=68.000fs  energy=-306.19358012Ha  molecule=COOCCCHHHHHH
C      -0.1455686443      0.2018718949     -0.2234950234
O       0.9689827133      0.0883694938      0.1341085014
O       2.1672877287      0.9440404839     -0.0068695976
C      -0.6968588011      1.4014003084     -0.5138955090
C       0.0416494762      2.4969544413      0.3541204476
C      -0.6272108819     -1.6956799430      0.0810596933
H      -1.1054013984      1.4221407744     -1.2434613097
H       1.1973526226      2.1331413607      1.6844256076
H      -1.3809605818      2.7679537482     -0.8342727311
H       0.6080878998     -2.6746971874     -2.0811504214
H      -0.0656244703     -1.7317562849      3.2521395434
H      -2.3780746167     -1.1503517514      0.3092579980
12
Frame=136  time=68.500fs  energy=-306.19358012Ha  molecule=COOCCCHHHHHH
C      -0.1462665985      0.2034731785     -0.2248799686
O       0.9660022604      0.0901265063      0.1348073487
O       2.1687920439      0.9452138105     -0.0069895422
C      -0.6968572294      1.4015421048     -0.5176829525
C       0.0436304977      2.4964776043      0.3566079475
C      -0.6267964687     -1.6996046478      0.0815963685
H      -1.0987539299      1.4248652726     -1.2500586000
H       1.1976858069      2.1262630985      1.7012739118
H      -1.3871038501      2.7618093145     -0.8426707895
H       0.6116527975     -2.6806123532     -2.0977305690
H      -0.0582164028     -1.7345463770      3.2728558732
H      -2.3867008391     -1.1461822243      0.3196788924
12
Frame=137  time=69.000fs  energy=-306.19358012Ha  molecule=COOCCCHHHHHH
C      -0.1469643589      0.2050740177     -0.2262645294
O       0.9630226347      0.0918830312      0.1355060021
O       2.1702959415      0.9463868115     -0.0071094536
C      -0.6968556581      1.4016838619     -0.5214693448
C       0.0456109694      2.4960008996      0.3590947571
C      -0.6263821704     -1.7035282634      0.0821328948
H      -1.0921083063      1.4275890147     -1.2566540592
H       1.1980188988      2.1193867454      1.7181175398
H      -1.3932454133      2.7556665862     -0.8510665171
H       0.6152167058     -2.6865258774     -2.1143061148
H      -0.0508103913     -1.7373356947      3.2935664532
H      -2.3953246673     -1.1420138545      0.3300968944
12
Frame=138  time=69.500fs  energy=-306.19358012Ha  molecule=COOCCCHHHHHH
C      -0.1476619260      0.2066744134     -0.2276487067
O       0.9600438345      0.0936390694      0.1362044619
O       2.1717994225      0.9475594875     -0.0072293317
C      -0.6968540873      1.4018255797     -0.5252546882
C       0.0475908925      2.4955243270      0.3615808778
C      -0.6259679869     -1.7074507921      0.0826692724
H      -1.0854645237      1.4303120023     -1.2632476914
H       1.1983518984      2.1125122971      1.7349565020
H      -1.3993852753      2.7495255595     -0.8594599189
H       0.6187796269     -2.6924377634     -2.1308770691
H      -0.0434064314     -1.7401242397      3.3142712963
H      -2.4039461067     -1.1378466393      0.3405120106
12
Frame=139  time=70.000fs  energy=-306.19358012Ha  molecule=COOCCCHHHHHH
C      -0.1483593002      0.2082743666     -0.2290325013
O       0.9570658577      0.0953946222      0.1369027287
O       2.1733024879      0.9487318393     -0.0073491767
C      -0.6968525169      1.4019672584     -0.5290389850
C       0.0495702683      2.4950478862      0.3640663111
C      -0.6255539179     -1.7113722364      0.0832055018
H      -1.0788225779      1.4330342371     -1.2698395007
H       1.1986848059      2.1056397493      1.7517908088
H      -1.4055234399      2.7433862306     -0.8678510003
H       0.6223415630     -2.6983480150     -2.1474434420
H      -0.0360045184     -1.7429120138      3.3349704151
H      -2.4125651625     -1.1336805762      0.3509242473
12
Frame=140  time=70.500fs  energy=-306.19358012Ha  molecule=COOCCCHHHHHH
C      -0.1490564821      0.2098738784     -0.2304159141
O       0.9540887027      0.0971496906      0.1376008027
O       2.1748051385      0.9499038676     -0.0074689886
C      -0.6968509470      1.4021088979     -0.5328222377
C       0.0515490978      2.4945715768      0.3665510587
C      -0.6251399632     -1.7152925986      0.0837415832
H      -1.0721824647      1.4357557207     -1.2764294911
H       1.1990176216      2.0987690980      1.7686204704
H      -1.4116599107      2.7372485958     -0.8762397663
H       0.6259025162     -2.7042566357     -2.1640052438
H      -0.0286046478     -1.7456990187      3.3556638224
H      -2.4211818400     -1.1295156627      0.3613336109
12
Frame=141  time=71.000fs  energy=-306.19358012Ha  molecule=COOCCCHHHHHH
C      -0.1497534719      0.2114729497     -0.2317989459
O       0.9511123675      0.0989042756      0.1382986846
O       2.1763073753      0.9510755731     -0.0075887675
C      -0.6968493774      1.4022504985     -0.5366044485
C       0.0535273824      2.4940953985      0.3690351219
C      -0.6247261224     -1.7192118811      0.0842775169
H      -1.0655441803      1.4384764549     -1.2830176667
H       1.1993503456      2.0919003387      1.7854454973
H      -1.4177946915      2.7311126512     -0.8846262221
H       0.6294624888     -2.7101636293     -2.1805624846
H      -0.0212068151     -1.7484852560      3.3763515309
H      -2.4297961446     -1.1253518961      0.3717401079
12
Frame=142  time=71.500fs  energy=-306.19358012Ha  molecule=COOCCCHHHHHH
C      -0.1504502702      0.2130715814     -0.2331815976
O       0.9481368505      0.1006583784      0.1389963746
O       2.1778091992      0.9522469566     -0.0077085134
C      -0.6968478083      1.4023920601     -0.5403856197
C       0.0555051233      2.4936193512      0.3715185024
C      -0.6243123955     -1.7231300865      0.0848133034
H      -1.0589077204      1.4411964412     -1.2896040315
H       1.1996829782      2.0850334673      1.8022658998
H      -1.4239277862      2.7249783931     -0.8930103728
H       0.6330214829     -2.7160689993     -2.1971151745
H      -0.0138110157     -1.7512707275      3.3970335532
H      -2.4384080815     -1.1211892740      0.3821437447
12
Frame=143  time=72.000fs  energy=-306.19358012Ha  molecule=COOCCCHHHHHH
C      -0.1511468773      0.2146697747     -0.2345638700
O       0.9451621496      0.1024120000      0.1396938732
O       2.1793106111      0.9534180188     -0.0078282266
C      -0.6968462397      1.4025335829     -0.5441657537
C       0.0574823216      2.4931434344      0.3740012017
C      -0.6238987820     -1.7270472169      0.0853489429
H      -1.0522730810      1.4439156814     -1.2961885896
H       1.2000155195      2.0781684797      1.8190816881
H      -1.4300591985      2.7188458177     -0.9013922236
H       0.6365795007     -2.7219727493     -2.2136633237
H      -0.0064172452     -1.7540554349      3.4177099021
H      -2.4470176560     -1.1170277938      0.3925445275
12
Frame=144  time=72.500fs  energy=-306.19358012Ha  molecule=COOCCCHHHHHH
C      -0.1518432937      0.2162675303     -0.2359457639
O       0.9421882632      0.1041651415      0.1403911809
O       2.1808116120      0.9545887603     -0.0079479069
C      -0.6968446715      1.4026750669     -0.5479448528
C       0.0594589787      2.4926676480      0.3764832212
C      -0.6234852817     -1.7309632750      0.0858844357
H      -1.0456402580      1.4466341771     -1.3027713448
H       1.2003479698      2.0713053716      1.8358928725
H      -1.4361889321      2.7127149213     -0.9097717796
H       0.6401365443     -2.7278748830     -2.2302069423
H       0.0009745011     -1.7568393799      3.4383805901
H      -2.4556248733     -1.1128674529      0.4029424627
12
Frame=145  time=73.000fs  energy=-306.19358012Ha  molecule=COOCCCHHHHHH
C      -0.1525395198      0.2178648494     -0.2373272802
O       0.9392151894      0.1059178040      0.1410882980
O       2.1823122027      0.9557591820     -0.0080675546
C      -0.6968431036      1.4028165123     -0.5517229192
C       0.0614350955      2.4921919915      0.3789645626
C      -0.6230718944     -1.7348782630      0.0864197822
H      -1.0390092475      1.4493519300     -1.3093523014
H       1.2006803293      2.0644441388      1.8526994632
H      -1.4423169907      2.7065857002     -0.9181490459
H       0.6436926160     -2.7337754039     -2.2467460404
H       0.0083642276     -1.7596225642      3.4590456299
H      -2.4642297387     -1.1087082488      0.4133375567
12
Frame=146  time=73.500fs  energy=-306.19358012Ha  molecule=COOCCCHHHHHH
C      -0.1532355561      0.2194617329     -0.2387084198
O       0.9362429264      0.1076699884      0.1417852250
O       2.1838123842      0.9569292844     -0.0081871696
C      -0.6968415363      1.4029579191     -0.5554999553
C       0.0634106735      2.4917164648      0.3814452272
C      -0.6226586199     -1.7387921833      0.0869549827
H      -1.0323800453      1.4520689417     -1.3159314632
H       1.2010125981      2.0575847772      1.8695014706
H      -1.4484433781      2.7004581506     -0.9265240276
H       0.6472477179     -2.7396743157     -2.2632806281
H       0.0157519388     -1.7624049895      3.4797050340
H      -2.4728322575     -1.1045501790      0.4237298159
12
Frame=147  time=74.000fs  energy=-306.19358012Ha  molecule=COOCCCHHHHHH
C      -0.1539314029      0.2210581817     -0.2400891835
O       0.9332714724      0.1094216960      0.1424819623
O       2.1853121574      0.9580990684     -0.0083067521
C      -0.6968399693      1.4030992874     -0.5592759633
C       0.0653857138      2.4912410675      0.3839252166
C      -0.6222454579     -1.7427050383      0.0874900376
H      -1.0257526475      1.4547852139     -1.3225088344
H       1.2013447764      2.0507272826      1.8862989047
H      -1.4545680981      2.6943322689     -0.9348967297
H       0.6508018522     -2.7455716219     -2.2798107153
H       0.0231376393     -1.7651866575      3.5003588151
H      -2.4814324347     -1.1003932410      0.4341192464
12
Frame=148  time=74.500fs  energy=-306.19358012Ha  molecule=COOCCCHHHHHH
C      -0.1546270606      0.2226541969     -0.2414695720
O       0.9303008256      0.1111729277      0.1431785103
O       2.1868115231      0.9592685346     -0.0084263021
C      -0.6968384028      1.4032406173     -0.5630509456
C       0.0673602175      2.4907657993      0.3864045324
C      -0.6218324081     -1.7466168304      0.0880249471
H      -1.0191270500      1.4575007483     -1.3290844187
H       1.2016768646      2.0438716508      1.9030917759
H      -1.4606911543      2.6882080512     -0.9432671575
H       0.6543550210     -2.7514673261     -2.2963363121
H       0.0305213334     -1.7679675698      3.5210069855
H      -2.4900302758     -1.0962374322      0.4445058547
12
Frame=149  time=75.000fs  energy=-306.19358012Ha  molecule=COOCCCHHHHHH
C      -0.1553225298      0.2242497793     -0.2428495864
O       0.9273309841      0.1129236846      0.1438748695
O       2.1883104823      0.9604376837     -0.0085458197
C      -0.6968368367      1.4033819089     -0.5668249044
C       0.0693341859      2.4902906600      0.3888831760
C      -0.6214194702     -1.7505275619      0.0885597116
H      -1.0125032488      1.4602155464     -1.3356582204
H       1.2020088627      2.0370178777      1.9198800942
H      -1.4668125504      2.6820854939     -0.9516353158
H       0.6579072265     -2.7573614319     -2.3128574286
H       0.0379030256     -1.7707477282      3.5416495579
H      -2.4986257859     -1.0920827501      0.4548896470
12
Frame=150  time=75.500fs  energy=-306.19358012Ha  molecule=COOCCCHHHHHH
C      -0.1560178108      0.2258449300     -0.2442292273
O       0.9243619463      0.1146739678      0.1445710403
O       2.1898090360      0.9616065165     -0.0086653049
C      -0.6968352710      1.4035231623     -0.5705978421
C       0.0713076202      2.4898156493      0.3913611489
C      -0.6210066441     -1.7544372353      0.0890943313
H      -1.0058812400      1.4629296099     -1.3422302432
H       1.2023407709      2.0301659591      1.9366638699
H      -1.4729322901      2.6759645932     -0.9600012099
H       0.6614584708     -2.7632539428     -2.3293740747
H       0.0452827205     -1.7735271343      3.5622865447
H      -2.5072189701     -1.0879291921      0.4652706295
12
Frame=151  time=76.000fs  energy=-306.19358012Ha  molecule=COOCCCHHHHHH
C      -0.1567129040      0.2274396500     -0.2456084956
O       0.9213937103      0.1164237783      0.1452670231
O       2.1913071850      0.9627750336     -0.0087847579
C      -0.6968337058      1.4036643775     -0.5743697608
C       0.0732805216      2.4893407668      0.3938384526
C      -0.6205939295     -1.7583458528      0.0896288067
H      -0.9992610194      1.4656429404     -1.3488004913
H       1.2026725896      2.0233158909      1.9534431130
H      -1.4790503772      2.6698453456     -0.9683648447
H       0.6650087561     -2.7691448624     -2.3458862604
H       0.0526604224     -1.7763057898      3.5829179584
H      -2.5158098337     -1.0837767559      0.4756488087
12
Frame=152  time=76.500fs  energy=-306.19358012Ha  molecule=COOCCCHHHHHH
C      -0.1574078099      0.2290339401     -0.2469873922
O       0.9184262743      0.1181731172      0.1459628183
O       2.1928049301      0.9639432358     -0.0089041786
C      -0.6968321410      1.4038055547     -0.5781406630
C       0.0752528912      2.4888660123      0.3963150886
C      -0.6201813262     -1.7622534169      0.0901631381
H      -0.9926425832      1.4683555397     -1.3553689685
H       1.2030043188      2.0164676690      1.9702178337
H      -1.4851668153      2.6637277472     -0.9767262253
H       0.6685580844     -2.7750341943     -2.3623939957
H       0.0600361359     -1.7790836964      3.6035438114
H      -2.5243983818     -1.0796254389      0.4860241907
12
Frame=153  time=77.000fs  energy=-306.19358012Ha  molecule=COOCCCHHHHHH
C      -0.1581025288      0.2306278013     -0.2483659179
O       0.9154596365      0.1199219856      0.1466584263
O       2.1943022724      0.9651111238     -0.0090235673
C      -0.6968305765      1.4039466939     -0.5819105507
C       0.0772247302      2.4883913856      0.3987910584
C      -0.6197688338     -1.7661599298      0.0906973257
H      -0.9860259272      1.4710674093     -1.3619356788
H       1.2033359587      2.0096212892      1.9869880421
H      -1.4912816081      2.6576117945     -0.9850853567
H       0.6721064581     -2.7809219420     -2.3788972904
H       0.0674098654     -1.7818608557      3.6241641161
H      -2.5329846197     -1.0754752385      0.4963967817
12
Frame=154  time=77.500fs  energy=-306.19358012Ha  molecule=COOCCCHHHHHH
C      -0.1587970612      0.2322212347     -0.2497440734
O       0.9124937951      0.1216703844      0.1473538476
O       2.1957992127      0.9662786982     -0.0091429239
C      -0.6968290126      1.4040877952     -0.5856794264
C       0.0791960399      2.4879168862      0.4012663635
C      -0.6193564522     -1.7700653940      0.0912313699
H      -0.9794110477      1.4737785508     -1.3685006261
H       1.2036675097      2.0027767475      2.0037537481
H      -1.4973947592      2.6514974836     -0.9934422440
H       0.6756538791     -2.7868081090     -2.3953961545
H       0.0747816152     -1.7846372695      3.6447788849
H      -2.5415685524     -1.0713261524      0.5067665880
12
Frame=155  time=78.000fs  energy=-306.19358012Ha  molecule=COOCCCHHHHHH
C      -0.1594914076      0.2338142411     -0.2511218597
O       0.9095287485      0.1234183148      0.1480490825
O       2.1972957519      0.9674459597     -0.0092622485
C      -0.6968274490      1.4042288587     -0.5894472922
C       0.0811668214      2.4874425140      0.4037410053
C      -0.6189441810     -1.7739698117      0.0917652710
H      -0.9727979406      1.4764889659     -1.3750638144
H       1.2039989718      1.9959340397      2.0205149620
H      -1.5035062725      2.6453848111     -1.0017968921
H       0.6792003496     -2.7926926988     -2.4118905979
H       0.0821513898     -1.7874129393      3.6653881302
H      -2.5501501851     -1.0671781779      0.5171336158
12
Frame=156  time=78.500fs  energy=-306.19358012Ha  molecule=COOCCCHHHHHH
C      -0.1601855682      0.2354068215     -0.2524992776
O       0.9065644947      0.1251657777      0.1487441315
O       2.1987918909      0.9686129091     -0.0093815412
C      -0.6968258858      1.4043698844     -0.5932141505
C       0.0831370759      2.4869682687      0.4062149854
C      -0.6185320201     -1.7778731853      0.0922990293
H      -0.9661866018      1.4791986562     -1.3816252477
H       1.2043303452      1.9890931617      2.0372716936
H      -1.5096161514      2.6392737732     -1.0101493061
H       0.6827458717     -2.7985757150     -2.4283806304
H       0.0895191936     -1.7901878669      3.6859918643
H      -2.5587295230     -1.0630313127      0.5274978713
12
Frame=157  time=79.000fs  energy=-306.19358012Ha  molecule=COOCCCHHHHHH
C      -0.1608795436      0.2369989769     -0.2538763279
O       0.9036010321      0.1269127742      0.1494389951
O       2.2002876306      0.9697795471     -0.0095008021
C      -0.6968243231      1.4045108725     -0.5969800034
C       0.0851068045      2.4864941499      0.4086883052
C      -0.6181199692     -1.7817755172      0.0928326452
H      -0.9595770276      1.4819076233     -1.3881849297
H       1.2046616302      1.9822541095      2.0540239531
H      -1.5157243996      2.6331643662     -1.0184994908
H       0.6862904475     -2.8044571611     -2.4448662620
H       0.0968850311     -1.7929620539      3.7065900994
H      -2.5673065711     -1.0588855543      0.5378593607
12
Frame=158  time=79.500fs  energy=-306.19358012Ha  molecule=COOCCCHHHHHH
C      -0.1615733342      0.2385907082     -0.2552530113
O       0.9006383588      0.1286593054      0.1501336735
O       2.2017829719      0.9709458743     -0.0096200312
C      -0.6968227608      1.4046518231     -0.6007448532
C       0.0870760084      2.4860201574      0.4111609662
C      -0.6177080281     -1.7856768096      0.0933661189
H      -0.9529692139      1.4846158688     -1.3947428645
H       1.2049928270      1.9754168789      2.0707717504
H      -1.5218310208      2.6270565866     -1.0268474515
H       0.6898340792     -2.8103370406     -2.4613475024
H       0.1042489066     -1.7957355020      3.7271828480
H      -2.5758813347     -1.0547409001      0.5482180902
12
Frame=159  time=80.000fs  energy=-306.19358012Ha  molecule=COOCCCHHHHHH
C      -0.1622669403      0.2401820163     -0.2566293288
O       0.8976764731      0.1304053724      0.1508281673
O       2.2032779156      0.9721118915     -0.0097392286
C      -0.6968211989      1.4047927362     -0.6045087022
C       0.0890446889      2.4855462909      0.4136329699
C      -0.6172961964     -1.7895770649      0.0938994509
H      -0.9463631569      1.4873233944     -1.4012990560
H       1.2053239357      1.9685814660      2.0875150955
H      -1.5279360187      2.6209504307     -1.0351931928
H       0.6933767689     -2.8162153570     -2.4778243614
H       0.1116108244     -1.7985082127      3.7477701222
H      -2.5844538187     -1.0505973477      0.5585740660
12
Frame=160  time=80.500fs  energy=-306.19358012Ha  molecule=COOCCCHHHHHH
C      -0.1629603624      0.2417729022     -0.2580052811
O       0.8947153733      0.1321509760      0.1515224768
O       2.2047724628      0.9732775993     -0.0098583943
C      -0.6968196374      1.4049336119     -0.6082715526
C       0.0910128471      2.4850725501      0.4161043177
C      -0.6168844741     -1.7934762854      0.0944326413
H      -0.9397588525      1.4900302017     -1.4078535080
H       1.2056549566      1.9617478666      2.1042539983
H      -1.5340393968      2.6148458948     -1.0435367200
H       0.6969185187     -2.8220921138     -2.4942968488
H       0.1189707891     -1.8012801878      3.7683519342
H      -2.5930240283     -1.0464548947      0.5689272941
12
Frame=161  time=81.000fs  energy=-306.19358012Ha  molecule=COOCCCHHHHHH
C      -0.1636536008      0.2433633669     -0.2593808691
O       0.8917550575      0.1338961175      0.1522166024
O       2.2062666142      0.9744429985     -0.0099775286
C      -0.6968180763      1.4050744503     -0.6120334066
C       0.0929804841      2.4845989348      0.4185750112
C      -0.6164728607     -1.7973744734      0.0949656905
H      -0.9331562969      1.4927362922     -1.4144062244
H       1.2059858898      1.9549160767      2.1209884688
H      -1.5401411587      2.6087429753     -1.0518780378
H       0.7004593306     -2.8279673145     -2.5107649745
H       0.1263288048     -1.8040514290      3.7889282964
H      -2.6015919686     -1.0423135385      0.5792777808
12
Frame=162  time=81.500fs  energy=-306.19358012Ha  molecule=COOCCCHHHHHH
C      -0.1643466561      0.2449534113     -0.2607560936
O       0.8887955240      0.1356407977      0.1529105446
O       2.2077603707      0.9756080896     -0.0100966313
C      -0.6968165157      1.4052152515     -0.6157942665
C       0.0949476011      2.4841254447      0.4210450516
C      -0.6160613562     -1.8012716313      0.0954985989
H      -0.9265554862      1.4954416675     -1.4209572091
H       1.2063167356      1.9480860922      2.1377185168
H      -1.5462413082      2.6026416687     -1.0602171513
H       0.7039992068     -2.8338409625     -2.5272287481
H       0.1336848761     -1.8068219377      3.8094992208
H      -2.6101576446     -1.0381732768      0.5896255322
12
Frame=163  time=82.000fs  energy=-306.19358012Ha  molecule=COOCCCHHHHHH
C      -0.1650395286      0.2465430363     -0.2621309553
O       0.8858367711      0.1373850178      0.1536043038
O       2.2092537333      0.9767728735     -0.0102157026
C      -0.6968149554      1.4053560156     -0.6195541344
C       0.0969141992      2.4836520794      0.4235144407
C      -0.6156499601     -1.8051677613      0.0960313667
H      -0.9199564164      1.4981463293     -1.4275064661
H       1.2066474941      1.9412579091      2.1544441523
H      -1.5523398487      2.5965419713     -1.0685540653
H       0.7075381493     -2.8397130614     -2.5436881794
H       0.1410390072     -1.8095917158      3.8300647197
H      -2.6187210615     -1.0340341071      0.5999705543
12
Frame=164  time=82.500fs  energy=-306.19358012Ha  molecule=COOCCCHHHHHH
C      -0.1657322187      0.2481322429     -0.2635054552
O       0.8828787971      0.1391287788      0.1542978804
O       2.2107467027      0.9779373507     -0.0103347426
C      -0.6968133956      1.4054967426     -0.6233130127
C       0.0988802798      2.4831788387      0.4259831797
C      -0.6152386724     -1.8090628657      0.0965639943
H      -0.9133590837      1.5008502792     -1.4340539990
H       1.2069781656      1.9344315234      2.1711653852
H      -1.5584367840      2.5904438795     -1.0768887848
H       0.7110761603     -2.8455836145     -2.5601432781
H       0.1483912025     -1.8123607647      3.8506248051
H      -2.6272822242     -1.0298960270      0.6103128533
12
Frame=165  time=83.000fs  energy=-306.19358012Ha  molecule=COOCCCHHHHHH
C      -0.1664247268      0.2497210319     -0.2648795939
O       0.8799216001      0.1408720816      0.1549912748
O       2.2122392800      0.9791015221     -0.0104537513
C      -0.6968118361      1.4056374326     -0.6270709034
C       0.1008458438      2.4827057224      0.4284512701
C      -0.6148274927     -1.8129569468      0.0970964819
H      -0.9067634841      1.5035535187     -1.4405998119
H       1.2073087502      1.9276069311      2.1878822252
H      -1.5645321175      2.5843473897     -1.0852213148
H       0.7146132419     -2.8514526254     -2.5765940540
H       0.1557414663     -1.8151290863      3.8711794893
H      -2.6358411378     -1.0257590339      0.6206524354
12
Frame=166  time=83.500fs  energy=-306.19358012Ha  molecule=COOCCCHHHHHH
C      -0.1671170533      0.2513094044     -0.2662533724
O       0.8769651785      0.1426149274      0.1556844874
O       2.2137314659      0.9802653882     -0.0105727288
C      -0.6968102771      1.4057780858     -0.6308278089
C       0.1028108924      2.4822327301      0.4309187135
C      -0.6144164208     -1.8168500069      0.0976288300
H      -0.9001696139      1.5062560495     -1.4471439085
H       1.2076392481      1.9207841281      2.2045946823
H      -1.5706258529      2.5782524984     -1.0935516600
H       0.7181493960     -2.8573200976     -2.5930405166
H       0.1630898030     -1.8178966819      3.8917287842
H      -2.6443978074     -1.0216231256      0.6309893065
12
Frame=167  time=84.000fs  energy=-306.19358012Ha  molecule=COOCCCHHHHHH
C      -0.1678091987      0.2528973613     -0.2676267914
O       0.8740095305      0.1443573171      0.1563775185
O       2.2152232613      0.9814289497     -0.0106916752
C      -0.6968087185      1.4059187021     -0.6345837313
C       0.1047754269      2.4817598615      0.4333855112
C      -0.6140054565     -1.8207420484      0.0981610387
H      -0.8935774691      1.5089578731     -1.4536862927
H       1.2079696595      1.9139631104      2.2213027662
H      -1.5767179937      2.5721592019     -1.1018798254
H       0.7216846248     -2.8631860343     -2.6094826756
H       0.1704362168     -1.8206635534      3.9122727020
H      -2.6529522379     -1.0174882994      0.6413234727
12
Frame=168  time=84.500fs  energy=-306.19358012Ha  molecule=COOCCCHHHHHH
C      -0.1685011633      0.2544849035     -0.2689998517
O       0.8710546544      0.1460992518      0.1570703687
O       2.2167146672      0.9825922074     -0.0108105905
C      -0.6968071603      1.4060592817     -0.6383386728
C       0.1067394483      2.4812871165      0.4358516646
C      -0.6135945995     -1.8246330734      0.0986931085
H      -0.8869870458      1.5116589911     -1.4602269684
H       1.2082999846      1.9071438740      2.2380064867
H      -1.5828085436      2.5660674967     -1.1102058159
H       0.7252189305     -2.8690504392     -2.6259205407
H       0.1777807120     -1.8234297023      3.9328112546
H      -2.6615044344     -1.0133545531      0.6516549402
12
Frame=169  time=85.000fs  energy=-306.19358012Ha  molecule=COOCCCHHHHHH
C      -0.1691929476      0.2560720319     -0.2703725541
O       0.8681005484      0.1478407325      0.1577630383
O       2.2182056843      0.9837551619     -0.0109294749
C      -0.6968056025      1.4061998247     -0.6420926356
C       0.1087029578      2.4808144947      0.4383171753
C      -0.6131838496     -1.8285230843      0.0992250395
H      -0.8803983403      1.5143594050     -1.4667659393
H       1.2086302236      1.9003264150      2.2547058536
H      -1.5888975060      2.5599773792     -1.1185296363
H       0.7287523149     -2.8749133156     -2.6423541215
H       0.1851232930     -1.8261951303      3.9533444541
H      -2.6700544019     -1.0092218842      0.6619837148
12
Frame=170  time=85.500fs  energy=-306.19358012Ha  molecule=COOCCCHHHHHH
C      -0.1698845520      0.2576587474     -0.2717448995
O       0.8651472108      0.1495817602      0.1584555277
O       2.2196963136      0.9849178139     -0.0110483283
C      -0.6968040451      1.4063403311     -0.6458456220
C       0.1106659566      2.4803419958      0.4407820447
C      -0.6127732065     -1.8324120833      0.0997568322
H      -0.8738113486      1.5170591166     -1.4733032093
H       1.2089603768      1.8935107294      2.2714008766
H      -1.5949848846      2.5538888459     -1.1268512915
H       0.7322847802     -2.8807746669     -2.6587834276
H       0.1924639641     -1.8289598389      3.9738723126
H      -2.6786021454     -1.0050902903      0.6723098028
12
Frame=171  time=86.000fs  energy=-306.19358012Ha  molecule=COOCCCHHHHHH
C      -0.1705759767      0.2592450511     -0.2731168886
O       0.8621946400      0.1513223359      0.1591478374
O       2.2211865559      0.9860801641     -0.0111671508
C      -0.6968024881      1.4064808011     -0.6495976341
C       0.1126284458      2.4798696196      0.4432462742
C      -0.6123626701     -1.8363000727      0.1002884869
H      -0.8672260669      1.5197581273     -1.4798387822
H       1.2092904442      1.8866968131      2.2880915656
H      -1.6010706828      2.5478018932     -1.1351707864
H       0.7358163285     -2.8866344966     -2.6752084686
H       0.1998027295     -1.8317238298      3.9943948419
H      -2.6871476698     -1.0009597690      0.6826332100
12
Frame=172  time=86.500fs  energy=-306.19358012Ha  molecule=COOCCCHHHHHH
C      -0.1712672224      0.2608309437     -0.2744885222
O       0.8592428341      0.1530624607      0.1598399677
O       2.2226764121      0.9872422131     -0.0112859426
C      -0.6968009315      1.4066212346     -0.6533486740
C       0.1145904265      2.4793973657      0.4457098652
C      -0.6119522400     -1.8401870547      0.1008200038
H      -0.8606424914      1.5224564387     -1.4863726618
H       1.2096204261      1.8798846623      2.3047779301
H      -1.6071549043      2.5417165176     -1.1434881258
H       0.7393469618     -2.8924928081     -2.6916292540
H       0.2071395934     -1.8344871045      4.0149120540
H      -2.6956909802     -0.9968303179      0.6929539426
12
Frame=173  time=87.000fs  energy=-306.19358012Ha  molecule=COOCCCHHHHHH
C      -0.1719582893      0.2624164263     -0.2758598012
O       0.8562917915      0.1548021355      0.1605319190
O       2.2241658831      0.9884039616     -0.0114047036
C      -0.6967993753      1.4067616319     -0.6570987441
C       0.1165518999      2.4789252340      0.4481728192
C      -0.6115419160     -1.8440730317      0.1013513833
H      -0.8540606183      1.5251540524     -1.4929048519
H       1.2099503227      1.8730742729      2.3214599800
H      -1.6132375525      2.5356327155     -1.1518033145
H       0.7428766821     -2.8983496047     -2.7080457933
H       0.2144745603     -1.8372496647      4.0354239608
H      -2.7042320814     -0.9927019345      0.7032720064
12
Frame=174  time=87.500fs  energy=-306.19358012Ha  molecule=COOCCCHHHHHH
C      -0.1726491779      0.2640014997     -0.2772307263
O       0.8533415104      0.1565413613      0.1612236917
O       2.2256549697      0.9895654103     -0.0115234340
C      -0.6967978196      1.4069019929     -0.6608478463
C       0.1185128671      2.4784532241      0.4506351376
C      -0.6111316979     -1.8479580058      0.1018826256
H      -0.8474804437      1.5278509699     -1.4994353562
H       1.2102801341      1.8662656411      2.3381377248
H      -1.6193186310      2.5295504834     -1.1601163573
H       0.7464054916     -2.9042048899     -2.7244580961
H       0.2218076342     -1.8400115120      4.0559305742
H      -2.7127709785     -0.9885746165      0.7135874076
12
Frame=175  time=88.000fs  energy=-306.19358012Ha  molecule=COOCCCHHHHHH
C      -0.1733398885      0.2655861648     -0.2786012983
O       0.8503919892      0.1582801392      0.1619152863
O       2.2271436728      0.9907265599     -0.0116421338
C      -0.6967962642      1.4070423177     -0.6645959830
C       0.1204733292      2.4779813358      0.4530968218
C      -0.6107215855     -1.8518419794      0.1024137311
H      -0.8409019639      1.5305471928     -1.5059641786
H       1.2106098606      1.8594587628      2.3548111742
H      -1.6253981434      2.5234698178     -1.1684272591
H       0.7499333922     -2.9100586671     -2.7408661720
H       0.2291388195     -1.8427726480      4.0764319062
H      -2.7213076765     -0.9844483616      0.7239001519
12
Frame=176  time=88.500fs  energy=-306.19358012Ha  molecule=COOCCCHHHHHH
C      -0.1740304216      0.2671704227     -0.2799715180
O       0.8474432262      0.1600184702      0.1626067031
O       2.2286319932      0.9918874111     -0.0117608031
C      -0.6967947092      1.4071826065     -0.6683431563
C       0.1224332874      2.4775095688      0.4555578733
C      -0.6103115785     -1.8557249546      0.1029447001
H      -0.8343251749      1.5332427227     -1.5124913229
H       1.2109395024      1.8526536341      2.3714803379
H      -1.6314760930      2.5173907152     -1.1767360247
H       0.7534603860     -2.9159109396     -2.7572700302
H       0.2364681204     -1.8455330743      4.0969279684
H      -2.7298421801     -0.9803231672      0.7342102455
12
Frame=177  time=89.000fs  energy=-306.19358012Ha  molecule=COOCCCHHHHHH
C      -0.1747207775      0.2687542741     -0.2813413862
O       0.8444952196      0.1617563552      0.1632979426
O       2.2301199318      0.9930479644     -0.0118794420
C      -0.6967931546      1.4073228593     -0.6720893683
C       0.1243927429      2.4770379228      0.4580182934
C      -0.6099016767     -1.8596069337      0.1034755329
H      -0.8277500732      1.5359375611     -1.5190167927
H       1.2112690596      1.8458502512      2.3881452254
H      -1.6375524835      2.5113131720     -1.1850426589
H       0.7569864750     -2.9217617109     -2.7736696805
H       0.2437955411     -1.8482927924      4.1174187728
H      -2.7383744944     -0.9761990311      0.7445176943
12
Frame=178  time=89.500fs  energy=-306.19358012Ha  molecule=COOCCCHHHHHH
C      -0.1754109567      0.2703377201     -0.2827109037
O       0.8415479677      0.1634937953      0.1639890050
O       2.2316074895      0.9942082206     -0.0119980504
C      -0.6967916004      1.4074630762     -0.6758346211
C       0.1263516967      2.4765663975      0.4604780836
C      -0.6094918798     -1.8634879190      0.1040062298
H      -0.8211766547      1.5386317096     -1.5255405919
H       1.2115985324      1.8390486101      2.4048058465
H      -1.6436273183      2.5052371849     -1.1933471663
H       0.7605116612     -2.9276109842     -2.7900651321
H       0.2511210858     -1.8510518040      4.1379043312
H      -2.7469046242     -0.9720759508      0.7548225041
12
Frame=179  time=90.000fs  energy=-306.19358012Ha  molecule=COOCCCHHHHHH
C      -0.1761009596      0.2719207614     -0.2840800713
O       0.8386014689      0.1652307915      0.1646798909
O       2.2330946671      0.9953681804     -0.0121166286
C      -0.6967900466      1.4076032573     -0.6795789171
C       0.1283101499      2.4760949928      0.4629372454
C      -0.6090821876     -1.8673679126      0.1045367911
H      -0.8146049159      1.5413251697     -1.5320627242
H       1.2119279210      1.8322487068      2.4214622105
H      -1.6497006010      2.4991627501     -1.2016495519
H       0.7640359468     -2.9334587630     -2.8064563944
H       0.2584447588     -1.8538101107      4.1583846554
H      -2.7554325745     -0.9679539240      0.7651246810
12
Frame=180  time=90.500fs  energy=-306.19358012Ha  molecule=COOCCCHHHHHH
C      -0.1767907865      0.2735033991     -0.2854488897
O       0.8356557214      0.1669673448      0.1653706007
O       2.2345814655      0.9965278443     -0.0122351766
C      -0.6967884933      1.4077434026     -0.6833222582
C       0.1302681038      2.4756237082      0.4653957800
C      -0.6086725999     -1.8712469169      0.1050672171
H      -0.8080348528      1.5440179429     -1.5385831934
H       1.2122572257      1.8254505376      2.4381143272
H      -1.6557723349      2.4930898644     -1.2099498204
H       0.7675593336     -2.9393050506     -2.8228434771
H       0.2657665643     -1.8565677139      4.1788597570
H      -2.7639583502     -0.9638329483      0.7754242308
12
Frame=181  time=91.000fs  energy=-306.19358012Ha  molecule=COOCCCHHHHHH
C      -0.1774804378      0.2750856340     -0.2868173598
O       0.8327107237      0.1687034560      0.1660611346
O       2.2360678855      0.9976872132     -0.0123536943
C      -0.6967869403      1.4078835122     -0.6870646467
C       0.1322255593      2.4751525436      0.4678536889
C      -0.6082631164     -1.8751249339      0.1055975081
H      -0.8014664618      1.5467100309     -1.5451020031
H       1.2125864465      1.8186540984      2.4547622060
H      -1.6618425236      2.4870185242     -1.2182479765
H       0.7710818238     -2.9451498503     -2.8392263892
H       0.2730865064     -1.8593246154      4.1993296478
H      -2.7724819561     -0.9597130214      0.7857211594
12
Frame=182  time=91.500fs  energy=-306.19358012Ha  molecule=COOCCCHHHHHH
C      -0.1781699140      0.2766674670     -0.2881854823
O       0.8297664739      0.1704391264      0.1667514931
O       2.2375539279      0.9988462875     -0.0124721820
C      -0.6967853877      1.4080235863     -0.6908060847
C       0.1341825177      2.4746814986      0.4703109736
C      -0.6078537369     -1.8790019660      0.1061276644
H      -0.7948997391      1.5494014351     -1.5516191571
H       1.2129155837      1.8118593854      2.4714058565
H      -1.6679111706      2.4809487260     -1.2265440250
H       0.7746034193     -2.9509931656     -2.8556051404
H       0.2804045893     -1.8620808167      4.2197943396
H      -2.7810033972     -0.9555941409      0.7960154728
12
Frame=183  time=92.000fs  energy=-306.19358012Ha  molecule=COOCCCHHHHHH
C      -0.1788592154      0.2782488991     -0.2895532580
O       0.8268229704      0.1721743568      0.1674416767
O       2.2390395937      1.0000050681     -0.0125906396
C      -0.6967838354      1.4081636249     -0.6945465743
C       0.1361389801      2.4742105731      0.4727676354
C      -0.6074444612     -1.8828780154      0.1066576863
H      -0.7883346809      1.5520921571     -1.5581346592
H       1.2132446375      1.8050663948      2.4880452882
H      -1.6739782793      2.4748804664     -1.2348379706
H       0.7781241222     -2.9568349997     -2.8719797399
H       0.2877208173     -1.8648363193      4.2402538440
H      -2.7895226782     -0.9514763045      0.8063071767
12
Frame=184  time=92.500fs  energy=-306.19358012Ha  molecule=COOCCCHHHHHH
C      -0.1795483425      0.2798299311     -0.2909206877
O       0.8238802115      0.1739091482      0.1681316857
O       2.2405248836      1.0011635555     -0.0127090673
C      -0.6967822836      1.4083036280     -0.6982861177
C       0.1380949475      2.4737397667      0.4752236758
C      -0.6070352891     -1.8867530842      0.1071875742
H      -0.7817712834      1.5547821984     -1.5646485130
H       1.2135736080      1.7982751226      2.5046805105
H      -1.6800438532      2.4688137420     -1.2431298181
H       0.7816439344     -2.9626753559     -2.8883501970
H       0.2950351944     -1.8675911249      4.2607081726
H      -2.7980398041     -0.9473595098      0.8165962771
12
Frame=185  time=93.000fs  energy=-306.19358012Ha  molecule=COOCCCHHHHHH
C      -0.1802372955      0.2814105640     -0.2922877721
O       0.8209381957      0.1756435016      0.1688215204
O       2.2420097986      1.0023217505     -0.0128274651
C      -0.6967807322      1.4084435958     -0.7020247169
C       0.1400504211      2.4732690791      0.4776790960
C      -0.6066262202     -1.8906271746      0.1077173282
H      -0.7752095431      1.5574715606     -1.5711607223
H       1.2139024955      1.7914855650      2.5213115329
H      -1.6861078956      2.4627485491     -1.2514195721
H       0.7851628579     -2.9685142376     -2.9047165211
H       0.3023477249     -1.8703452349      4.2811573372
H      -2.8065547796     -0.9432437544      0.8268827798
12
Frame=186  time=93.500fs  energy=-306.19358012Ha  molecule=COOCCCHHHHHH
C      -0.1809260750      0.2829907986     -0.2936545121
O       0.8179969211      0.1773774181      0.1695111814
O       2.2434943394      1.0034796536     -0.0129458330
C      -0.6967791812      1.4085835283     -0.7057623741
C       0.1420054019      2.4727985101      0.4801338976
C      -0.6062172544     -1.8945002889      0.1082469488
H      -0.7686494561      1.5601602451     -1.5776712907
H       1.2142313001      1.7846977181      2.5379383648
H      -1.6921704102      2.4566848845     -1.2597072374
H       0.7886808949     -2.9743516482     -2.9210787214
H       0.3096584128     -1.8730986510      4.3016013492
H      -2.8150676097     -0.9391290361      0.8371666907
12
Frame=187  time=94.000fs  energy=-306.19358012Ha  molecule=COOCCCHHHHHH
C      -0.1816146812      0.2845706358     -0.2950209085
O       0.8150563861      0.1791108985      0.1702006689
O       2.2449785068      1.0046372656     -0.0130641712
C      -0.6967776305      1.4087234256     -0.7094990914
C       0.1439598912      2.4723280595      0.4825880819
C      -0.6058083915     -1.8983724293      0.1087764362
H      -0.7620910187      1.5628482536     -1.5841802219
H       1.2145600221      1.7779115782      2.5545610158
H      -1.6982314003      2.4506227447     -1.2679928186
H       0.7921980471     -2.9801875908     -2.9374368072
H       0.3169672624     -1.8758513747      4.3220402203
H      -2.8235782991     -0.9350153524      0.8474480156
12
Frame=188  time=94.500fs  energy=-306.19358012Ha  molecule=COOCCCHHHHHH
C      -0.1823031147      0.2861500765     -0.2963869619
O       0.8121165890      0.1808439439      0.1708899834
O       2.2464623019      1.0057945870     -0.0131824797
C      -0.6967760803      1.4088632878     -0.7132348710
C       0.1459138900      2.4718577270      0.4850416502
C      -0.6053996312     -1.9022435979      0.1093057908
H      -0.7555342272      1.5655355874     -1.5906875197
H       1.2148886615      1.7711271413      2.5711794951
H      -1.7042908693      2.4445621263     -1.2762763205
H       0.7957143167     -2.9860220689     -2.9537907878
H       0.3242742778     -1.8786034076      4.3424739622
H      -2.8320868527     -0.9309027012      0.8577267602
12
Frame=189  time=95.000fs  energy=-306.19358012Ha  molecule=COOCCCHHHHHH
C      -0.1829913757      0.2877291217     -0.2977526731
O       0.8091775283      0.1825765552      0.1715791252
O       2.2479457253      1.0069516186     -0.0133007585
C      -0.6967745304      1.4090031150     -0.7169697149
C       0.1478673993      2.4713875122      0.4874946041
C      -0.6049909732     -1.9061137970      0.1098350127
H      -0.7489790779      1.5682222482     -1.5971931877
H       1.2152172187      1.7643444035      2.5877938122
H      -1.7103488206      2.4385030257     -1.2845577478
H       0.7992297056     -2.9918550857     -2.9701406724
H       0.3315794631     -1.8813547513      4.3629025862
H      -2.8405932752     -0.9267910799      0.8680029305
12
Frame=190  time=95.500fs  energy=-306.19358012Ha  molecule=COOCCCHHHHHH
C      -0.1836794647      0.2893077721     -0.2991180430
O       0.8062392022      0.1843087335      0.1722680948
O       2.2494287779      1.0081083609     -0.0134190078
C      -0.6967729809      1.4091429073     -0.7207036253
C       0.1498204204      2.4709174150      0.4899469448
C      -0.6045824174     -1.9099830287      0.1103641024
H      -0.7424255671      1.5709082374     -1.6036972295
H       1.2155456937      1.7575633612      2.6044039764
H      -1.7164052578      2.4324454397     -1.2928371050
H       0.8027442158     -2.9976866444     -2.9864864703
H       0.3388828223     -1.8841054072      4.3833261039
H      -2.8490975715     -0.9226804864      0.8782765321
12
Frame=191  time=96.000fs  energy=-306.19358012Ha  molecule=COOCCCHHHHHH
C      -0.1843673820      0.2908860288     -0.3004830723
O       0.8033016091      0.1860404796      0.1729568925
O       2.2509114605      1.0092648148     -0.0135372276
C      -0.6967714318      1.4092826646     -0.7244366042
C       0.1517729543      2.4704474350      0.4923986738
C      -0.6041739635     -1.9138512951      0.1108930601
H      -0.7358736912      1.5735935566     -1.6101996488
H       1.2158740867      1.7507840105      2.6210099971
H      -1.7224601841      2.4263893648     -1.3011143969
H       0.8062578493     -3.0035167485     -3.0028281905
H       0.3461843598     -1.8868553769      4.4037445268
H      -2.8575997463     -0.9185709184      0.8885475709
12
Frame=192  time=96.500fs  energy=-306.19358012Ha  molecule=COOCCCHHHHHH
C      -0.1850551281      0.2924638925     -0.3018477618
O       0.8003647474      0.1877717946      0.1736455187
O       2.2523937740      1.0104209807     -0.0136554179
C      -0.6967698831      1.4094223872     -0.7281686538
C       0.1537250021      2.4699775720      0.4948497924
C      -0.6037656113     -1.9177185986      0.1114218861
H      -0.7293234463      1.5762782073     -1.6167004493
H       1.2162023980      1.7440063475      2.6376118835
H      -1.7285136030      2.4203347976     -1.3093896280
H       0.8097706081     -3.0093454011     -3.0191658424
H       0.3534840794     -1.8896046620      4.4241578664
H      -2.8660998045     -0.9144623734      0.8988160527
12
Frame=193  time=97.000fs  energy=-306.19358012Ha  molecule=COOCCCHHHHHH
C      -0.1857427033      0.2940413642     -0.3032121122
O       0.7974286153      0.1895026795      0.1743339739
O       2.2538757193      1.0115768593     -0.0137735789
C      -0.6967683348      1.4095620751     -0.7318997761
C       0.1556765649      2.4695078258      0.4973003020
C      -0.6033573605     -1.9215849411      0.1119505807
H      -0.7227748290      1.5789621909     -1.6231996347
H       1.2165306278      1.7372303686      2.6542096452
H      -1.7345655178      2.4142817347     -1.3176628032
H       0.8132824941     -3.0151726055     -3.0354994351
H       0.3607819853     -1.8923532641      4.4445661342
H      -2.8745977507     -0.9103548492      0.9090819832
12
Frame=194  time=97.500fs  energy=-306.19358012Ha  molecule=COOCCCHHHHHH
C      -0.1864301080      0.2956184448     -0.3045761243
O       0.7944932112      0.1912331352      0.1750222583
O       2.2553572970      1.0127324513     -0.0138917106
C      -0.6967667869      1.4097017283     -0.7356299732
C       0.1576276437      2.4690381961      0.4997502040
C      -0.6029492110     -1.9254503250      0.1124791442
H      -0.7162278354      1.5816455090     -1.6296972085
H       1.2168587761      1.7304560697      2.6708032912
H      -1.7406159321      2.4082301728     -1.3259339269
H       0.8167935092     -3.0209983650     -3.0518289776
H       0.3680780817     -1.8951011845      4.4649693415
H      -2.8830935898     -0.9062483436      0.9193453681
12
Frame=195  time=98.000fs  energy=-306.19358012Ha  molecule=COOCCCHHHHHH
C      -0.1871173426      0.2971951351     -0.3059397988
O       0.7915585336      0.1929631626      0.1757103724
O       2.2568385081      1.0138877574     -0.0140098130
C      -0.6967652393      1.4098413470     -0.7393592473
C       0.1595782398      2.4685686826      0.5021994997
C      -0.6025411625     -1.9293147523      0.1130075769
H      -0.7096824620      1.5843281631     -1.6361931744
H       1.2171868433      1.7236834473      2.6873928309
H      -1.7466648490      2.4021801084     -1.3342030038
H       0.8203036555     -3.0268226828     -3.0681544792
H       0.3753723726     -1.8978484250      4.4853674997
H      -2.8915873265     -0.9021428541      0.9296062133
12
Frame=196  time=98.500fs  energy=-306.19358012Ha  molecule=COOCCCHHHHHH
C      -0.1878044075      0.2987714360     -0.3073031366
O       0.7886245807      0.1946927628      0.1763983166
O       2.2583193535      1.0150427781     -0.0141278863
C      -0.6967636922      1.4099809312     -0.7430876003
C       0.1615283541      2.4680992850      0.5046481905
C      -0.6021332147     -1.9331782253      0.1135358791
H      -0.7031387051      1.5870101547     -1.6426875359
H       1.2175148294      1.7169124975      2.7039782735
H      -1.7527122721      2.3961315381     -1.3424700385
H       0.8238129350     -3.0326455622     -3.0844759490
H       0.3826648619     -1.9005949870      4.5057606203
H      -2.9000789655     -0.8980383786      0.9398645243
12
Frame=197  time=99.000fs  energy=-306.19358012Ha  molecule=COOCCCHHHHHH
C      -0.1884913030      0.3003473484     -0.3086661384
O       0.7856913510      0.1964219367      0.1770860912
O       2.2597998338      1.0161975142     -0.0142459305
C      -0.6967621454      1.4101204809     -0.7468150344
C       0.1634779878      2.4676300031      0.5070962778
C      -0.6017253675     -1.9370407460      0.1140640511
H      -0.6965965610      1.5896914852     -1.6491802969
H       1.2178427347      1.7101432165      2.7205596283
H      -1.7587582047      2.3900844586     -1.3507350356
H       0.8273213495     -3.0384670065     -3.1007933959
H       0.3899555540     -1.9033408721      4.5261487146
H      -2.9085685116     -0.8939349147      0.9501203070
12
Frame=198  time=99.500fs  energy=-306.19358012Ha  molecule=COOCCCHHHHHH
C      -0.1891780296      0.3019228731     -0.3100288048
O       0.7827588428      0.1981506852      0.1777736966
O       2.2612799500      1.0173519662     -0.0143639456
C      -0.6967605989      1.4102599964     -0.7505415517
C       0.1654271419      2.4671608367      0.5095437629
C      -0.6013176207     -1.9409023166      0.1145920931
H      -0.6900560261      1.5923721562     -1.6556714607
H       1.2181705593      1.7033756006      2.7371369045
H      -1.7648026501      2.3840388666     -1.3589979998
H       0.8308289010     -3.0442870188     -3.1171068292
H       0.3972444526     -1.9060860817      4.5465317939
H      -2.9170559694     -0.8898324601      0.9603735669
12
Frame=199  time=100.000fs  energy=-306.19358012Ha  molecule=COOCCCHHHHHH
C      -0.1898645876      0.3034980111     -0.3113911368
O       0.7798270545      0.1998790094      0.1784611332
O       2.2627597028      1.0185061349     -0.0144819318
C      -0.6967590529      1.4103994776     -0.7542671541
C       0.1673758175      2.4666917854      0.5119906472
C      -0.6009099739     -1.9447629393      0.1151200056
H      -0.6835170968      1.5950521691     -1.6621610311
H       1.2184983034      1.6966096461      2.7537101113
H      -1.7708456117      2.3779947587     -1.3672589355
H       0.8343355914     -3.0501056024     -3.1334162578
H       0.4045315620     -1.9088306174      4.5669098695
H      -2.9255413437     -0.8857310127      0.9706243099
12
Frame=200  time=100.500fs  energy=-306.19358012Ha  molecule=COOCCCHHHHHH
C      -0.1905509774      0.3050727632     -0.3127531350
O       0.7768959844      0.2016069102      0.1791484015
O       2.2642390931      1.0196600207     -0.0145998891
C      -0.6967575073      1.4105389246     -0.7579918439
C       0.1693240157      2.4662228491      0.5144369320
C      -0.6005024270     -1.9486226161      0.1156477887
H      -0.6769797695      1.5977315255     -1.6686490116
H       1.2188259673      1.6898453491      2.7702792578
H      -1.7768870929      2.3719521315     -1.3755178474
H       0.8378414228     -3.0559227605     -3.1497216908
H       0.4118168861     -1.9115744808      4.5872829527
H      -2.9340246392     -0.8816305700      0.9808725416
12
Frame=201  time=101.000fs  energy=-306.19358012Ha  molecule=COOCCCHHHHHH
C      -0.1912371994      0.3066471302     -0.3141148002
O       0.7739656309      0.2033343884      0.1798355016
O       2.2657181217      1.0208136245     -0.0147178175
C      -0.6967559620      1.4106783376     -0.7617156229
C       0.1712717376      2.4657540274      0.5168826187
C      -0.6000949797     -1.9524813493      0.1161754428
H      -0.6704440405      1.6004102267     -1.6751354059
H       1.2191535510      1.6830827060      2.7868443532
H      -1.7829270969      2.3659109816     -1.3837747400
H       0.8413463970     -3.0617384964     -3.1660231372
H       0.4191004290     -1.9143176733      4.6076510547
H      -2.9425058606     -0.8775311299      0.9911182676
12
Frame=202  time=101.500fs  energy=-306.19358012Ha  molecule=COOCCCHHHHHH
C      -0.1919232539      0.3082211132     -0.3154761332
O       0.7710359925      0.2050614452      0.1805224342
O       2.2671967894      1.0219669467     -0.0148357172
C      -0.6967544171      1.4108177165     -0.7654384934
C       0.1732189843      2.4652853200      0.5193277087
C      -0.5996876318     -1.9563391410      0.1167029681
H      -0.6639099063      1.6030882744     -1.6816202174
H       1.2194810549      1.6763217129      2.8034054067
H      -1.7889656272      2.3598713059     -1.3920296180
H       0.8448505160     -3.0675528131     -3.1823206059
H       0.4263821947     -1.9170601964      4.6280141869
H      -2.9509850125     -0.8734326901      1.0013614937
12
Frame=203  time=102.000fs  energy=-306.19358012Ha  molecule=COOCCCHHHHHH
C      -0.1926091414      0.3097947128     -0.3168371346
O       0.7681070674      0.2067880815      0.1812091994
O       2.2686750970      1.0231199882     -0.0149535881
C      -0.6967528726      1.4109570615     -0.7691604573
C       0.1751657568      2.4648167269      0.5217722033
C      -0.5992803832     -1.9601959932      0.1172303650
H      -0.6573773632      1.6057656699     -1.6881034498
H       1.2198084789      1.6695623663      2.8199624273
H      -1.7950026870      2.3538331009     -1.4002824857
H       0.8483537817     -3.0733657141     -3.1986141061
H       0.4336621872     -1.9198020517      4.6483723604
H      -2.9594620996     -0.8693352483      1.0116022254
12
Frame=204  time=102.500fs  energy=-306.19358012Ha  molecule=COOCCCHHHHHH
C      -0.1932948622      0.3113679300     -0.3181978053
O       0.7651788542      0.2085142981      0.1818957978
O       2.2701530454      1.0242727494     -0.0150714304
C      -0.6967513284      1.4110963726     -0.7728815166
C       0.1771120561      2.4643482476      0.5242161038
C      -0.5988732335     -1.9640519081      0.1177576337
H      -0.6508464077      1.6084424148     -1.6945851066
H       1.2201358234      1.6628046623      2.8365154243
H      -1.8010382797      2.3477963633     -1.4085333478
H       0.8518561960     -3.0791772023     -3.2149036465
H       0.4409404105     -1.9225432407      4.6687255865
H      -2.9679371266     -0.8652388022      1.0218404683
12
Frame=205  time=103.000fs  energy=-306.19358012Ha  molecule=COOCCCHHHHHH
C      -0.1939804167      0.3129407657     -0.3195581460
O       0.7622513511      0.2102400960      0.1825822296
O       2.2716306353      1.0254252310     -0.0151892441
C      -0.6967497847      1.4112356499     -0.7766016735
C       0.1790578834      2.4638798819      0.5266594115
C      -0.5984661825     -1.9679068879      0.1182847745
H      -0.6443170361      1.6111185104     -1.7010651915
H       1.2204630885      1.6560485973      2.8530644066
H      -1.8070724085      2.3417610898     -1.4167822089
H       0.8553577608     -3.0849872811     -3.2311892362
H       0.4482168685     -1.9252837648      4.6890738762
H      -2.9764100982     -0.8611433497      1.0320762282
12
Frame=206  time=103.500fs  energy=-306.19358012Ha  molecule=COOCCCHHHHHH
C      -0.1946658052      0.3145132206     -0.3209181575
O       0.7593245567      0.2119654762      0.1832684953
O       2.2731078676      1.0265774337     -0.0153070293
C      -0.6967482413      1.4113748936     -0.7803209299
C       0.1810032398      2.4634116296      0.5291021279
C      -0.5980592301     -1.9717609345      0.1188117877
H      -0.6377892449      1.6137939583     -1.7075437078
H       1.2207902744      1.6492941676      2.8696093833
H      -1.8131050768      2.3357272771     -1.4250290733
H       0.8588584782     -3.0907959536     -3.2474708841
H       0.4554915654     -1.9280236256      4.7094172407
H      -2.9848810189     -0.8570488884      1.0423095105
12
Frame=207  time=104.000fs  energy=-306.19358012Ha  molecule=COOCCCHHHHHH
C      -0.1953510282      0.3160852958     -0.3222778404
O       0.7563984692      0.2136904397      0.1839545952
O       2.2745847431      1.0277293580     -0.0154247861
C      -0.6967466982      1.4115141035     -0.7840392880
C       0.1829481262      2.4629434904      0.5315442543
C      -0.5976523760     -1.9756140502      0.1193386736
H      -0.6312630305      1.6164687600     -1.7140206593
H       1.2211173813      1.6425413694      2.8861503636
H      -1.8191362879      2.3296949219     -1.4332739457
H       0.8623583499     -3.0966032230     -3.2637485991
H       0.4627645050     -1.9307628246      4.7297556913
H      -2.9933498935     -0.8529554162      1.0525403210
12
Frame=208  time=104.500fs  energy=-306.19358012Ha  molecule=COOCCCHHHHHH
C      -0.1960360860      0.3176569919     -0.3236371955
O       0.7534730871      0.2154149873      0.1846405297
O       2.2760612625      1.0288810047     -0.0155425144
C      -0.6967451556      1.4116532800     -0.7877567496
C       0.1848925438      2.4624754640      0.5339857919
C      -0.5972456200     -1.9794662371      0.1198654325
H      -0.6247383894      1.6191429168     -1.7204960493
H       1.2214444093      1.6357901991      2.9026873563
H      -1.8251660451      2.3236640209     -1.4415168305
H       0.8658573779     -3.1024090925     -3.2800223901
H       0.4700356914     -1.9335013633      4.7500892388
H      -3.0018167264     -0.8488629308      1.0627686651
12
Frame=209  time=105.000fs  energy=-306.19358012Ha  molecule=COOCCCHHHHHH
C      -0.1967209790      0.3192283100     -0.3249962236
O       0.7505484088      0.2171391200      0.1853262992
O       2.2775374267      1.0300323743     -0.0156602145
C      -0.6967436133      1.4117924229     -0.7914733169
C       0.1868364936      2.4620075503      0.5364267421
C      -0.5968389618     -1.9833174972      0.1203920647
H      -0.6182153180      1.6218164303     -1.7269698816
H       1.2217713586      1.6290406530      2.9192203706
H      -1.8311943516      2.3176345708     -1.4497577322
H       0.8693555641     -3.1082135651     -3.2962922659
H       0.4773051284     -1.9362392431      4.7704178945
H      -3.0102815224     -0.8447714300      1.0729945485
12
Frame=210  time=105.500fs  energy=-306.19358012Ha  molecule=COOCCCHHHHHH
C      -0.1974057076      0.3207992507     -0.3263549254
O       0.7476244326      0.2188628388      0.1860119041
O       2.2790132365      1.0311834674     -0.0157778863
C      -0.6967420714      1.4119315324     -0.7951889919
C       0.1887799767      2.4615397489      0.5388671063
C      -0.5964324013     -1.9871678326      0.1209185704
H      -0.6116938128      1.6244893019     -1.7334421594
H       1.2220982294      1.6222927274      2.9357494153
H      -1.8372212108      2.3116065684     -1.4579966554
H       0.8728529104     -3.1140166442     -3.3125582354
H       0.4845728201     -1.9389764656      4.7907416694
H      -3.0187442861     -0.8406809115      1.0832179768
12
Frame=211  time=106.000fs  energy=-306.19358012Ha  molecule=COOCCCHHHHHH
C      -0.1980902720      0.3223698151     -0.3277133017
O       0.7447011571      0.2205861446      0.1866973446
O       2.2804886926      1.0323342848     -0.0158955299
C      -0.6967405298      1.4120706086     -0.7989037766
C       0.1907229941      2.4610720596      0.5413068857
C      -0.5960259381     -1.9910172454      0.1214449500
H      -0.6051738701      1.6271615331     -1.7399128865
H       1.2224250219      1.6155464187      2.9522744996
H      -1.8432466259      2.3055800103     -1.4662336044
H       0.8763494188     -3.1198183328     -3.3288203074
H       0.4918387704     -1.9417130322      4.8110605746
H      -3.0272050220     -0.8365913731      1.0934389554
12
Frame=212  time=106.500fs  energy=-306.19358012Ha  molecule=COOCCCHHHHHH
C      -0.1987746728      0.3239400039     -0.3290713531
O       0.7417785807      0.2223090382      0.1873826213
O       2.2819637960      1.0334848269     -0.0160131453
C      -0.6967389887      1.4122096516     -0.8026176730
C       0.1926655468      2.4606044821      0.5437460818
C      -0.5956195722     -1.9948657378      0.1219712037
H      -0.5986554866      1.6298331253     -1.7463820662
H       1.2227517363      1.6088017232      2.9687956322
H      -1.8492706001      2.2995548934     -1.4744685837
H       0.8798450910     -3.1256186340     -3.3450784907
H       0.4991029832     -1.9444489444      4.8313746210
H      -3.0356637347     -0.8325028126      1.1036574899
12
Frame=213  time=107.000fs  energy=-306.19358012Ha  molecule=COOCCCHHHHHH
C      -0.1994589103      0.3255098180     -0.3304290805
O       0.7388567016      0.2240315208      0.1880677344
O       2.2834385473      1.0346350945     -0.0161307327
C      -0.6967374479      1.4123486614     -0.8063306831
C       0.1946076360      2.4601370162      0.5461846957
C      -0.5952133032     -1.9987133117      0.1224973319
H      -0.5921386586      1.6325040799     -1.7528497022
H       1.2230783727      1.6020586373      2.9853128223
H      -1.8552931368      2.2935312142     -1.4827015978
H       0.8833399290     -3.1314175511     -3.3613327942
H       0.5063654625     -1.9471842037      4.8516838196
H      -3.0441204288     -0.8284152279      1.1138735858
12
Frame=214  time=107.500fs  energy=-306.19358012Ha  molecule=COOCCCHHHHHH
C      -0.2001429848      0.3270792582     -0.3317864845
O       0.7359355185      0.2257535931      0.1887526844
O       2.2849129474      1.0357850882     -0.0162482921
C      -0.6967359074      1.4124876380     -0.8100428089
C       0.1965492627      2.4596696616      0.5486227289
C      -0.5948071310     -2.0025599693      0.1230233347
H      -0.5856233826      1.6351743984     -1.7593157978
H       1.2234049313      1.5953171572      3.0018260787
H      -1.8613142392      2.2875089697     -1.4909326512
H       0.8868339347     -3.1372150870     -3.3775832266
H       0.5136262122     -1.9499188116      4.8719881814
H      -3.0525751089     -0.8243286166      1.1240872487
12
Frame=215  time=108.000fs  energy=-306.19358012Ha  molecule=COOCCCHHHHHH
C      -0.2008268967      0.3286483254     -0.3331435658
O       0.7330150296      0.2274752561      0.1894374716
O       2.2863869971      1.0369348085     -0.0163658235
C      -0.6967343674      1.4126265816     -0.8137540524
C       0.1984904279      2.4592024181      0.5510601826
C      -0.5944010554     -2.0064057127      0.1235492125
H      -0.5791096552      1.6378440822     -1.7657803566
H       1.2237314122      1.5885772795      3.0183354102
H      -1.8673339105      2.2814881565     -1.4991617483
H       0.8903271099     -3.1430112451     -3.3938297966
H       0.5208852361     -1.9526527696      4.8922877174
H      -3.0610277796     -0.8202429767      1.1342984840
12
Frame=216  time=108.500fs  energy=-306.19358012Ha  molecule=COOCCCHHHHHH
C      -0.2015106464      0.3302170204     -0.3345003253
O       0.7300952335      0.2291965107      0.1901220963
O       2.2878606971      1.0380842561     -0.0164833271
C      -0.6967328277      1.4127654923     -0.8174644156
C       0.2004311326      2.4587352855      0.5534970581
C      -0.5939950760     -2.0102505438      0.1240749656
H      -0.5725974728      1.6405131328     -1.7722433820
H       1.2240578158      1.5818390005      3.0348408259
H      -1.8733521539      2.2754687714     -1.5073888934
H       0.8938194566     -3.1488060283     -3.4100725131
H       0.5281425383     -1.9553860790      4.9125824384
H      -3.0694784453     -0.8161583058      1.1445072973
12
Frame=217  time=109.000fs  energy=-306.19358012Ha  molecule=COOCCCHHHHHH
C      -0.2021942343      0.3317853441     -0.3358567636
O       0.7271761285      0.2309173579      0.1908065590
O       2.2893340483      1.0392334316     -0.0166008028
C      -0.6967312883      1.4129043701     -0.8211739006
C       0.2023713780      2.4582682634      0.5559333568
C      -0.5935891928     -2.0140944649      0.1246005942
H      -0.5660868319      1.6431815516     -1.7787048775
H       1.2243841421      1.5751023164      3.0513423344
H      -1.8793689728      2.2694508112     -1.5156140911
H       0.8973109766     -3.1545994399     -3.4263113846
H       0.5353981225     -1.9581187415      4.9328723554
H      -3.0779271106     -0.8120746018      1.1547136941
12
Frame=218  time=109.500fs  energy=-306.19358012Ha  molecule=COOCCCHHHHHH
C      -0.2028776606      0.3333532973     -0.3372128815
O       0.7242577131      0.2326377985      0.1914908600
O       2.2908070515      1.0403823357     -0.0167182508
C      -0.6967297493      1.4130432151     -0.8248825092
C       0.2043111650      2.4578013516      0.5583690800
C      -0.5931834054     -2.0179374779      0.1251260986
H      -0.5595777290      1.6458493400     -1.7851648466
H       1.2247103913      1.5683672238      3.0678399448
H      -1.8853843702      2.2634342726     -1.5238373457
H       0.9008016718     -3.1603914828     -3.4425464200
H       0.5426519927     -1.9608507584      4.9531574792
H      -3.0863737800     -0.8079918625      1.1649176797
12
Frame=219  time=110.000fs  energy=-306.19358012Ha  molecule=COOCCCHHHHHH
C      -0.2035609258      0.3349208809     -0.3385686797
O       0.7213399857      0.2343578336      0.1921749996
O       2.2922797073      1.0415309688     -0.0168356711
C      -0.6967282107      1.4131820273     -0.8285902435
C       0.2062504947      2.4573345500      0.5608042289
C      -0.5927777138     -2.0217795848      0.1256514792
H      -0.5530701607      1.6485164995     -1.7916232928
H       1.2250365635      1.5616337191      3.0843336658
H      -1.8913983496      2.2574191525     -1.5320586617
H       0.9042915440     -3.1661821603     -3.4587776279
H       0.5499041529     -1.9635821312      4.9734378207
H      -3.0948184581     -0.8039100858      1.1751192597
12
Frame=220  time=110.500fs  energy=-306.19358012Ha  molecule=COOCCCHHHHHH
C      -0.2042440303      0.3364880956     -0.3399241589
O       0.7184229448      0.2360774640      0.1928589783
O       2.2937520167      1.0426793318     -0.0169530638
C      -0.6967266725      1.4133208069     -0.8322971055
C       0.2081893681      2.4568678581      0.5632388049
C      -0.5923721175     -2.0256207878      0.1261767361
H      -0.5465641235      1.6511830314     -1.7980802194
H       1.2253626591      1.5549017985      3.1008235062
H      -1.8974109140      2.2514054475     -1.5402780434
H       0.9077805952     -3.1719714753     -3.4750050171
H       0.5571546067     -1.9663128614      4.9937133908
H      -3.1032611494     -0.7998292693      1.1853184396
12
Frame=221  time=111.000fs  energy=-306.19358012Ha  molecule=COOCCCHHHHHH
C      -0.2049269744      0.3380549424     -0.3412793198
O       0.7155065888      0.2377966906      0.1935427964
O       2.2952239804      1.0438274251     -0.0170704289
C      -0.6967251346      1.4134595539     -0.8360030971
C       0.2101277863      2.4564012758      0.5656728093
C      -0.5919666165     -2.0294610889      0.1267018698
H      -0.5400596138      1.6538489373     -1.8045356300
H       1.2256886780      1.5481714586      3.1173094748
H      -1.9034220666      2.2453931546     -1.5484954951
H       0.9112688271     -3.1777594310     -3.4912285960
H       0.5644033582     -1.9690429504      5.0139842002
H      -3.1117018584     -0.7957494111      1.1955152246
12
Frame=222  time=111.500fs  energy=-306.19358012Ha  molecule=COOCCCHHHHHH
C      -0.2056097585      0.3396214220     -0.3426341631
O       0.7125909162      0.2395155143      0.1942264543
O       2.2966955992      1.0449752494     -0.0171877666
C      -0.6967235970      1.4135982684     -0.8397082203
C       0.2120657503      2.4559348029      0.5681062433
C      -0.5915612105     -2.0333004902      0.1272268803
H      -0.5335566283      1.6565142185     -1.8109895279
H       1.2260146206      1.5414426958      3.1337915804
H      -1.9094318107      2.2393822705     -1.5567110214
H       0.9147562417     -3.1835460305     -3.5074483734
H       0.5716504111     -1.9717723997      5.0342502597
H      -3.1201405895     -0.7916705089      1.2057096204
12
Frame=223  time=112.000fs  energy=-306.19358012Ha  molecule=COOCCCHHHHHH
C      -0.2062923829      0.3411875353     -0.3439886897
O       0.7096759254      0.2412339362      0.1949099523
O       2.2981668738      1.0461228053     -0.0173050767
C      -0.6967220599      1.4137369505     -0.8434124771
C       0.2140032610      2.4554684390      0.5705391083
C      -0.5911558993     -2.0371389936      0.1277517681
H      -0.5270551635      1.6591788764     -1.8174419166
H       1.2263404870      1.5347155065      3.1502698318
H      -1.9154401495      2.2333727919     -1.5649246265
H       0.9182428407     -3.1893312768     -3.5236643580
H       0.5788957693     -1.9745012108      5.0545115800
H      -3.1285773473     -0.7875925604      1.2159016322
12
Frame=224  time=112.500fs  energy=-306.19358012Ha  molecule=COOCCCHHHHHH
C      -0.2069748480      0.3427532831     -0.3453429001
O       0.7067616149      0.2429519570      0.1955932908
O       2.2996378051      1.0472700933     -0.0174223595
C      -0.6967205231      1.4138756002     -0.8471158694
C       0.2159403197      2.4550021840      0.5729714056
C      -0.5907506827     -2.0409766012      0.1282765334
H      -0.5205552160      1.6618429125     -1.8238927995
H       1.2266662773      1.5279898870      3.1667442376
H      -1.9214470861      2.2273647159     -1.5731363148
H       0.9217286261     -3.1951151730     -3.5398765582
H       0.5861394367     -1.9772293850      5.0747681721
H      -3.1370121362     -0.7835155637      1.2260912656
12
Frame=225  time=113.000fs  energy=-306.19358012Ha  molecule=COOCCCHHHHHH
C      -0.2076571541      0.3443186663     -0.3466967952
O       0.7038479831      0.2446695776      0.1962764701
O       2.3011083939      1.0484171142     -0.0175396150
C      -0.6967189866      1.4140142176     -0.8508183993
C       0.2178769272      2.4545360376      0.5754031363
C      -0.5903455605     -2.0448133151      0.1288011765
H      -0.5140567822      1.6645063281     -1.8303421801
H       1.2269919917      1.5212658340      3.1832148067
H      -1.9274526237      2.2213580390     -1.5813460906
H       0.9252135997     -3.2008977222     -3.5560849826
H       0.5933814171     -1.9799569239      5.0950200464
H      -3.1454449606     -0.7794395164      1.2362785258
12
Frame=226  time=113.500fs  energy=-306.19358012Ha  molecule=COOCCCHHHHHH
C      -0.2083393017      0.3458836857     -0.3480503756
O       0.7009350285      0.2463867991      0.1969594907
O       2.3025786408      1.0495638685     -0.0176568433
C      -0.6967174505      1.4141528028     -0.8545200686
C       0.2198130846      2.4540699995      0.5778343019
C      -0.5899405324     -2.0486491373      0.1293256977
H      -0.5075598588      1.6671691247     -1.8367900616
H       1.2273176305      1.5145433437      3.1996815476
H      -1.9334567655      2.2153527583     -1.5895539583
H       0.9286977632     -3.2066789274     -3.5722896399
H       0.6006217143     -1.9826838288      5.1152672139
H      -3.1538758251     -0.7753644166      1.2464634183
12
Frame=227  time=114.000fs  energy=-306.19358012Ha  molecule=COOCCCHHHHHH
C      -0.2090212910      0.3474483420     -0.3494036420
O       0.6980227495      0.2481036223      0.1976423528
O       2.3040485467      1.0507103568     -0.0177740443
C      -0.6967159148      1.4142913558     -0.8582208793
C       0.2217487929      2.4536040695      0.5802649036
C      -0.5895355983     -2.0524840697      0.1298500972
H      -0.5010644424      1.6698313037     -1.8432364476
H       1.2276431937      1.5078224127      3.2161444692
H      -1.9394595146      2.2093488704     -1.5977599223
H       0.9321811187     -3.2124587916     -3.5884905386
H       0.6078603321     -1.9854101012      5.1355096850
H      -3.1623047341     -0.7712902619      1.2566459485
12
Frame=228  time=114.500fs  energy=-306.19358012Ha  molecule=COOCCCHHHHHH
C      -0.2097031225      0.3490126362     -0.3507565952
O       0.6951111446      0.2498200480      0.1983250569
O       2.3055181124      1.0518565797     -0.0178912182
C      -0.6967143794      1.4144298768     -0.8619208333
C       0.2236840531      2.4531382473      0.5826949426
C      -0.5891307579     -2.0563181144      0.1303743753
H      -0.4945705294      1.6724928665     -1.8496813415
H       1.2279686815      1.5011030374      3.2326035800
H      -1.9454608743      2.2033463723     -1.6059639867
H       0.9356636678     -3.2182373180     -3.6046876872
H       0.6150972744     -1.9881357425      5.1557474706
H      -3.1707316921     -0.7672170503      1.2668261216
12
Frame=229  time=115.000fs  energy=-306.19358012Ha  molecule=COOCCCHHHHHH
C      -0.2103847965      0.3505765690     -0.3521092358
O       0.6922002124      0.2515360773      0.1990076032
O       2.3069873386      1.0530025378     -0.0180083651
C      -0.6967128443      1.4145683657     -0.8656199327
C       0.2256188663      2.4526725328      0.5851244204
C      -0.5887260110     -2.0601512735      0.1308985323
H      -0.4880781166      1.6751538144     -1.8561247465
H       1.2282940941      1.4943852144      3.2490588887
H      -1.9514608477      2.1973452608     -1.6141661560
H       0.9391454125     -3.2240145095     -3.6208810942
H       0.6223325449     -1.9908607542      5.1759805811
H      -3.1791567033     -0.7631447796      1.2770039432
12
Frame=230  time=115.500fs  energy=-306.19358012Ha  molecule=COOCCCHHHHHH
C      -0.2110663133      0.3521401412     -0.3534615647
O       0.6892899512      0.2532517110      0.1996899923
O       2.3084562261      1.0541482318     -0.0181254849
C      -0.6967113097      1.4147068228     -0.8693181793
C       0.2275532334      2.4522069256      0.5875533380
C      -0.5883213575     -2.0639835489      0.1314225684
H      -0.4815872005      1.6778141489     -1.8625666662
H       1.2286194318      1.4876689400      3.2655104039
H      -1.9574594378      2.1913455327     -1.6223664345
H       0.9426263545     -3.2297903692     -3.6370707681
H       0.6295661475     -1.9935851378      5.1962090273
H      -3.1875797724     -0.7590734477      1.2871794184
12
Frame=231  time=116.000fs  energy=-306.19358012Ha  molecule=COOCCCHHHHHH
C      -0.2117476734      0.3537033538     -0.3548135823
O       0.6863803595      0.2549669499      0.2003722243
O       2.3099247756      1.0552936621     -0.0182425778
C      -0.6967097753      1.4148452480     -0.8730155751
C       0.2294871556      2.4517414255      0.5899816968
C      -0.5879167970     -2.0678149427      0.1319464840
H      -0.4750977777      1.6804738713     -1.8690071038
H       1.2289446946      1.4809542107      3.2819581343
H      -1.9634566479      2.1853471849     -1.6305648263
H       0.9461064957     -3.2355649000     -3.6532567174
H       0.6367980859     -1.9963088945      5.2164328197
H      -3.1960009036     -0.7550030524      1.2973525526
12
Frame=232  time=116.500fs  energy=-306.19358012Ha  molecule=COOCCCHHHHHH
C      -0.2124288770      0.3552662074     -0.3561652896
O       0.6834714359      0.2566817951      0.2010542997
O       2.3113929880      1.0564388295     -0.0183596438
C      -0.6967082414      1.4149836414     -0.8767121220
C       0.2314206337      2.4512760323      0.5924094981
C      -0.5875123294     -2.0716454567      0.1324702793
H      -0.4686098448      1.6831329831     -1.8754460627
H       1.2292698827      1.4742410231      3.2984020884
H      -1.9694524811      2.1793502143     -1.6387613359
H       0.9495858378     -3.2413381051     -3.6694389505
H       0.6440283638     -1.9990320259      5.2366519689
H      -3.2044201014     -0.7509335917      1.3075233511
12
Frame=233  time=117.000fs  energy=-306.19358012Ha  molecule=COOCCCHHHHHH
C      -0.2131099245      0.3568287030     -0.3575166872
O       0.6805631787      0.2583962474      0.2017362188
O       2.3128608640      1.0575837345     -0.0184766830
C      -0.6967067077      1.4151220031     -0.8804078219
C       0.2333536688      2.4508107458      0.5948367432
C      -0.5871079545     -2.0754750932      0.1329939546
H      -0.4621233985      1.6857914856     -1.8818835463
H       1.2295949963      1.4675293736      3.3148422748
H      -1.9754469406      2.1733546178     -1.6469559675
H       0.9530643828     -3.2471099875     -3.6856174759
H       0.6512569852     -2.0017545334      5.2568664854
H      -3.2128373701     -0.7468650634      1.3176918193
12
Frame=234  time=117.500fs  energy=-306.19358012Ha  molecule=COOCCCHHHHHH
C      -0.2137908163      0.3583908413     -0.3588677758
O       0.6776555866      0.2601103076      0.2024179820
O       2.3143284044      1.0587283778     -0.0185936954
C      -0.6967051745      1.4152603331     -0.8841026768
C       0.2352862619      2.4503455656      0.5972634332
C      -0.5867036720     -2.0793038539      0.1335175102
H      -0.4556384353      1.6884493803     -1.8883195580
H       1.2299200355      1.4608192588      3.3312787021
H      -1.9814400293      2.1673603922     -1.6551487253
H       0.9565421324     -3.2528805500     -3.7017923021
H       0.6584839537     -2.0044764183      5.2770763797
H      -3.2212527143     -0.7427974654      1.3278579624
12
Frame=235  time=118.000fs  energy=-306.19358012Ha  molecule=COOCCCHHHHHH
C      -0.2144715527      0.3599526231     -0.3602185561
O       0.6747486579      0.2618239767      0.2030995896
O       2.3157956099      1.0598727598     -0.0187106812
C      -0.6967036415      1.4153986316     -0.8877966885
C       0.2372184140      2.4498804916      0.5996895695
C      -0.5862994818     -2.0831317410      0.1340409463
H      -0.4491549519      1.6911066685     -1.8947541010
H       1.2302450006      1.4541106752      3.3477113788
H      -1.9874317506      2.1613675343     -1.6633396137
H       0.9600190884     -3.2586497958     -3.7179634373
H       0.6657092732     -2.0071976821      5.2972816625
H      -3.2296661381     -0.7387307956      1.3380217858
12
Frame=236  time=118.500fs  energy=-306.19358012Ha  molecule=COOCCCHHHHHH
C      -0.2151521341      0.3615140493     -0.3615690287
O       0.6718423912      0.2635372556      0.2037810420
O       2.3172624812      1.0610168812     -0.0188276403
C      -0.6967021090      1.4155368986     -0.8914898591
C       0.2391501262      2.4494155235      0.6021151533
C      -0.5858953837     -2.0869587564      0.1345642632
H      -0.4426729449      1.6937633515     -1.9011871788
H       1.2305698917      1.4474036192      3.3641403134
H      -1.9934221073      2.1553760412     -1.6715286368
H       0.9634952526     -3.2644177278     -3.7341308900
H       0.6729329472     -2.0099183263      5.3174823440
H      -3.2380776460     -0.7346650518      1.3481832946
12
Frame=237  time=119.000fs  energy=-306.19358012Ha  molecule=COOCCCHHHHHH
C      -0.2158325609      0.3630751206     -0.3629191945
O       0.6689367849      0.2652501451      0.2044623395
O       2.3187290192      1.0621607426     -0.0189445728
C      -0.6967005767      1.4156751342     -0.8951821903
C       0.2410813993      2.4489506610      0.6045401859
C      -0.5854913773     -2.0907849021      0.1350874612
H      -0.4361924110      1.6964194308     -1.9076187946
H       1.2308947090      1.4406980875      3.3805655145
H      -1.9994111028      2.1493859097     -1.6797157989
H       0.9669706268     -3.2701843490     -3.7502946686
H       0.6801549796     -2.0126383522      5.3376784349
H      -3.2464872424     -0.7306002319      1.3583424941
12
Frame=238  time=119.500fs  energy=-306.19358012Ha  molecule=COOCCCHHHHHH
C      -0.2165128333      0.3646358379     -0.3642690541
O       0.6660318377      0.2669626461      0.2051434825
O       2.3201952247      1.0633043446     -0.0190614788
C      -0.6966990449      1.4158133384     -0.8988736842
C       0.2430122344      2.4484859040      0.6069646686
C      -0.5850874626     -2.0946101801      0.1356105405
H      -0.4297133468      1.6990749077     -1.9140489518
H       1.2312194526      1.4339940765      3.3969869905
H      -2.0053987400      2.1433971367     -1.6879011042
H       0.9704452129     -3.2759496624     -3.7664547814
H       0.6873753742     -2.0153577612      5.3578699455
H      -3.2548949315     -0.7265363340      1.3684993897
12
Frame=239  time=120.000fs  energy=-306.19358012Ha  molecule=COOCCCHHHHHH
C      -0.2171929518      0.3661962020     -0.3656186081
O       0.6631275478      0.2686747596      0.2058244714
O       2.3216610982      1.0644476878     -0.0191783583
C      -0.6966975133      1.4159515114     -0.9025643426
C       0.2449426326      2.4480212522      0.6093886025
C      -0.5846836393     -2.0984345923      0.1361335014
H      -0.4232357490      1.7017297836     -1.9204776536
H       1.2315441227      1.4272915828      3.4134047499
H      -2.0113850220      2.1374097190     -1.6960845571
H       0.9739190126     -3.2817136710     -3.7826112367
H       0.6945941346     -2.0180765547      5.3780568862
H      -3.2633007178     -0.7224733558      1.3786539865
12
Frame=240  time=120.500fs  energy=-306.19358012Ha  molecule=COOCCCHHHHHH
C      -0.2178729166      0.3677562137     -0.3669678574
O       0.6602239140      0.2703864864      0.2065053065
O       2.3231266407      1.0655907727     -0.0192952114
C      -0.6966959822      1.4160896531     -0.9062541675
C       0.2468725947      2.4475567053      0.6118119889
C      -0.5842799073     -2.1022581407      0.1366563442
H      -0.4167596142      1.7043840599     -1.9269049035
H       1.2318687194      1.4205906029      3.4298188012
H      -2.0173699520      2.1314236538     -1.7042661615
H       0.9773920277     -3.2874763777     -3.7987640429
H       0.7018112646     -2.0207947342      5.3982392674
H      -3.2717046056     -0.7184112953      1.3888062897
12
Frame=241  time=121.000fs  energy=-306.19358012Ha  molecule=COOCCCHHHHHH
C      -0.2185527282      0.3693158737     -0.3683168025
O       0.6573209346      0.2720978273      0.2071859880
O       2.3245918529      1.0667336000     -0.0194120382
C      -0.6966944513      1.4162277637     -0.9099431606
C       0.2488021219      2.4470922631      0.6142348291
C      -0.5838762662     -2.1060808273      0.1371790692
H      -0.4102849392      1.7070377379     -1.9333307047
H       1.2321932430      1.4138911334      3.4462291527
H      -2.0233535329      2.1254389377     -1.7124459219
H       0.9808642600     -3.2932377855     -3.8149132083
H       0.7090267678     -2.0235123009      5.4184170996
H      -3.2801065991     -0.7143501503      1.3989563047
12
Frame=242  time=121.500fs  energy=-306.19358012Ha  molecule=COOCCCHHHHHH
C      -0.2192323869      0.3708751829     -0.3696654442
O       0.6544186082      0.2738087833      0.2078665165
O       2.3260567355      1.0678761703     -0.0195288387
C      -0.6966929208      1.4163658433     -0.9136313239
C       0.2507312150      2.4466279254      0.6166571243
C      -0.5834727159     -2.1099026540      0.1377016765
H      -0.4038117205      1.7096908190     -1.9397550605
H       1.2325176936      1.4071931709      3.4626358130
H      -2.0293357680      2.1194555679     -1.7206238423
H       0.9843357112     -3.2989978973     -3.8310587412
H       0.7162406480     -2.0262292564      5.4385903931
H      -3.2885067026     -0.7102899189      1.4091040365
12
Frame=243  time=122.000fs  energy=-306.19358012Ha  molecule=COOCCCHHHHHH
C      -0.2199118930      0.3724341421     -0.3710137832
O       0.6515169333      0.2755193552      0.2085468923
O       2.3275212892      1.0690184840     -0.0196456130
C      -0.6966913907      1.4165038918     -0.9173186594
C       0.2526598750      2.4461636919      0.6190788757
C      -0.5830692562     -2.1137236229      0.1382241666
H      -0.3973399549      1.7123433046     -1.9461779741
H       1.2328420714      1.4004967119      3.4790387904
H      -2.0353166602      2.1134735412     -1.7287999270
H       0.9878063832     -3.3047567161     -3.8472006498
H       0.7234529088     -2.0289456021      5.4587591581
H      -3.2969049206     -0.7062305989      1.4192494904
12
Frame=244  time=122.500fs  energy=-306.19358012Ha  molecule=COOCCCHHHHHH
C      -0.2205912469      0.3739927520     -0.3723618201
O       0.6486159085      0.2772295440      0.2092271156
O       2.3289855149      1.0701605419     -0.0197623612
C      -0.6966898609      1.4166419094     -0.9210051688
C       0.2545881031      2.4456995625      0.6215000847
C      -0.5826658869     -2.1175437357      0.1387465396
H      -0.3908696391      1.7149951959     -1.9525994490
H       1.2331663765      1.3938017530      3.4954380932
H      -2.0412962125      2.1074928545     -1.7369741801
H       0.9912762777     -3.3105142449     -3.8633389423
H       0.7306635540     -2.0316613392      5.4789234050
H      -3.3053012573     -0.7021721882      1.4293926716
12
Frame=245  time=123.000fs  energy=-306.19358012Ha  molecule=COOCCCHHHHHH
C      -0.2212704489      0.3755510135     -0.3737095556
O       0.6457155321      0.2789393504      0.2099071868
O       2.3304494132      1.0713023444     -0.0198790832
C      -0.6966883314      1.4167798962     -0.9246908541
C       0.2565159000      2.4452355367      0.6239207524
C      -0.5822626078     -2.1213629946      0.1392687959
H      -0.3844007698      1.7176464944     -1.9590194883
H       1.2334906091      1.3871082908      3.5118337299
H      -2.0472744281      2.1015135048     -1.7451466058
H       0.9947453965     -3.3162704866     -3.8794736271
H       0.7378725872     -2.0343764692      5.4990831442
H      -3.3136957169     -0.6981146848      1.4395335852
12
Frame=246  time=123.500fs  energy=-306.19358012Ha  molecule=COOCCCHHHHHH
C      -0.2219494994      0.3771089274     -0.3750569905
O       0.6428158029      0.2806487754      0.2105871063
O       2.3319129850      1.0724438922     -0.0199957792
C      -0.6966868023      1.4169178522     -0.9283757172
C       0.2584432669      2.4447716145      0.6263408800
C      -0.5818594186     -2.1251814014      0.1397909356
H      -0.3779333436      1.7202972015     -1.9654380953
H       1.2338147694      1.3804163219      3.5282257089
H      -2.0532513100      2.0955354891     -1.7533172083
H       0.9982137413     -3.3220254440     -3.8956047123
H       0.7450800121     -2.0370909934      5.5192383857
H      -3.3220883037     -0.6940580866      1.4496722365
12
Frame=247  time=124.000fs  energy=-306.19358012Ha  molecule=COOCCCHHHHHH
C      -0.2226283987      0.3786664944     -0.3764041254
O       0.6399167192      0.2823578198      0.2112668745
O       2.3333762309      1.0735851859     -0.0201124492
C      -0.6966852735      1.4170557774     -0.9320597598
C       0.2603702047      2.4443077956      0.6287604689
C      -0.5814563192     -2.1289989581      0.1403129591
H      -0.3714673573      1.7229473183     -1.9718552733
H       1.2341388575      1.3737258428      3.5446140383
H      -2.0592268613      2.0895588044     -1.7614859917
H       1.0016813140     -3.3277791202     -3.9117322061
H       0.7522858324     -2.0398049133      5.5393891400
H      -3.3304790221     -0.6900023916      1.4598086304
12
Frame=248  time=124.500fs  energy=-306.19358012Ha  molecule=COOCCCHHHHHH
C      -0.2233071472      0.3802237153     -0.3777509610
O       0.6370182796      0.2840664844      0.2119464916
O       2.3348391517      1.0747262259     -0.0202290933
C      -0.6966837450      1.4171936721     -0.9357429839
C       0.2622967143      2.4438440798      0.6311795201
C      -0.5810533093     -2.1328156666      0.1408348666
H      -0.3650028077      1.7255968464     -1.9782710255
H       1.2344628736      1.3670368503      3.5609987267
H      -2.0652010848      2.0835834475     -1.7696529602
H       1.0051481162     -3.3335315181     -3.9278561167
H       0.7594900517     -2.0425182303      5.5595354172
H      -3.3388678762     -0.6859475977      1.4699427723
12
Frame=249  time=125.000fs  energy=-306.19358012Ha  molecule=COOCCCHHHHHH
C      -0.2239857452      0.3817805910     -0.3790974980
O       0.6341204827      0.2857747703      0.2126259580
O       2.3363017481      1.0758670130     -0.0203457115
C      -0.6966822169      1.4173315361     -0.9394253914
C       0.2642227968      2.4433804667      0.6335980350
C      -0.5806503889     -2.1366315289      0.1413566584
H      -0.3585396913      1.7282457870     -1.9846853552
H       1.2347868179      1.3603493408      3.5773797821
H      -2.0711739838      2.0776094155     -1.7778181179
H       1.0086141498     -3.3392826405     -3.9439764523
H       0.7666926737     -2.0452309456      5.5796772275
H      -3.3472548703     -0.6818937028      1.4800746673
12
Frame=250  time=125.500fs  energy=-306.19358012Ha  molecule=COOCCCHHHHHH
C      -0.2246641930      0.3833371222     -0.3804437370
O       0.6312233270      0.2874826781      0.2133052741
O       2.3377640209      1.0770075477     -0.0204623040
C      -0.6966806892      1.4174693697     -0.9431069841
C       0.2661484532      2.4429169563      0.6360160148
C      -0.5802475575     -2.1404465468      0.1418783347
H      -0.3520780051      1.7308941415     -1.9910982657
H       1.2351106904      1.3536633111      3.5937572130
H      -2.0771455612      2.0716367054     -1.7859814689
H       1.0120794164     -3.3450324903     -3.9600932210
H       0.7738937019     -2.0479430607      5.5998145811
H      -3.3556400086     -0.6778407048      1.4902043203
12
Frame=251  time=126.000fs  energy=-306.19358012Ha  molecule=COOCCCHHHHHH
C      -0.2253424910      0.3848933097     -0.3817896788
O       0.6283268110      0.2891902088      0.2139844402
O       2.3392259708      1.0781478305     -0.0205788707
C      -0.6966791617      1.4176071728     -0.9467877638
C       0.2680736843      2.4424535481      0.6384334606
C      -0.5798448151     -2.1442607223      0.1423998958
H      -0.3456177456      1.7335419112     -1.9975097601
H       1.2354344915      1.3469787577      3.6101310276
H      -2.0831158199      2.0656653141     -1.7941430174
H       1.0155439179     -3.3507810706     -3.9762064309
H       0.7810931401     -2.0506545769      5.6199474882
H      -3.3640232954     -0.6737886019      1.5003317367
12
Frame=252  time=126.500fs  energy=-306.19358012Ha  molecule=COOCCCHHHHHH
C      -0.2260206396      0.3864491543     -0.3831353239
O       0.6254309332      0.2908973633      0.2146634566
O       2.3406875986      1.0792878621     -0.0206954117
C      -0.6966776346      1.4177449455     -0.9504677325
C       0.2699984912      2.4419902421      0.6408503737
C      -0.5794421615     -2.1480740574      0.1429213420
H      -0.3391589097      1.7361890975     -2.0039198417
H       1.2357582212      1.3402956773      3.6265012341
H      -2.0890847631      2.0596952386     -1.8023027674
H       1.0190076560     -3.3565283841     -3.9923160903
H       0.7882909919     -2.0533654957      5.6400759588
H      -3.3724047349     -0.6697373918      1.5104569214
12
Frame=253  time=127.000fs  energy=-306.19358012Ha  molecule=COOCCCHHHHHH
C      -0.2266986390      0.3880046568     -0.3844806732
O       0.6225356923      0.2926041423      0.2153423237
O       2.3421489050      1.0804276430     -0.0208119270
C      -0.6966761079      1.4178826880     -0.9541468920
C       0.2719228748      2.4415270380      0.6432667554
C      -0.5790395964     -2.1518865539      0.1434426736
H      -0.3327014941      1.7388357016     -2.0103285137
H       1.2360818797      1.3336140665      3.6428678408
H      -2.0950523937      2.0537264760     -1.8104607230
H       1.0224706324     -3.3622744338     -4.0084222070
H       0.7954872608     -2.0560758183      5.6602000032
H      -3.3807843313     -0.6656870726      1.5205798796
12
Frame=254  time=127.500fs  energy=-306.19358012Ha  molecule=COOCCCHHHHHH
C      -0.2273764897      0.3895598179     -0.3858257272
O       0.6196410867      0.2943105468      0.2160210419
O       2.3436098906      1.0815671737     -0.0209284168
C      -0.6966745815      1.4180204002     -0.9578252440
C       0.2738468361      2.4410639356      0.6456826068
C      -0.5786371196     -2.1556982138      0.1439638907
H      -0.3262454956      1.7414817249     -2.0167357793
H       1.2364054672      1.3269339220      3.6592308558
H      -2.1010187148      2.0477590231     -1.8186168884
H       1.0259328488     -3.3680192225     -4.0245247893
H       0.8026819506     -2.0587855461      5.6803196314
H      -3.3891620889     -0.6616376423      1.5307006163
12
Frame=255  time=128.000fs  energy=-306.19358012Ha  molecule=COOCCCHHHHHH
C      -0.2280541919      0.3911146384     -0.3871704867
O       0.6167471150      0.2960165776      0.2166996114
O       2.3450705564      1.0827064549     -0.0210448811
C      -0.6966730554      1.4181580822     -0.9615027905
C       0.2757703761      2.4406009345      0.6480979291
C      -0.5782347310     -2.1595090389      0.1444849937
H      -0.3197909109      1.7441271688     -2.0231416417
H       1.2367289839      1.3202552404      3.6755902875
H      -2.1069837292      2.0417928772     -1.8267712677
H       1.0293943070     -3.3737627531     -4.0406238452
H       0.8098750647     -2.0614946805      5.7004348534
H      -3.3975380117     -0.6575890987      1.5408191366
12
Frame=256  time=128.500fs  energy=-306.19358012Ha  molecule=COOCCCHHHHHH
C      -0.2287317459      0.3926691191     -0.3885149522
O       0.6138537758      0.2977222355      0.2173780326
O       2.3465309029      1.0838454871     -0.0211613199
C      -0.6966715296      1.4182957342     -0.9651795333
C       0.2776934957      2.4401380346      0.6505127236
C      -0.5778324304     -2.1633190312      0.1450059828
H      -0.3133377368      1.7467720345     -2.0295461042
H       1.2370524298      1.3135780184      3.6919461438
H      -2.1129474400      2.0358280351     -1.8349238648
H       1.0328550088     -3.3795050285     -4.0567193828
H       0.8170666068     -2.0642032228      5.7205456794
H      -3.4059121040     -0.6535414399      1.5509354455
12
Frame=257  time=129.000fs  energy=-306.19358012Ha  molecule=COOCCCHHHHHH
C      -0.2294091523      0.3942232609     -0.3898591246
O       0.6109610676      0.2994275215      0.2180563058
O       2.3479909309      1.0849842709     -0.0212777334
C      -0.6966700042      1.4184333562     -0.9688554742
C       0.2796161958      2.4396752357      0.6529269914
C      -0.5774302174     -2.1671281925      0.1455268583
H      -0.3068859701      1.7494163234     -2.0359491700
H       1.2373758052      1.3069022526      3.7082984331
H      -2.1189098501      2.0298644939     -1.8430746840
H       1.0363149558     -3.3852460516     -4.0728114100
H       0.8242565805     -2.0669111744      5.7406521194
H      -3.4142843700     -0.6494946639      1.5610495482
12
Frame=258  time=129.500fs  energy=-306.19358012Ha  molecule=COOCCCHHHHHH
C      -0.2300864112      0.3957770643     -0.3912030044
O       0.6080689890      0.3011324363      0.2187344314
O       2.3494506412      1.0861228068     -0.0213941215
C      -0.6966684791      1.4185709482     -0.9725306151
C       0.2815384776      2.4392125375      0.6553407338
C      -0.5770280920     -2.1709365248      0.1460476204
H      -0.3004356076      1.7520600368     -2.0423508421
H       1.2376991102      1.3002279398      3.7246471634
H      -2.1248709626      2.0239022506     -1.8512237291
H       1.0397741497     -3.3909858251     -4.0888999349
H       0.8314449893     -2.0696185367      5.7607541834
H      -3.4226548138     -0.6454487687      1.5711614496
12
Frame=259  time=130.000fs  energy=-306.19358012Ha  molecule=COOCCCHHHHHH
C      -0.2307635229      0.3973305303     -0.3925465923
O       0.6051775385      0.3028369809      0.2194124098
O       2.3509100344      1.0872610955     -0.0215104843
C      -0.6966669543      1.4187085103     -0.9762049578
C       0.2834603418      2.4387499399      0.6577539519
C      -0.5766260540     -2.1747440300      0.1465682694
H      -0.2939866461      1.7547031760     -2.0487511239
H       1.2380223450      1.2935550766      3.7409923429
H      -2.1308307804      2.0179413023     -1.8593710044
H       1.0432325924     -3.3967243521     -4.1049849655
H       0.8386318369     -2.0723253109      5.7808518813
H      -3.4310234396     -0.6414037522      1.5812711547
12
Frame=260  time=130.500fs  energy=-306.19358012Ha  molecule=COOCCCHHHHHH
C      -0.2314404880      0.3988836596     -0.3938898891
O       0.6022867147      0.3045411559      0.2200902411
O       2.3523691113      1.0883991375     -0.0216268219
C      -0.6966654299      1.4188460426     -0.9798785041
C       0.2853817894      2.4382874424      0.6601666470
C      -0.5762241031     -2.1785507099      0.1470888056
H      -0.2875390824      1.7573457423     -2.0551500184
H       1.2383455097      1.2868836597      3.7573339796
H      -2.1367893064      2.0119816460     -1.8675165137
H       1.0466902854     -3.4024616352     -4.1210665097
H       0.8458171267     -2.0750314985      5.8009452231
H      -3.4393902516     -0.6373596124      1.5913786687
12
Frame=261  time=131.000fs  energy=-306.19358012Ha  molecule=COOCCCHHHHHH
C      -0.2321173066      0.4004364529     -0.3952328952
O       0.5993965162      0.3062449624      0.2207679259
O       2.3538278726      1.0895369332     -0.0217431344
C      -0.6966639058      1.4189835451     -0.9835512558
C       0.2873028215      2.4378250450      0.6625788202
C      -0.5758222391     -2.1823565665      0.1476092291
H      -0.2810929132      1.7599877371     -2.0615475289
H       1.2386686045      1.2802136858      3.7736720817
H      -2.1427465436      2.0060232787     -1.8756602613
H       1.0501472306     -3.4081976774     -4.1371445756
H       0.8530008625     -2.0777371007      5.8210342189
H      -3.4477552539     -0.6333163474      1.6014839964
12
Frame=262  time=131.500fs  energy=-306.19358012Ha  molecule=COOCCCHHHHHH
C      -0.2327939791      0.4019889111     -0.3965756115
O       0.5965069416      0.3079484011      0.2214454644
O       2.3552863190      1.0906744834     -0.0218594217
C      -0.6966623820      1.4191210180     -0.9872232147
C       0.2892234389      2.4373627475      0.6649904728
C      -0.5754204618     -2.1861616015      0.1481295404
H      -0.2746481354      1.7626291615     -2.0679436584
H       1.2389916296      1.2735451516      3.7900066573
H      -2.1487024950      2.0000661975     -1.8838022510
H       1.0536034296     -3.4139324815     -4.1532191711
H       0.8601830476     -2.0804421189      5.8411188785
H      -3.4561184506     -0.6292739551      1.6115871429
12
Frame=263  time=132.000fs  energy=-306.19358012Ha  molecule=COOCCCHHHHHH
C      -0.2334705058      0.4035410349     -0.3979180385
O       0.5936179893      0.3096514729      0.2221228570
O       2.3567444513      1.0918117886     -0.0219756840
C      -0.6966608586      1.4192584612     -0.9908943827
C       0.2911436426      2.4369005495      0.6674016058
C      -0.5750187712     -2.1899658170      0.1486497395
H      -0.2682047459      1.7652700170     -2.0743384103
H       1.2393145851      1.2668780538      3.8063377144
H      -2.1546571634      1.9941103995     -1.8919424869
H       1.0570588841     -3.4196660502     -4.1692903040
H       0.8673636856     -2.0831465545      5.8611992118
H      -3.4644798458     -0.6252324335      1.6216881132
12
Frame=264  time=132.500fs  energy=-306.19358012Ha  molecule=COOCCCHHHHHH
C      -0.2341468872      0.4050928250     -0.3992601770
O       0.5907296581      0.3113541786      0.2228001039
O       2.3582022701      1.0929488493     -0.0220919213
C      -0.6966593355      1.4193958750     -0.9945647616
C       0.2930634335      2.4364384508      0.6698122206
C      -0.5746171668     -2.1937692147      0.1491698269
H      -0.2617627414      1.7679103049     -2.0807317875
H       1.2396374712      1.2602123892      3.8226652610
H      -2.1606105518      1.9881558817     -1.9000809730
H       1.0605135958     -3.4253983866     -4.1853579824
H       0.8745427801     -2.0858504087      5.8812752287
H      -3.4728394437     -0.6211917807      1.6317869122
12
Frame=265  time=133.000fs  energy=-306.19358012Ha  molecule=COOCCCHHHHHH
C      -0.2348231234      0.4066442823     -0.4006020276
O       0.5878419464      0.3130565190      0.2234772056
O       2.3596597763      1.0940856661     -0.0222081337
C      -0.6966578127      1.4195332592     -0.9982343531
C       0.2949828126      2.4359764513      0.6722223183
C      -0.5742156486     -2.1975717965      0.1496898027
H      -0.2553221187      1.7705500263     -2.0871237933
H       1.2399602881      1.2535481544      3.8389893051
H      -2.1665626632      1.9822026413     -1.9082177134
H       1.0639675665     -3.4311294932     -4.2014222141
H       0.8817203347     -2.0885536829      5.9013469391
H      -3.4811972484     -0.6171519946      1.6418835449
12
Frame=266  time=133.500fs  energy=-306.19358012Ha  molecule=COOCCCHHHHHH
C      -0.2354992149      0.4081954074     -0.4019435910
O       0.5849548529      0.3147584951      0.2241541623
O       2.3611169704      1.0952222395     -0.0223243212
C      -0.6966562902      1.4196706140     -1.0019031591
C       0.2969017809      2.4355145507      0.6746319001
C      -0.5738142164     -2.2013735644      0.1502096671
H      -0.2488828748      1.7731891827     -2.0935144308
H       1.2402830358      1.2468853462      3.8553098549
H      -2.1725135004      1.9762506752     -1.9163527119
H       1.0674207978     -3.4368593731     -4.2174830069
H       0.8888963528     -2.0912563785      5.9214143528
H      -3.4895532640     -0.6131130734      1.6519780163
12
Frame=267  time=134.000fs  energy=-306.19358012Ha  molecule=COOCCCHHHHHH
C      -0.2361751620      0.4097462012     -0.4032848677
O       0.5820683762      0.3164601075      0.2248309744
O       2.3625738532      1.0963585702     -0.0224404838
C      -0.6966547681      1.4198079395     -1.0055711814
C       0.2988203392      2.4350527487      0.6770409671
C      -0.5734128699     -2.2051745201      0.1507294205
H      -0.2424450065      1.7758277753     -2.0999037031
H       1.2406057145      1.2402239613      3.8716269182
H      -2.1784630664      1.9702999806     -1.9244859726
H       1.0708732914     -3.4425880289     -4.2335403689
H       0.8960708379     -2.0939584966      5.9414774797
H      -3.4979074945     -0.6090750149      1.6620703312
12
Frame=268  time=134.500fs  energy=-306.19358012Ha  molecule=COOCCCHHHHHH
C      -0.2368509649      0.4112966644     -0.4046258585
O       0.5791825148      0.3181613572      0.2255076423
O       2.3640304255      1.0974946586     -0.0225566217
C      -0.6966532463      1.4199452357     -1.0092384217
C       0.3007384885      2.4345910452      0.6794495206
C      -0.5730116090     -2.2089746655      0.1512490632
H      -0.2360085105      1.7784658054     -2.1062916134
H       1.2409283245      1.2335639965      3.8879405031
H      -2.1844113641      1.9643505546     -1.9326174995
H       1.0743250490     -3.4483154634     -4.2495943077
H       0.9032437935     -2.0966600388      5.9615363295
H      -3.5062599441     -0.6050378172      1.6721604947
12
Frame=269  time=135.000fs  energy=-306.19358012Ha  molecule=COOCCCHHHHHH
C      -0.2375266241      0.4128467978     -0.4059665641
O       0.5762972673      0.3198622450      0.2261841661
O       2.3654866879      1.0986305053     -0.0226727349
C      -0.6966517248      1.4200825027     -1.0129048818
C       0.3026562297      2.4341294399      0.6818575617
C      -0.5726104334     -2.2127740024      0.1517685952
H      -0.2295733839      1.7811032743     -2.1126781647
H       1.2412508659      1.2269054485      3.9042506174
H      -2.1903583963      1.9584023942     -1.9407472965
H       1.0777760723     -3.4540416796     -4.2656448313
H       0.9104152232     -2.0993610062      5.9815909120
H      -3.5146106168     -0.6010014785      1.6822485116
12
Frame=270  time=135.500fs  energy=-306.19358012Ha  molecule=COOCCCHHHHHH
C      -0.2382021399      0.4143966021     -0.4073069850
O       0.5734126323      0.3215627717      0.2268605464
O       2.3669426411      1.0997661108     -0.0227888235
C      -0.6966502036      1.4202197406     -1.0165705636
C       0.3045735639      2.4336679326      0.6842650915
C      -0.5722093430     -2.2165725328      0.1522880170
H      -0.2231396234      1.7837401833     -2.1190633601
H       1.2415733388      1.2202483141      3.9205572692
H      -2.1963041661      1.9524554966     -1.9488753675
H       1.0812263629     -3.4597666801     -4.2816919474
H       0.9175851305     -2.1020614002      6.0016412371
H      -3.5229595167     -0.5969659966      1.6923343869
12
Frame=271  time=136.000fs  energy=-306.19358012Ha  molecule=COOCCCHHHHHH
C      -0.2388775125      0.4159460780     -0.4086471219
O       0.5705286085      0.3232629381      0.2275367833
O       2.3683982859      1.1009014758     -0.0229048874
C      -0.6966486828      1.4203569494     -1.0202354688
C       0.3064904918      2.4332065231      0.6866721113
C      -0.5718083376     -2.2203702585      0.1528073287
H      -0.2167072259      1.7863765336     -2.1254472029
H       1.2418957433      1.2135925900      3.9368604663
H      -2.2022486761      1.9465098589     -1.9570017166
H       1.0846759226     -3.4654904677     -4.2977356638
H       0.9247535187     -2.1047612221      6.0216873144
H      -3.5313066478     -0.5929313696      1.7024181255
12
Frame=272  time=136.500fs  energy=-306.19358012Ha  molecule=COOCCCHHHHHH
C      -0.2395527423      0.4174952263     -0.4099869756
O       0.5676451944      0.3249627451      0.2282128773
O       2.3698536230      1.1020366008     -0.0230209268
C      -0.6966471623      1.4204941291     -1.0238995991
C       0.3084070145      2.4327452111      0.6890786223
C      -0.5714074169     -2.2241671812      0.1533265307
H      -0.2102761884      1.7890123266     -2.1318296960
H       1.2422180797      1.2069382731      3.9531602168
H      -2.2081919294      1.9405654781     -1.9651263477
H       1.0881247530     -3.4712130452     -4.3137759884
H       0.9319203915     -2.1074604733      6.0417291537
H      -3.5396520143     -0.5888975957      1.7124997322
12
Frame=273  time=137.000fs  energy=-306.19358012Ha  molecule=COOCCCHHHHHH
C      -0.2402278297      0.4190440479     -0.4113265465
O       0.5647623886      0.3266621935      0.2288888287
O       2.3713086530      1.1031714863     -0.0231369418
C      -0.6966456421      1.4206312800     -1.0275629565
C       0.3103231328      2.4322839965      0.6914846255
C      -0.5710065808     -2.2279633030      0.1538456231
H      -0.2038465076      1.7916475634     -2.1382108425
H       1.2425403481      1.2002853600      3.9694565283
H      -2.2141339289      1.9346223515     -1.9732492647
H       1.0915728558     -3.4769344154     -4.3298129289
H       0.9390857522     -2.1101591550      6.0617667646
H      -3.5479956201     -0.5848646727      1.7225792119
12
Frame=274  time=137.500fs  energy=-306.19358012Ha  molecule=COOCCCHHHHHH
C      -0.2409027750      0.4205925433     -0.4126658354
O       0.5618801897      0.3283612840      0.2295646377
O       2.3727633766      1.1043061328     -0.0232529323
C      -0.6966441222      1.4207684019     -1.0312255425
C       0.3122388477      2.4318228790      0.6938901222
C      -0.5706058292     -2.2317586254      0.1543646062
H      -0.1974181805      1.7942822455     -2.1445906456
H       1.2428625487      1.1936338476      3.9857494089
H      -2.2200746773      1.9286804762     -1.9813704715
H       1.0950202326     -3.4826545810     -4.3458464930
H       0.9462496044     -2.1128572685      6.0818001569
H      -3.5563374692     -0.5808325989      1.7326565695
12
Frame=275  time=138.000fs  energy=-306.19358012Ha  molecule=COOCCCHHHHHH
C      -0.2415775785      0.4221407134     -0.4140048429
O       0.5589985964      0.3300600176      0.2302403048
O       2.3742177947      1.1054405409     -0.0233688984
C      -0.6966426026      1.4209054951     -1.0348873591
C       0.3141541601      2.4313618583      0.6962951134
C      -0.5702051617     -2.2355531505      0.1548834803
H      -0.1909912040      1.7969163740     -2.1509691083
H       1.2431846815      1.1869837328      4.0020388664
H      -2.2260141776      1.9227398492     -1.9894899720
H       1.0984668852     -3.4883735449     -4.3618766884
H       0.9534119514     -2.1155548151      6.1018293402
H      -3.5646775657     -0.5768013721      1.7427318099
12
Frame=276  time=138.500fs  energy=-306.19358012Ha  molecule=COOCCCHHHHHH
C      -0.2422522405      0.4236885589     -0.4153435697
O       0.5561176073      0.3317583951      0.2309158302
O       2.3756719078      1.1065747112     -0.0234848402
C      -0.6966410834      1.4210425595     -1.0385484079
C       0.3160690710      2.4309009343      0.6986996005
C      -0.5698045782     -2.2393468801      0.1554022456
H      -0.1845655749      1.7995499503     -2.1573462336
H       1.2435067469      1.1803350121      4.0183249086
H      -2.2319524326      1.9168004677     -1.9976077702
H       1.1019128151     -3.4940913097     -4.3779035230
H       0.9605727968     -2.1182517962      6.1218543242
H      -3.5730159137     -0.5727709906      1.7528049379
12
Frame=277  time=139.000fs  energy=-306.19358012Ha  molecule=COOCCCHHHHHH
C      -0.2429267613      0.4252360806     -0.4166820164
O       0.5532372209      0.3334564172      0.2315912142
O       2.3771257166      1.1077086443     -0.0236007578
C      -0.6966395645      1.4211795952     -1.0422086907
C       0.3179835812      2.4304401067      0.7011035845
C      -0.5694040786     -2.2431398158      0.1559209023
H      -0.1781412903      1.8021829755     -2.1637220248
H       1.2438287448      1.1736876826      4.0346075434
H      -2.2378894452      1.9108623289     -2.0057238700
H       1.1053580241     -3.4998078782     -4.3939270043
H       0.9677321440     -2.1209482130      6.1418751184
H      -3.5813525170     -0.5687414523      1.7628759584
12
Frame=278  time=139.500fs  energy=-306.19358012Ha  molecule=COOCCCHHHHHH
C      -0.2436011413      0.4267832791     -0.4180201837
O       0.5503574360      0.3351540848      0.2322664573
O       2.3785792219      1.1088423405     -0.0237166512
C      -0.6966380459      1.4213166024     -1.0458682093
C       0.3198976917      2.4299793754      0.7035070665
C      -0.5690036625     -2.2469319597      0.1564394508
H      -0.1717183470      1.8048154510     -2.1700964847
H       1.2441506755      1.1670417409      4.0508867785
H      -2.2438252182      1.9049254299     -2.0138382752
H       1.1088025137     -3.5055232531     -4.4099471402
H       0.9748899963     -2.1236440668      6.1618917325
H      -3.5896873797     -0.5647127554      1.7729448761
12
Frame=279  time=140.000fs  energy=-306.19358012Ha  molecule=COOCCCHHHHHH
C      -0.2442753808      0.4283301553     -0.4193580721
O       0.5474782510      0.3368513986      0.2329415596
O       2.3800324244      1.1099758006     -0.0238325204
C      -0.6966365276      1.4214535809     -1.0495269654
C       0.3218114033      2.4295187400      0.7059100478
C      -0.5686033299     -2.2507233134      0.1569578912
H      -0.1652967420      1.8074473780     -2.1764696165
H       1.2444725391      1.1603971840      4.0671626218
H      -2.2497597544      1.8989897679     -2.0219509897
H       1.1122462856     -3.5112374372     -4.4259639381
H       0.9820463573     -2.1263393589      6.1819041761
H      -3.5980205059     -0.5606848978      1.7830116959
12
Frame=280  time=140.500fs  energy=-306.19358012Ha  molecule=COOCCCHHHHHH
C      -0.2449494801      0.4298767099     -0.4206956824
O       0.5445996647      0.3385483596      0.2336165216
O       2.3814853247      1.1111090249     -0.0239483655
C      -0.6966350096      1.4215905310     -1.0531849608
C       0.3237247171      2.4290582004      0.7083125294
C      -0.5682030805     -2.2545138789      0.1574762238
H      -0.1588764721      1.8100787578     -2.1828414232
H       1.2447943358      1.1537540086      4.0834350810
H      -2.2556930568      1.8930553400     -2.0300620175
H       1.1156893415     -3.5169504333     -4.4419774059
H       0.9892012303     -2.1290340906      6.2019124587
H      -3.6063518994     -0.5566578777      1.7930764227
12
Frame=281  time=141.000fs  energy=-306.19358012Ha  molecule=COOCCCHHHHHH
C      -0.2456234395      0.4314229436     -0.4220330151
O       0.5417216756      0.3402449684      0.2342913436
O       2.3829379236      1.1122420142     -0.0240641866
C      -0.6966334919      1.4217274527     -1.0568421972
C       0.3256376339      2.4285977564      0.7107145125
C      -0.5678029142     -2.2583036579      0.1579944489
H      -0.1524575343      1.8127095916     -2.1892119078
H       1.2451160658      1.1471122115      4.0997041639
H      -2.2616251280      1.8871221435     -2.0381713623
H       1.1191316831     -3.5226622439     -4.4579875510
H       0.9963546188     -2.1317282632      6.2219165898
H      -3.6146815643     -0.5526316932      1.8031390611
12
Frame=282  time=141.500fs  energy=-306.19358012Ha  molecule=COOCCCHHHHHH
C      -0.2462972594      0.4329688571     -0.4233700709
O       0.5388442825      0.3419412260      0.2349660258
O       2.3843902217      1.1133747689     -0.0241799837
C      -0.6966319746      1.4218643460     -1.0604986764
C       0.3275501546      2.4281374077      0.7131159984
C      -0.5674028307     -2.2620926521      0.1585125667
H      -0.1460399256      1.8153398807     -2.1955810734
H       1.2454377291      1.1404717897      4.1159698783
H      -2.2675559710      1.8811901754     -2.0462790281
H       1.1225733118     -3.5283728719     -4.4739943812
H       1.0035065262     -2.1344218779      6.2419165790
H      -3.6230095045     -0.5486063423      1.8131996161
12
Frame=283  time=142.000fs  energy=-306.19358012Ha  molecule=COOCCCHHHHHH
C      -0.2469709400      0.4345144512     -0.4247068505
O       0.5359674838      0.3436371331      0.2356405686
O       2.3858422197      1.1145072895     -0.0242957569
C      -0.6966304576      1.4220012111     -1.0641544001
C       0.3294622801      2.4276771542      0.7155169880
C      -0.5670028299     -2.2658808635      0.1590305774
H      -0.1396236429      1.8179696263     -2.2019489229
H       1.2457593260      1.1338327399      4.1322322318
H      -2.2734855886      1.8752594330     -2.0543850186
H       1.1260142295     -3.5340823200     -4.4899979041
H       1.0106569558     -2.1371149361      6.2619124358
H      -3.6313357239     -0.5445818231      1.8232580923
12
Frame=284  time=142.500fs  energy=-306.19358012Ha  molecule=COOCCCHHHHHH
C      -0.2476444818      0.4360597266     -0.4260433544
O       0.5330912784      0.3453326905      0.2363149723
O       2.3872939184      1.1156395766     -0.0244115062
C      -0.6966289408      1.4221380479     -1.0678093700
C       0.3313740114      2.4272169955      0.7179174825
C      -0.5666029116     -2.2696682938      0.1595484813
H      -0.1332086832      1.8205988297     -2.2083154595
H       1.2460808565      1.1271950590      4.1484912321
H      -2.2794139836      1.8693299135     -2.0624893377
H       1.1294544377     -3.5397905909     -4.5059981272
H       1.0178059111     -2.1398074390      6.2819041697
H      -3.6396602266     -0.5405581337      1.8333144945
12
Frame=285  time=143.000fs  energy=-306.19358012Ha  molecule=COOCCCHHHHHH
C      -0.2483178849      0.4376046841     -0.4273795833
O       0.5302156647      0.3470278990      0.2369892373
O       2.3887453183      1.1167716307     -0.0245272317
C      -0.6966274244      1.4222748566     -1.0714635878
C       0.3332853493      2.4267569315      0.7203174832
C      -0.5662030755     -2.2734549448      0.1600662787
H      -0.1267950435      1.8232274921     -2.2146806862
H       1.2464023209      1.1205587439      4.1647468870
H      -2.2853411587      1.8634016140     -2.0705919894
H       1.1328939380     -3.5454976872     -4.5219950581
H       1.0249533954     -2.1424993879      6.3018917900
H      -3.6479830164     -0.5365352723      1.8433688276
12
Frame=286  time=143.500fs  energy=-306.19358012Ha  molecule=COOCCCHHHHHH
C      -0.2489911498      0.4391493243     -0.4287155379
O       0.5273406415      0.3487227594      0.2376633638
O       2.3901964203      1.1179034523     -0.0246429334
C      -0.6966259083      1.4224116372     -1.0751170553
C       0.3351962948      2.4262969620      0.7227169910
C      -0.5658033216     -2.2772408183      0.1605839697
H      -0.1203827206      1.8258556147     -2.2210446058
H       1.2467237193      1.1139237914      4.1809992042
H      -2.2912671168      1.8574745318     -2.0786929773
H       1.1363327321     -3.5512036116     -4.5379887044
H       1.0320994122     -2.1451907841      6.3218753064
H      -3.6563040974     -0.5325132368      1.8534210962
12
Frame=287  time=144.000fs  energy=-306.19358012Ha  molecule=COOCCCHHHHHH
C      -0.2496642768      0.4406936481     -0.4300512187
O       0.5244662074      0.3504172726      0.2383373522
O       2.3916472248      1.1190350421     -0.0247586114
C      -0.6966243925      1.4225483897     -1.0787697743
C       0.3371068487      2.4258370867      0.7251160072
C      -0.5654036496     -2.2810259161      0.1611015546
H      -0.1139717116      1.8284831989     -2.2274072215
H       1.2470450518      1.1072901985      4.1972481913
H      -2.2971918606      1.8515486640     -2.0867923053
H       1.1397708216     -3.5569083670     -4.5539790735
H       1.0392439647     -2.1478816288      6.3418547281
H      -3.6646234733     -0.5284920255      1.8634713051
12
Frame=288  time=144.500fs  energy=-306.19358012Ha  molecule=COOCCCHHHHHH
C      -0.2503372661      0.4422376560     -0.4313866264
O       0.5215923610      0.3521114393      0.2390112028
O       2.3930977328      1.1201664005     -0.0248742658
C      -0.6966228771      1.4226851143     -1.0824217463
C       0.3390170120      2.4253773055      0.7275145329
C      -0.5650040592     -2.2848102399      0.1616190338
H      -0.1075620135      1.8311102458     -2.2337685362
H       1.2473663186      1.1006579618      4.2134938559
H      -2.3031153931      1.8456240079     -2.0948899772
H       1.1432082081     -3.5626119559     -4.5699661731
H       1.0463870563     -2.1505719233      6.3618300645
H      -3.6729411482     -0.5244716364      1.8735194591
12
Frame=289  time=145.000fs  energy=-306.19358012Ha  molecule=COOCCCHHHHHH
C      -0.2510101181      0.4437813490     -0.4327217617
O       0.5187191011      0.3538052603      0.2396849159
O       2.3945479448      1.1212975280     -0.0249898966
C      -0.6966213619      1.4228218110     -1.0860729732
C       0.3409267855      2.4249176181      0.7299125691
C      -0.5646045505     -2.2885937915      0.1621364073
H      -0.1011536233      1.8337367566     -2.2401285529
H       1.2476875199      1.0940270785      4.2297362056
H      -2.3090377168      1.8397005607     -2.1029859969
H       1.1466448932     -3.5683143809     -4.5859500107
H       1.0535286905     -2.1532616688      6.3818013252
H      -3.6812571258     -0.5204520676      1.8835655627
12
Frame=290  time=145.500fs  energy=-306.19358012Ha  molecule=COOCCCHHHHHH
C      -0.2516828331      0.4453247276     -0.4340566250
O       0.5158464261      0.3554987364      0.2403584918
O       2.3959978615      1.1224284253     -0.0251055038
C      -0.6966198470      1.4229584799     -1.0897234567
C       0.3428361701      2.4244580242      0.7323101171
C      -0.5642051230     -2.2923765728      0.1626536755
H      -0.0947465379      1.8363627327     -2.2464872747
H       1.2480086558      1.0873975453      4.2459752482
H      -2.3149588347      1.8337783196     -2.1110803680
H       1.1500808786     -3.5740156449     -4.6019305936
H       1.0606688705     -2.1559508667      6.4017685193
H      -3.6895714102     -0.5164333173      1.8936096208
12
Frame=291  time=146.000fs  energy=-306.19358012Ha  molecule=COOCCCHHHHHH
C      -0.2523554114      0.4468677926     -0.4353912172
O       0.5129743349      0.3571918684      0.2410319308
O       2.3974474835      1.1235590927     -0.0252210876
C      -0.6966183325      1.4230951209     -1.0933731984
C       0.3447451668      2.4239985238      0.7347071779
C      -0.5638057768     -2.2961585854      0.1631708386
H      -0.0883407543      1.8389881752     -2.2528447043
H       1.2483297264      1.0807693592      4.2622109911
H      -2.3208787495      1.8278572819     -2.1191730945
H       1.1535161658     -3.5797157505     -4.6179079295
H       1.0678075996     -2.1586395182      6.4217316563
H      -3.6978840053     -0.5124153835      1.9036516381
12
Frame=292  time=146.500fs  energy=-306.19358012Ha  molecule=COOCCCHHHHHH
C      -0.2530278533      0.4484105447     -0.4367255387
O       0.5101028260      0.3588846571      0.2417052333
O       2.3988968117      1.1246895309     -0.0253366479
C      -0.6966168182      1.4232317343     -1.0970222000
C       0.3466537764      2.4235391165      0.7371037527
C      -0.5634065115     -2.2999398312      0.1636878968
H      -0.0819362696      1.8416130853     -2.2592008450
H       1.2486507319      1.0741425171      4.2784434420
H      -2.3267974639      1.8219374447     -2.1272641801
H       1.1569507564     -3.5854147002     -4.6338820257
H       1.0749448813     -2.1613276245      6.4416907455
H      -3.7061949148     -0.5083982645      1.9136916192
12
Frame=293  time=147.000fs  energy=-306.19358012Ha  molecule=COOCCCHHHHHH
C      -0.2537001591      0.4499529847     -0.4380595903
O       0.5072318982      0.3605771033      0.2423783996
O       2.4003458466      1.1258197403     -0.0254521848
C      -0.6966153043      1.4233683201     -1.1006704633
C       0.3485619998      2.4230798022      0.7394998425
C      -0.5630073269     -2.3037203119      0.1642048504
H      -0.0755330809      1.8442374643     -2.2655556995
H       1.2489716725      1.0675170158      4.2946726085
H      -2.3327149807      1.8160188054     -2.1353536285
H       1.1603846521     -3.5911124969     -4.6498528897
H       1.0820807189     -2.1640151869      6.4616457962
H      -3.7145041427     -0.5043819583      1.9237295688
12
Frame=294  time=147.500fs  energy=-306.19358012Ha  molecule=COOCCCHHHHHH
C      -0.2543723293      0.4514951132     -0.4393933725
O       0.5043615500      0.3622692078      0.2430514299
O       2.4017945889      1.1269497215     -0.0255676984
C      -0.6966137907      1.4235048782     -1.1043179900
C       0.3504698379      2.4226205806      0.7418954485
C      -0.5626082230     -2.3075000292      0.1647216996
H      -0.0691311850      1.8468613134     -2.2719092709
H       1.2492925483      1.0608928523      4.3108984980
H      -2.3386313027      1.8101013611     -2.1434414435
H       1.1638178544     -3.5968091430     -4.6658205289
H       1.0892151156     -2.1667022066      6.4815968176
H      -3.7228116929     -0.5003664630      1.9337654915
12
Frame=295  time=148.000fs  energy=-306.19358012Ha  molecule=COOCCCHHHHHH
C      -0.2550443639      0.4530369310     -0.4407268859
O       0.5014917802      0.3639609713      0.2437243246
O       2.4032430393      1.1280794751     -0.0256831887
C      -0.6966122774      1.4236414089     -1.1079647818
C       0.3523772916      2.4221614516      0.7442905719
C      -0.5622091995     -2.3112789850      0.1652384447
H      -0.0627305790      1.8494846338     -2.2782615621
H       1.2496133594      1.0542700235      4.3271211181
H      -2.3445464326      1.8041851091     -2.1515276289
H       1.1672503650     -3.6025046414     -4.6817849508
H       1.0963480748     -2.1693886849      6.5015438191
H      -3.7311175691     -0.4963517768      1.9437993922
12
Frame=296  time=148.500fs  energy=-306.19358012Ha  molecule=COOCCCHHHHHH
C      -0.2557162635      0.4545784388     -0.4420601312
O       0.4986225874      0.3656523947      0.2443970840
O       2.4046911985      1.1292090015     -0.0257986558
C      -0.6966107643      1.4237779121     -1.1116108402
C       0.3542843617      2.4217024149      0.7466852137
C      -0.5618102563     -2.3150571809      0.1657550859
H      -0.0563312600      1.8521074268     -2.2846125760
H       1.2499341060      1.0476485264      4.3433404764
H      -2.3504603731      1.7982700467     -2.1596121884
H       1.1706821854     -3.6081989945     -4.6977461628
H       1.1034795997     -2.1720746230      6.5214868098
H      -3.7394217753     -0.4923378979      1.9538312753
12
Frame=297  time=149.000fs  energy=-306.19358012Ha  molecule=COOCCCHHHHHH
C      -0.2563880282      0.4561196373     -0.4433931090
O       0.4957539703      0.3673434786      0.2450697085
O       2.4061390671      1.1303383012     -0.0259140997
C      -0.6966092516      1.4239143879     -1.1152561671
C       0.3561910493      2.4212434702      0.7490793749
C      -0.5614113931     -2.3188346187      0.1662716234
H      -0.0499332250      1.8547296935     -2.2909623156
H       1.2502547882      1.0410283578      4.3595565803
H      -2.3563731271      1.7923561712     -2.1676951257
H       1.1741133172     -3.6138922051     -4.7137041721
H       1.1106096938     -2.1747600223      6.5414257990
H      -3.7477243152     -0.4883248243      1.9638611455
12
Frame=298  time=149.500fs  energy=-306.19358012Ha  molecule=COOCCCHHHHHH
C      -0.2570596584      0.4576605271     -0.4447258199
O       0.4928859275      0.3690342240      0.2457421982
O       2.4075866457      1.1314673749     -0.0260295205
C      -0.6966077392      1.4240508363     -1.1189007642
C       0.3580973550      2.4207846175      0.7514730568
C      -0.5610126097     -2.3226113002      0.1667880575
H      -0.0435364711      1.8573514351     -2.2973107839
H       1.2505754063      1.0344095148      4.3757694373
H      -2.3622846971      1.7864434797     -2.1757764447
H       1.1775437620     -3.6195842758     -4.7296589863
H       1.1177383602     -2.1774448838      6.5613607959
H      -3.7560251928     -0.4843125542      1.9738890075
12
Frame=299  time=150.000fs  energy=-306.19358012Ha  molecule=COOCCCHHHHHH
C      -0.2577311545      0.4592011092     -0.4460582646
O       0.4900184578      0.3707246316      0.2464145536
O       2.4090339352      1.1325962229     -0.0261449183
C      -0.6966062271      1.4241872576     -1.1225446330
C       0.3600032799      2.4203258565      0.7538662605
C      -0.5606139060     -2.3263872271      0.1673043884
H      -0.0371409953      1.8599726529     -2.3036579836
H       1.2508959602      1.0277919943      4.3919790549
H      -2.3681950860      1.7805319697     -2.1838561489
H       1.1809735214     -3.6252752091     -4.7456106126
H       1.1248656022     -2.1801292089      6.5812918097
H      -3.7643244118     -0.4803010858      1.9839148659
12
Frame=300  time=150.500fs  energy=-306.19358012Ha  molecule=COOCCCHHHHHH
C      -0.2584025166      0.4607413840     -0.4473904435
O       0.4871515599      0.3724147021      0.2470867750
O       2.4104809361      1.1337248459     -0.0262602930
C      -0.6966047153      1.4243236516     -1.1261877752
C       0.3619088247      2.4198671869      0.7562589869
C      -0.5602152818     -2.3301624012      0.1678206164
H      -0.0307467946      1.8625933481     -2.3100039179
H       1.2512164503      1.0211757932      4.4081854405
H      -2.3741042964      1.7746216383     -2.1919342422
H       1.1844025969     -3.6309650078     -4.7615590583
H       1.1319914232     -2.1828129988      6.6012188496
H      -3.7726219761     -0.4762904173      1.9939387253
12
Frame=301  time=151.000fs  energy=-306.19358012Ha  molecule=COOCCCHHHHHH
C      -0.2590737452      0.4622813524     -0.4487223574
O       0.4842852324      0.3741044363      0.2477588625
O       2.4119276491      1.1348532443     -0.0263756448
C      -0.6966032038      1.4244600185     -1.1298301926
C       0.3638139904      2.4194086086      0.7586512373
C      -0.5598167370     -2.3339368241      0.1683367416
H      -0.0243538662      1.8652135218     -2.3163485895
H       1.2515368766      1.0145609085      4.4243886016
H      -2.3800123311      1.7687124829     -2.2000107282
H       1.1878309902     -3.6366536744     -4.7775043309
H       1.1391158264     -2.1854962546      6.6211419246
H      -3.7809178894     -0.4722805467      2.0039605902
12
Frame=302  time=151.500fs  energy=-306.19358012Ha  molecule=COOCCCHHHHHH
C      -0.2597448405      0.4638210150     -0.4500540068
O       0.4814194739      0.3757938351      0.2484308167
O       2.4133740748      1.1359814187     -0.0264909737
C      -0.6966016926      1.4245963583     -1.1334718868
C       0.3657187778      2.4189501213      0.7610430128
C      -0.5594182712     -2.3377104976      0.1688527644
H      -0.0179622071      1.8678331754     -2.3226920014
H       1.2518572393      1.0079473372      4.4405885456
H      -2.3859191928      1.7628045007     -2.2080856106
H       1.1912587028     -3.6423412115     -4.7934464376
H       1.1462388151     -2.1881789778      6.6410610440
H      -3.7892121556     -0.4682714723      2.0139804653
12
Frame=303  time=152.000fs  energy=-306.19358012Ha  molecule=COOCCCHHHHHH
C      -0.2604158028      0.4653603726     -0.4513853924
O       0.4785542833      0.3774828991      0.2491026377
O       2.4148202140      1.1371093695     -0.0266062797
C      -0.6966001816      1.4247326710     -1.1371128595
C       0.3676231879      2.4184917249      0.7634343143
C      -0.5590198844     -2.3414834234      0.1693686849
H      -0.0115718143      1.8704523098     -2.3290341565
H       1.2521775385      1.0013350762      4.4567852799
H      -2.3918248841      1.7568976891     -2.2161588932
H       1.1946857362     -3.6480276217     -4.8093853856
H       1.1533603925     -2.1908611694      6.6609762167
H      -3.7975047785     -0.4642631922      2.0239983552
12
Frame=304  time=152.500fs  energy=-306.19358012Ha  molecule=COOCCCHHHHHH
C      -0.2610866325      0.4668994258     -0.4527165148
O       0.4756896592      0.3791716292      0.2497743259
O       2.4162660672      1.1382370974     -0.0267215630
C      -0.6965986710      1.4248689569     -1.1407531123
C       0.3695272214      2.4180334191      0.7658251430
C      -0.5586215764     -2.3452556032      0.1698845035
H      -0.0051826851      1.8730709265     -2.3353750576
H       1.2524977744      0.9947241226      4.4729788118
H      -2.3977294078      1.7509920453     -2.2242305796
H       1.1981120921     -3.6537129077     -4.8253211823
H       1.1604805618     -2.1935428307      6.6808874520
H      -3.8057957618     -0.4602557046      2.0340142645
12
Frame=305  time=153.000fs  energy=-306.19358012Ha  molecule=COOCCCHHHHHH
C      -0.2617573298      0.4684381754     -0.4540473746
O       0.4728256002      0.3808600261      0.2504458815
O       2.4177116352      1.1393646027     -0.0268368234
C      -0.6965971607      1.4250052158     -1.1443926469
C       0.3714308793      2.4175752037      0.7682155001
C      -0.5582233470     -2.3490270389      0.1704002202
H       0.0012051837      1.8756890265     -2.3417147077
H       1.2528179471      0.9881144733      4.4891691489
H      -2.4036327666      1.7450875667     -2.2323006734
H       1.2015377719     -3.6593970719     -4.8412538350
H       1.1675993264     -2.1962239629      6.7007947589
H      -3.8140851093     -0.4562490077      2.0440281976
12
Frame=306  time=153.500fs  energy=-306.19358012Ha  molecule=COOCCCHHHHHH
C      -0.2624278951      0.4699766220     -0.4553779723
O       0.4699621051      0.3825480906      0.2511173050
O       2.4191569186      1.1404918861     -0.0269520612
C      -0.6965956507      1.4251414480     -1.1480314650
C       0.3733341623      2.4171170785      0.7706053865
C      -0.5578251960     -2.3527977319      0.1709158354
H       0.0075917947      1.8783066110     -2.3480531097
H       1.2531380567      0.9815061253      4.5053562984
H      -2.4095349631      1.7391842505     -2.2403691784
H       1.2049627773     -3.6650801171     -4.8571833508
H       1.1747166894     -2.1989045672      6.7206981463
H      -3.8223728248     -0.4522430996      2.0540401592
12
Frame=307  time=154.000fs  energy=-306.19358012Ha  molecule=COOCCCHHHHHH
C      -0.2630983286      0.4715147664     -0.4567083086
O       0.4670991726      0.3842358234      0.2517885965
O       2.4206019180      1.1416189479     -0.0270672764
C      -0.6965941410      1.4252776533     -1.1516695681
C       0.3752370714      2.4166590434      0.7729948034
C      -0.5574271231     -2.3565676842      0.1714313494
H       0.0139771511      1.8809236813     -2.3543902663
H       1.2534581035      0.9748990756      4.5215402676
H      -2.4154360000      1.7332820942     -2.2484360982
H       1.2083871099     -3.6707620457     -4.8731097370
H       1.1818326541     -2.2015846449      6.7405976235
H      -3.8306589120     -0.4482379785      2.0640501537
12
Frame=308  time=154.500fs  energy=-306.19358012Ha  molecule=COOCCCHHHHHH
C      -0.2637686307      0.4730526092     -0.4580383841
O       0.4642368014      0.3859232254      0.2524597564
O       2.4220466341      1.1427457889     -0.0271824690
C      -0.6965926316      1.4254138320     -1.1553069580
C       0.3771396075      2.4162010980      0.7753837518
C      -0.5570291284     -2.3603368974      0.1719467622
H       0.0203612555      1.8835402385     -2.3607261806
H       1.2537780875      0.9682933212      4.5377210640
H      -2.4213358800      1.7273810950     -2.2565014365
H       1.2118107710     -3.6764428604     -4.8890330007
H       1.1889472237     -2.2042641972      6.7604931993
H      -3.8389433747     -0.4442336426      2.0740581858
12
Frame=309  time=155.000fs  energy=-306.19358012Ha  molecule=COOCCCHHHHHH
C      -0.2644388016      0.4745901512     -0.4593681994
O       0.4613749901      0.3876102972      0.2531307850
O       2.4234910676      1.1438724093     -0.0272976390
C      -0.6965911224      1.4255499840     -1.1589436363
C       0.3790417714      2.4157432423      0.7777722329
C      -0.5566312115     -2.3641053732      0.1724620742
H       0.0267441110      1.8861562838     -2.3670608553
H       1.2540980089      0.9616888592      4.5538986947
H      -2.4272346058      1.7214812503     -2.2645651969
H       1.2152337624     -3.6821225637     -4.9049531493
H       1.1960604014     -2.2069432252      6.7803848827
H      -3.8472262167     -0.4402300902      2.0840642599
12
Frame=310  time=155.500fs  energy=-306.19358012Ha  molecule=COOCCCHHHHHH
C      -0.2651088418      0.4761273929     -0.4606977550
O       0.4585137376      0.3892970397      0.2538016827
O       2.4249352191      1.1449988098     -0.0274127865
C      -0.6965896136      1.4256861094     -1.1625796046
C       0.3809435638      2.4152854759      0.7801602477
C      -0.5562333723     -2.3678731132      0.1729772856
H       0.0331257204      1.8887718184     -2.3733942933
H       1.2544178679      0.9550856865      4.5700731672
H      -2.4331321800      1.7155825574     -2.2726273830
H       1.2186560855     -3.6878011582     -4.9208701899
H       1.2031721904     -2.2096217302      6.8002726828
H      -3.8555074417     -0.4362273193      2.0940683806
12
Frame=311  time=156.000fs  energy=-306.19358012Ha  molecule=COOCCCHHHHHH
C      -0.2657787513      0.4776643352     -0.4620270517
O       0.4556530425      0.3909834536      0.2544724496
O       2.4263790893      1.1461249909     -0.0275279117
C      -0.6965881050      1.4258222083     -1.1662148646
C       0.3828449859      2.4148277987      0.7825477972
C      -0.5558356105     -2.3716401193      0.1734923967
H       0.0395060865      1.8913868434     -2.3797264975
H       1.2547376645      0.9484838003      4.5862444887
H      -2.4390286052      1.7096850136     -2.2806879985
H       1.2220777419     -3.6934786464     -4.9367841295
H       1.2102825940     -2.2122997135      6.8201566085
H      -3.8637870533     -0.4322253282      2.1040705523
12
Frame=312  time=156.500fs  energy=-306.19358012Ha  molecule=COOCCCHHHHHH
C      -0.2664485307      0.4792009788     -0.4633560899
O       0.4527929035      0.3926695396      0.2551430861
O       2.4278226787      1.1472509531     -0.0276430144
C      -0.6965865968      1.4259582808     -1.1698494178
C       0.3847460382      2.4143702105      0.7849348827
C      -0.5554379261     -2.3754063930      0.1740074076
H       0.0458852123      1.8940013601     -2.3860574706
H       1.2550573990      0.9418831974      4.6024126664
H      -2.4449238842      1.7037886163     -2.2887470470
H       1.2254987331     -3.6991550309     -4.9526949755
H       1.2173916152     -2.2149771761      6.8400366686
H      -3.8720650554     -0.4282241152      2.1140707796
12
Frame=313  time=157.000fs  energy=-306.19358012Ha  molecule=COOCCCHHHHHH
C      -0.2671181801      0.4807373242     -0.4646848703
O       0.4499333193      0.3943552985      0.2558135925
O       2.4292659881      1.1483766968     -0.0277580948
C      -0.6965850888      1.4260943268     -1.1734832660
C       0.3866467218      2.4139127110      0.7873215050
C      -0.5550403189     -2.3791719361      0.1745223186
H       0.0522631006      1.8966153696     -2.3923872156
H       1.2553770715      0.9352838750      4.6185777076
H      -2.4508180195      1.6978933629     -2.2968045321
H       1.2289190606     -3.7048303142     -4.9686027349
H       1.2244992574     -2.2176541193      6.8599128722
H      -3.8803414516     -0.4242236783      2.1240690669
12
Frame=314  time=157.500fs  energy=-306.19358012Ha  molecule=COOCCCHHHHHH
C      -0.2677876999      0.4822733722     -0.4660133935
O       0.4470742887      0.3960407312      0.2564839691
O       2.4307090182      1.1495022226     -0.0278731529
C      -0.6965835812      1.4262303466     -1.1771164107
C       0.3885470374      2.4134553001      0.7897076653
C      -0.5546427886     -2.3829367503      0.1750371299
H       0.0586397543      1.8992288730     -2.3987157353
H       1.2556966821      0.9286858302      4.6347396195
H      -2.4567110139      1.6919992507     -2.3048604574
H       1.2323387261     -3.7105044989     -4.9845074149
H       1.2316055237     -2.2203305443      6.8797852282
H      -3.8886162456     -0.4202240159      2.1340654187
12
Frame=315  time=158.000fs  energy=-306.19358012Ha  molecule=COOCCCHHHHHH
C      -0.2684570904      0.4838091235     -0.4673416600
O       0.4442158104      0.3977258382      0.2571542162
O       2.4321517694      1.1506275310     -0.0279881888
C      -0.6965820738      1.4263663400     -1.1807488536
C       0.3904469860      2.4129979776      0.7920933647
C      -0.5542453351     -2.3867008372      0.1755518418
H       0.0650151761      1.9018418716     -2.4050430325
H       1.2560162309      0.9220890599      4.6508984094
H      -2.4626028698      1.6861062770     -2.3129148265
H       1.2357577309     -3.7161775875     -5.0004090225
H       1.2387104172     -2.2230064523      6.8996537453
H      -3.8968894412     -0.4162251260      2.1440598395
12
Frame=316  time=158.500fs  energy=-306.19358012Ha  molecule=COOCCCHHHHHH
C      -0.2691263518      0.4853445788     -0.4686696705
O       0.4413578831      0.3994106204      0.2578243342
O       2.4335942426      1.1517526224     -0.0281032026
C      -0.6965805667      1.4265023072     -1.1843805963
C       0.3923465683      2.4125407432      0.7944786042
C      -0.5538479583     -2.3904641986      0.1760664545
H       0.0713893690      1.9044543665     -2.4113691100
H       1.2563357181      0.9154935612      4.6670540845
H      -2.4684935901      1.6802144394     -2.3209676431
H       1.2391760768     -3.7218495825     -5.0163075648
H       1.2458139412     -2.2256818444      6.9195184325
H      -3.9051610420     -0.4122270070      2.1540523337
12
Frame=317  time=159.000fs  energy=-306.19358012Ha  molecule=COOCCCHHHHHH
C      -0.2697954845      0.4868797387     -0.4699974256
O       0.4385005056      0.4010950785      0.2584943232
O       2.4350364383      1.1528774975     -0.0282181942
C      -0.6965790599      1.4266382483     -1.1880116405
C       0.3942457852      2.4120835968      0.7968633849
C      -0.5534506579     -2.3942268360      0.1765809681
H       0.0777623358      1.9070663589     -2.4176939707
H       1.2566551439      0.9088993312      4.6832066519
H      -2.4743831772      1.6743237350     -2.3290189106
H       1.2425937650     -3.7275204864     -5.0322030489
H       1.2529160987     -2.2283567219      6.9393792986
H      -3.9134310517     -0.4082296571      2.1640429059
12
Frame=318  time=159.500fs  energy=-306.19358012Ha  molecule=COOCCCHHHHHH
C      -0.2704644887      0.4884146039     -0.4713249258
O       0.4356436765      0.4027792133      0.2591641836
O       2.4364783571      1.1540021566     -0.0283331637
C      -0.6965775534      1.4267741633     -1.1916419876
C       0.3961446375      2.4116265381      0.7992477079
C      -0.5530534337     -2.3979887512      0.1770953830
H       0.0841340793      1.9096778499     -2.4240176173
H       1.2569745084      0.9023063669      4.6993561189
H      -2.4802716338      1.6684341614     -2.3370686327
H       1.2460107972     -3.7331903019     -5.0480954819
H       1.2600168930     -2.2310310860      6.9592363524
H      -3.9216994740     -0.4042330745      2.1740315603
12
Frame=319  time=160.000fs  energy=-306.19358012Ha  molecule=COOCCCHHHHHH
C      -0.2711333648      0.4899491751     -0.4726521717
O       0.4327873947      0.4044630255      0.2598339157
O       2.4379199998      1.1551266003     -0.0284481112
C      -0.6965760472      1.4269100522     -1.1952716394
C       0.3980431262      2.4111695670      0.8016315741
C      -0.5526562856     -2.4017499458      0.1776096994
H       0.0905046023      1.9122888407     -2.4303400526
H       1.2572938117      0.8957146655      4.7155024925
H      -2.4861589625      1.6625457159     -2.3451168129
H       1.2494271750     -3.7388590313     -5.0639848709
H       1.2671163272     -2.2337049379      6.9790896027
H      -3.9299663125     -0.4002372574      2.1840183015
12
Frame=320  time=160.500fs  energy=-306.19358012Ha  molecule=COOCCCHHHHHH
C      -0.2718021131      0.4914834531     -0.4739791639
O       0.4299316587      0.4061465159      0.2605035198
O       2.4393613669      1.1562508291     -0.0285630368
C      -0.6965745413      1.4270459152     -1.1989005974
C       0.3999412519      2.4107126832      0.8040149847
C      -0.5522592134     -2.4055104215      0.1781239175
H       0.0968739077      1.9148993324     -2.4366612795
H       1.2576130539      0.8891242241      4.7316457800
H      -2.4920451660      1.6566583958     -2.3531634548
H       1.2528428997     -3.7445266772     -5.0798712228
H       1.2742144045     -2.2363782786      6.9989390584
H      -3.9382315709     -0.3962422040      2.1940031338
12
Frame=321  time=161.000fs  energy=-306.19358012Ha  molecule=COOCCCHHHHHH
C      -0.2724707338      0.4930174383     -0.4753059030
O       0.4270764675      0.4078296852      0.2611729962
O       2.4408024591      1.1573748434     -0.0286779404
C      -0.6965730357      1.4271817523     -1.2025288632
C       0.4018390157      2.4102558865      0.8063979407
C      -0.5518622170     -2.4092701800      0.1786380375
H       0.1032419983      1.9175093262     -2.4429813008
H       1.2579322353      0.8825350396      4.7477859884
H      -2.4979302467      1.6507721987     -2.3612085620
H       1.2562579730     -3.7501932422     -5.0957545446
H       1.2813111278     -2.2390511095      7.0187847281
H      -3.9464952529     -0.3922479126      2.2039860617
12
Frame=322  time=161.500fs  energy=-306.19358012Ha  molecule=COOCCCHHHHHH
C      -0.2731392272      0.4945511317     -0.4766323896
O       0.4242218197      0.4095125341      0.2618423452
O       2.4422432770      1.1584986438     -0.0287928221
C      -0.6965715303      1.4273175635     -1.2061564385
C       0.4037364182      2.4097991768      0.8087804432
C      -0.5514652961     -2.4130292229      0.1791520596
H       0.1096088768      1.9201188233     -2.4493001191
H       1.2582513559      0.8759471092      4.7639231249
H      -2.5038142073      1.6448871219     -2.3692521380
H       1.2596723962     -3.7558587286     -5.1116348434
H       1.2884065005     -2.2417234317      7.0386266206
H      -3.9547573621     -0.3882543815      2.2139670896
12
Frame=323  time=162.000fs  energy=-306.19358012Ha  molecule=COOCCCHHHHHH
C      -0.2738075937      0.4960845337     -0.4779586243
O       0.4213677140      0.4111950634      0.2625115670
O       2.4436838213      1.1596222308     -0.0289076821
C      -0.6965700252      1.4274533489     -1.2097833248
C       0.4056334604      2.4093425539      0.8111624931
C      -0.5510684506     -2.4167875518      0.1796659841
H       0.1159745461      1.9227278247     -2.4556177374
H       1.2585704159      0.8693604301      4.7800571965
H      -2.5096970505      1.6390031628     -2.3772941862
H       1.2630861710     -3.7615231390     -5.1275121261
H       1.2955005256     -2.2443952463      7.0584647446
H      -3.9630179020     -0.3842616088      2.2239462218
12
Frame=324  time=162.500fs  energy=-306.19358012Ha  molecule=COOCCCHHHHHH
C      -0.2744758335      0.4976176451     -0.4792846076
O       0.4185141493      0.4128772738      0.2631806620
O       2.4451240926      1.1607456048     -0.0290225202
C      -0.6965685205      1.4275891086     -1.2134095238
C       0.4075301430      2.4088860174      0.8135440916
C      -0.5506716803     -2.4205451685      0.1801798112
H       0.1223390090      1.9253363317     -2.4619341583
H       1.2588894155      0.8627749992      4.7961882104
H      -2.5155787787      1.6331203189     -2.3853347104
H       1.2664992988     -3.7671864758     -5.1433863998
H       1.3025932063     -2.2470665545      7.0782991089
H      -3.9712768765     -0.3802695928      2.2339234628
12
Frame=325  time=163.000fs  energy=-306.19358012Ha  molecule=COOCCCHHHHHH
C      -0.2751439470      0.4991504666     -0.4806103402
O       0.4156611242      0.4145591661      0.2638496305
O       2.4465640914      1.1618687664     -0.0291373367
C      -0.6965670160      1.4277248426     -1.2170350370
C       0.4094264670      2.4084295673      0.8159252397
C      -0.5502749851     -2.4243020745      0.1806935412
H       0.1287022682      1.9279443454     -2.4682493847
H       1.2592083547      0.8561908138      4.8123161736
H      -2.5214593945      1.6272385875     -2.3933737139
H       1.2699117811     -3.7728487417     -5.1592576713
H       1.3096845455     -2.2497373576      7.0981297221
H      -3.9795342890     -0.3762783319      2.2438988169
12
Frame=326  time=163.500fs  energy=-306.19358012Ha  molecule=COOCCCHHHHHH
C      -0.2758119343      0.5006829988     -0.4819358226
O       0.4128086375      0.4162407410      0.2645184727
O       2.4480038185      1.1629917160     -0.0292521314
C      -0.6965655117      1.4278605510     -1.2206598659
C       0.4113224330      2.4079732034      0.8183059385
C      -0.5498783647     -2.4280582716      0.1812071742
H       0.1350643266      1.9305518669     -2.4745634193
H       1.2595272337      0.8496078710      4.8284410931
H      -2.5273389006      1.6213579661     -2.4014112003
H       1.2733236194     -3.7785099389     -5.1751259476
H       1.3167745465     -2.2524076566      7.1179565930
H      -3.9877901431     -0.3722878241      2.2538722884
12
Frame=327  time=164.000fs  energy=-306.19358012Ha  molecule=COOCCCHHHHHH
C      -0.2764797959      0.5022152424     -0.4832610553
O       0.4099566880      0.4179219992      0.2651871890
O       2.4494432745      1.1641144542     -0.0293669046
C      -0.6965640078      1.4279962338     -1.2242840123
C       0.4132180421      2.4075169254      0.8206861889
C      -0.5494818190     -2.4318137612      0.1817207104
H       0.1414251869      1.9331588974     -2.4808762648
H       1.2598460527      0.8430261678      4.8445629761
H      -2.5332172995      1.6154784521     -2.4094471731
H       1.2767348152     -3.7841700701     -5.1909912356
H       1.3238632124     -2.2550774528      7.1377797301
H      -3.9960444426     -0.3682980678      2.2638438818
12
Frame=328  time=164.500fs  energy=-306.19358012Ha  molecule=COOCCCHHHHHH
C      -0.2771475319      0.5037471981     -0.4845860391
O       0.4071052745      0.4196029415      0.2658557796
O       2.4508824600      1.1652369814     -0.0294816562
C      -0.6965625042      1.4281318912     -1.2279074776
C       0.4151132949      2.4070607331      0.8230659920
C      -0.5490853479     -2.4355685452      0.1822341502
H       0.1477848518      1.9357654379     -2.4871879240
H       1.2601648118      0.8364457014      4.8606818295
H      -2.5390945937      1.6096000430     -2.4174816358
H       1.2801453700     -3.7898291376     -5.2068535423
H       1.3309505461     -2.2577467472      7.1575991421
H      -4.0042971909     -0.3643090612      2.2738136013
12
Frame=329  time=165.000fs  energy=-306.19358012Ha  molecule=COOCCCHHHHHH
C      -0.2778151428      0.5052788665     -0.4859107743
O       0.4042543956      0.4212835686      0.2665242448
O       2.4523213757      1.1663592980     -0.0295963863
C      -0.6965610008      1.4282675231     -1.2315302634
C       0.4170081923      2.4066046264      0.8254453489
C      -0.5486889510     -2.4393226250      0.1827474937
H       0.1541433243      1.9383714897     -2.4934983997
H       1.2604835111      0.8298664690      4.8767976603
H      -2.5449707858      1.6037227362     -2.4255145920
H       1.2835552852     -3.7954871439     -5.2227128746
H       1.3380365509     -2.2604155412      7.1774148376
H      -4.0125483917     -0.3603208027      2.2837814514
12
Frame=330  time=165.500fs  energy=-306.19358012Ha  molecule=COOCCCHHHHHH
C      -0.2784826287      0.5068102483     -0.4872352617
O       0.4014040502      0.4229638812      0.2671925849
O       2.4537600220      1.1674814047     -0.0297110949
C      -0.6965594977      1.4284031296     -1.2351523714
C       0.4189027351      2.4061486051      0.8278242605
C      -0.5482926284     -2.4430760025      0.1832607411
H       0.1605006069      1.9409770538     -2.4998076946
H       1.2608021507      0.8232884677      4.8929104755
H      -2.5508458784      1.5978465291     -2.4335460450
H       1.2869645624     -3.8011440915     -5.2385692392
H       1.3451212297     -2.2630838357      7.1972268252
H      -4.0207980486     -0.3563332904      2.2937474362
12
Frame=331  time=166.000fs  energy=-306.19358012Ha  molecule=COOCCCHHHHHH
C      -0.2791499900      0.5083413442     -0.4885595018
O       0.3985542370      0.4246438800      0.2678608003
O       2.4551983998      1.1686033019     -0.0298257821
C      -0.6965579949      1.4285387108     -1.2387738030
C       0.4207969242      2.4056926688      0.8302027280
C      -0.5478963797     -2.4468286790      0.1837738927
H       0.1668567025      1.9435821315     -2.5061158114
H       1.2611207309      0.8167116947      4.9090202821
H      -2.5567198740      1.5919714193     -2.4415759983
H       1.2903732030     -3.8067999829     -5.2544226431
H       1.3522045857     -2.2657516320      7.2170351134
H      -4.0290461650     -0.3523465227      2.3037115602
12
Frame=332  time=166.500fs  energy=-306.19358012Ha  molecule=COOCCCHHHHHH
C      -0.2798172269      0.5098721548     -0.4898834951
O       0.3957049548      0.4263235658      0.2685288911
O       2.4566365095      1.1697249900     -0.0299404479
C      -0.6965564924      1.4286742667     -1.2423945599
C       0.4226907604      2.4052368176      0.8325807523
C      -0.5475002049     -2.4505806564      0.1842869487
H       0.1732116138      1.9461867237     -2.5124227529
H       1.2614392517      0.8101361470      4.9251270871
H      -2.5625927751      1.5860974041     -2.4496044555
H       1.2937812084     -3.8124548204     -5.2702730932
H       1.3592866218     -2.2684189312      7.2368397110
H      -4.0372927446     -0.3483604979      2.3136738277
12
Frame=333  time=167.000fs  energy=-306.19358012Ha  molecule=COOCCCHHHHHH
C      -0.2804843398      0.5114026807     -0.4912072423
O       0.3928562024      0.4280029394      0.2691968578
O       2.4580743519      1.1708464695     -0.0300550924
C      -0.6965549902      1.4288097975     -1.2460146435
C       0.4245842444      2.4047810511      0.8349583344
C      -0.5471041037     -2.4543319361      0.1847999093
H       0.1795653435      1.9487908317     -2.5187285217
H       1.2617577133      0.8035618220      4.9412308974
H      -2.5684645843      1.5802244811     -2.4576314200
H       1.2971885803     -3.8181086065     -5.2861205962
H       1.3663673412     -2.2710857346      7.2566406263
H      -4.0455377910     -0.3443752141      2.3236342429
12
Frame=334  time=167.500fs  energy=-306.19358012Ha  molecule=COOCCCHHHHHH
C      -0.2811513289      0.5129329227     -0.4925307439
O       0.3900079784      0.4296820013      0.2698647005
O       2.4595119275      1.1719677410     -0.0301697156
C      -0.6965534882      1.4289453030     -1.2496340556
C       0.4264773772      2.4043253691      0.8373354754
C      -0.5467080761     -2.4580825199      0.1853127747
H       0.1859178944      1.9513944565     -2.5250331206
H       1.2620761158      0.7969887167      4.9573317199
H      -2.5743353040      1.5743526477     -2.4656568952
H       1.3005953199     -3.8237613437     -5.3019651590
H       1.3734467470     -2.2737520431      7.2764378679
H      -4.0537813076     -0.3403906697      2.3335928101
12
Frame=335  time=168.000fs  energy=-306.19358012Ha  molecule=COOCCCHHHHHH
C      -0.2818181945      0.5144628814     -0.4938540004
O       0.3871602818      0.4313607524      0.2705324195
O       2.4609492370      1.1730888049     -0.0302843176
C      -0.6965519865      1.4290807835     -1.2532527975
C       0.4283701594      2.4038697715      0.8397121764
C      -0.5463121217     -2.4618324093      0.1858255451
H       0.1922692693      1.9539975993     -2.5313365523
H       1.2623944593      0.7904168283      4.9734295616
H      -2.5802049369      1.5684819014     -2.4736808846
H       1.3040014289     -3.8294130343     -5.3178067884
H       1.3805248420     -2.2764178580      7.2962314443
H      -4.0620232981     -0.3364068630      2.3435495336
12
Frame=336  time=168.500fs  energy=-306.19358012Ha  molecule=COOCCCHHHHHH
C      -0.2824849370      0.5159925575     -0.4951770125
O       0.3843131113      0.4330391933      0.2712000152
O       2.4623862809      1.1742096617     -0.0303988985
C      -0.6965504851      1.4292162390     -1.2568708709
C       0.4302625920      2.4034142581      0.8420884382
C      -0.5459162405     -2.4655816060      0.1863382209
H       0.1986194707      1.9566002612     -2.5376388195
H       1.2627127441      0.7838461540      4.9895244293
H      -2.5860734854      1.5626122396     -2.4817033916
H       1.3074069086     -3.8350636809     -5.3336454912
H       1.3876016295     -2.2790831804      7.3160213640
H      -4.0702637660     -0.3324237923      2.3535044177
12
Frame=337  time=169.000fs  energy=-306.19358012Ha  molecule=COOCCCHHHHHH
C      -0.2831515565      0.5175219515     -0.4964997807
O       0.3814664657      0.4347173249      0.2718674879
O       2.4638230599      1.1753303119     -0.0305134582
C      -0.6965489840      1.4293516695     -1.2604882774
C       0.4321546757      2.4029588286      0.8444642620
C      -0.5455204323     -2.4693301115      0.1868508021
H       0.2049685016      1.9592024433     -2.5439399248
H       1.2630309701      0.7772766909      5.0056163300
H      -2.5919409521      1.5567436599     -2.4897244197
H       1.3108117605     -3.8407132857     -5.3494812741
H       1.3946771123     -2.2817480115      7.3358076355
H      -4.0785027147     -0.3284414559      2.3634574667
12
Frame=338  time=169.500fs  energy=-306.19358012Ha  molecule=COOCCCHHHHHH
C      -0.2838180534      0.5190510643     -0.4978223055
O       0.3786203437      0.4363951477      0.2725348377
O       2.4652595746      1.1764507559     -0.0306279968
C      -0.6965474831      1.4294870751     -1.2641050183
C       0.4340464114      2.4025034830      0.8468396488
C      -0.5451246969     -2.4730779274      0.1873632890
H       0.2113163644      1.9618041467     -2.5502398711
H       1.2633491377      0.7707084364      5.0217052704
H      -2.5978073394      1.5508761598     -2.4977439723
H       1.3142159861     -3.8463618513     -5.3653141440
H       1.4017512936     -2.2844123524      7.3555902672
H      -4.0867401478     -0.3244598520      2.3734086847
12
Frame=339  time=170.000fs  energy=-306.19358012Ha  molecule=COOCCCHHHHHH
C      -0.2844844279      0.5205798963     -0.4991445876
O       0.3757747441      0.4380726626      0.2732020651
O       2.4666958256      1.1775709943     -0.0307425144
C      -0.6965459825      1.4296224558     -1.2677210954
C       0.4359377998      2.4020482209      0.8492145995
C      -0.5447290341     -2.4768250554      0.1878756819
H       0.2176630621      1.9644053725     -2.5565386609
H       1.2636672468      0.7641413876      5.0377912576
H      -2.6036726498      1.5450097367     -2.5057620528
H       1.3176195867     -3.8520093800     -5.3811441076
H       1.4088241764     -2.2870762041      7.3753692676
H      -4.0949760688     -0.3204789790      2.3833580761
12
Frame=340  time=170.500fs  energy=-306.19358012Ha  molecule=COOCCCHHHHHH
C      -0.2851506804      0.5221084483     -0.5004666275
O       0.3729296658      0.4397498702      0.2738691702
O       2.4681318135      1.1786910274     -0.0308570111
C      -0.6965444822      1.4297578118     -1.2713365102
C       0.4378288418      2.4015930422      0.8515891152
C      -0.5443334438     -2.4805714970      0.1883879809
H       0.2240085972      1.9670061219     -2.5628362970
H       1.2639852976      0.7575755417      5.0538742983
H      -2.6095368859      1.5391443882     -2.5137786647
H       1.3210225640     -3.8576558743     -5.3969711716
H       1.4158957635     -2.2897395680      7.3951446450
H      -4.1032104813     -0.3164988352      2.3933056450
12
Frame=341  time=171.000fs  energy=-306.19358012Ha  molecule=COOCCCHHHHHH
C      -0.2858168111      0.5236367209     -0.5017884258
O       0.3700851075      0.4414267712      0.2745361534
O       2.4695675390      1.1798108558     -0.0309714868
C      -0.6965429822      1.4298931430     -1.2749512641
C       0.4397195381      2.4011379467      0.8539631969
C      -0.5439379258     -2.4843172538      0.1889001863
H       0.2303529725      1.9696063959     -2.5691327819
H       1.2643032903      0.7510108958      5.0699543993
H      -2.6154000502      1.5332801117     -2.5217938112
H       1.3244249192     -3.8633013365     -5.4127953427
H       1.4229660582     -2.2924024450      7.4149164079
H      -4.1114433887     -0.3125194189      2.4032513957
12
Frame=342  time=171.500fs  energy=-306.19358012Ha  molecule=COOCCCHHHHHH
C      -0.2864828203      0.5251647148     -0.5031099829
O       0.3672410681      0.4431033663      0.2752030150
O       2.4710030026      1.1809304800     -0.0310859416
C      -0.6965414824      1.4300284495     -1.2785653587
C       0.4416098896      2.4006829342      0.8563368456
C      -0.5435424800     -2.4880623275      0.1894122982
H       0.2366961907      1.9722061956     -2.5754281185
H       1.2646212251      0.7444474473      5.0860315675
H      -2.6212621451      1.5274169048     -2.5298074959
H       1.3278266539     -3.8689457690     -5.4286166276
H       1.4300350633     -2.2950648364      7.4346845646
H      -4.1196747945     -0.3085407284      2.4131953324
12
Frame=343  time=172.000fs  energy=-306.19358012Ha  molecule=COOCCCHHHHHH
C      -0.2871487083      0.5266924305     -0.5044312996
O       0.3643975462      0.4447796564      0.2758697552
O       2.4724382049      1.1820499004     -0.0312003756
C      -0.6965399829      1.4301637314     -1.2821787955
C       0.4434998970      2.4002280045      0.8587100622
C      -0.5431471061     -2.4918067195      0.1899243170
H       0.2430382543      1.9748055222     -2.5817223093
H       1.2649391019      0.7378851933      5.1021058096
H      -2.6271231730      1.5215547650     -2.5378197221
H       1.3312277695     -3.8745891742     -5.4444350331
H       1.4371027818     -2.2977267432      7.4544491235
H      -4.1279047021     -0.3045627620      2.4231374593
12
Frame=344  time=172.500fs  energy=-306.19358012Ha  molecule=COOCCCHHHHHH
C      -0.2878144754      0.5282198688     -0.5057523762
O       0.3615545408      0.4464556420      0.2765363742
O       2.4738731466      1.1831691176     -0.0313147888
C      -0.6965384837      1.4302989887     -1.2857915761
C       0.4453895612      2.3997731575      0.8610828479
C      -0.5427518040     -2.4955504316      0.1904362427
H       0.2493791662      1.9774043767     -2.5880153571
H       1.2652569210      0.7313241311      5.1181771325
H      -2.6329831365      1.5156936899     -2.5458304932
H       1.3346282674     -3.8802315546     -5.4602505658
H       1.4441692168     -2.3003881666      7.4742100930
H      -4.1361331151     -0.3005855180      2.4330777806
12
Frame=345  time=173.000fs  energy=-306.19358012Ha  molecule=COOCCCHHHHHH
C      -0.2884801218      0.5297470304     -0.5070732135
O       0.3587120505      0.4481313238      0.2772028725
O       2.4753078283      1.1842881318     -0.0314291813
C      -0.6965369848      1.4304342215     -1.2894037020
C       0.4472788829      2.3993183928      0.8634552036
C      -0.5423565736     -2.4992934651      0.1909480757
H       0.2557189290      1.9800027602     -2.5943072643
H       1.2655746826      0.7247642580      5.1342455429
H      -2.6388420381      1.5098336769     -2.5538398125
H       1.3380281490     -3.8858729123     -5.4760632323
H       1.4512343711     -2.3030491076      7.4939674813
H      -4.1443600370     -0.2966089948      2.4430163005
12
Frame=346  time=173.500fs  energy=-306.19358012Ha  molecule=COOCCCHHHHHH
C      -0.2891456478      0.5312739157     -0.5083938119
O       0.3558700743      0.4498067027      0.2778692503
O       2.4767422505      1.1854069438     -0.0315435531
C      -0.6965354861      1.4305694298     -1.2930151747
C       0.4491678630      2.3988637104      0.8658271302
C      -0.5419614146     -2.5030358219      0.1914598161
H       0.2620575453      1.9826006739     -2.6005980338
H       1.2658923866      0.7182055710      5.1503110475
H      -2.6446998802      1.5039747236     -2.5618476835
H       1.3414274159     -3.8915132500     -5.4918730394
H       1.4582982479     -2.3057095675      7.5137212968
H      -4.1525854711     -0.2926331907      2.4529530232
12
Frame=347  time=174.000fs  energy=-306.19358012Ha  molecule=COOCCCHHHHHH
C      -0.2898110538      0.5328005255     -0.5097141720
O       0.3530286110      0.4514817792      0.2785355078
O       2.4781764138      1.1865255538     -0.0316579043
C      -0.6965339877      1.4307046138     -1.2966259957
C       0.4510565022      2.3984091101      0.8681986289
C      -0.5415663269     -2.5067775033      0.1919714642
H       0.2683950179      1.9851981188     -2.6068876681
H       1.2662100334      0.7116480676      5.1663736532
H      -2.6505566652      1.4981168276     -2.5698541095
H       1.3448260693     -3.8971525698     -5.5076799936
H       1.4653608499     -2.3083695473      7.5334715477
H      -4.1608094210     -0.2886581040      2.4628879528
12
Frame=348  time=174.500fs  energy=-306.19358012Ha  molecule=COOCCCHHHHHH
C      -0.2904763399      0.5343268605     -0.5110342944
O       0.3501876592      0.4531565541      0.2792016454
O       2.4796103190      1.1876439624     -0.0317722348
C      -0.6965324896      1.4308397734     -1.3002361666
C       0.4529448013      2.3979545916      0.8705697005
C      -0.5411713104     -2.5105185109      0.1924830202
H       0.2747313493      1.9877950959     -2.6131761699
H       1.2665276229      0.7050917450      5.1824333666
H      -2.6564123957      1.4922599863     -2.5778590938
H       1.3482241108     -3.9027908743     -5.5234841015
H       1.4724221803     -2.3110290481      7.5532182424
H      -4.1690318900     -0.2846837331      2.4728210935
12
Frame=349  time=175.000fs  energy=-306.19358012Ha  molecule=COOCCCHHHHHH
C      -0.2911415065      0.5358529212     -0.5123541796
O       0.3473472179      0.4548310281      0.2798676632
O       2.4810439665      1.1887621701     -0.0318865448
C      -0.6965309917      1.4309749087     -1.3038456887
C       0.4548327612      2.3975001548      0.8729403461
C      -0.5407763649     -2.5142588464      0.1929944842
H       0.2810665421      1.9903916065     -2.6194635418
H       1.2668451554      0.6985366003      5.1984901944
H      -2.6622670740      1.4864041974     -2.5858626398
H       1.3516215417     -3.9084281656     -5.5392853699
H       1.4794822419     -2.3136880711      7.5729613891
H      -4.1772528817     -0.2807100763      2.4827524494
12
Frame=350  time=175.500fs  energy=-306.19358012Ha  molecule=COOCCCHHHHHH
C      -0.2918065539      0.5373787082     -0.5136738281
O       0.3445072859      0.4565052019      0.2805335617
O       2.4824773569      1.1898801773     -0.0320008344
C      -0.6965294941      1.4311100198     -1.3074545637
C       0.4567203825      2.3970457994      0.8753105667
C      -0.5403814901     -2.5179985113      0.1935058565
H       0.2874005992      1.9929876515     -2.6257497865
H       1.2671626309      0.6919826310      5.2145441434
H      -2.6681207026      1.4805494583     -2.5938647508
H       1.3550183635     -3.9140644463     -5.5550838052
H       1.4865410377     -2.3163466174      7.5927009959
H      -4.1854723994     -0.2767371320      2.4926820247
12
Frame=351  time=176.000fs  energy=-306.19358012Ha  molecule=COOCCCHHHHHH
C      -0.2924714822      0.5389042224     -0.5149932405
O       0.3416678620      0.4581790762      0.2811993410
O       2.4839104909      1.1909979845     -0.0321151035
C      -0.6965279968      1.4312451068     -1.3110627931
C       0.4586076662      2.3965915253      0.8776803632
C      -0.5399866860     -2.5217375072      0.1940171374
H       0.2937335230      1.9955832321     -2.6320349064
H       1.2674800497      0.6854298342      5.2305952202
H      -2.6739732840      1.4746957668     -2.6018654302
H       1.3584145775     -3.9196997185     -5.5708794140
H       1.4935985706     -2.3190046880      7.6124370712
H      -4.1936904465     -0.2727648984      2.5026098236
12
Frame=352  time=176.500fs  energy=-306.19358012Ha  molecule=COOCCCHHHHHH
C      -0.2931362919      0.5404294641     -0.5163124174
O       0.3388289450      0.4598526516      0.2818650014
O       2.4853433691      1.1921155921     -0.0322293521
C      -0.6965264998      1.4313801696     -1.3146703783
C       0.4604946129      2.3961373324      0.8800497367
C      -0.5395919524     -2.5254758355      0.1945283270
H       0.3000653163      1.9981783493     -2.6383189044
H       1.2677974118      0.6788782072      5.2466434315
H      -2.6798248205      1.4688431202     -2.6098646813
H       1.3618101853     -3.9253339847     -5.5866722029
H       1.5006548436     -2.3216622840      7.6321696231
H      -4.2019070266     -0.2687933740      2.5125358501
12
Frame=353  time=177.000fs  energy=-306.19358012Ha  molecule=COOCCCHHHHHH
C      -0.2938009831      0.5419544342     -0.5176313593
O       0.3359905337      0.4615259289      0.2825305433
O       2.4867759920      1.1932330006     -0.0323435805
C      -0.6965250030      1.4315152083     -1.3182773208
C       0.4623812235      2.3956832203      0.8824186881
C      -0.5391972891     -2.5292134979      0.1950394255
H       0.3063959816      2.0007730042     -2.6446017828
H       1.2681147173      0.6723277473      5.2626887839
H      -2.6856753147      1.4629915163     -2.6178625074
H       1.3652051882     -3.9309672473     -5.6024621785
H       1.5077098596     -2.3243194067      7.6518986599
H      -4.2101221429     -0.2648225570      2.5224601083
12
Frame=354  time=177.500fs  energy=-306.19358012Ha  molecule=COOCCCHHHHHH
C      -0.2944655561      0.5434791332     -0.5189500667
O       0.3331526269      0.4631989087      0.2831959669
O       2.4882083602      1.1943502105     -0.0324577885
C      -0.6965235065      1.4316502231     -1.3218836222
C       0.4642674987      2.3952291890      0.8847872183
C      -0.5388026960     -2.5329504958      0.1955504331
H       0.3127255216      2.0033671978     -2.6508835445
H       1.2684319665      0.6657784519      5.2787312841
H      -2.6915247688      1.4571409525     -2.6258589118
H       1.3685995875     -3.9365995084     -5.6182493473
H       1.5147636214     -2.3269760570      7.6716241896
H      -4.2183357989     -0.2608524460      2.5323826025
12
Frame=355  time=178.000fs  energy=-306.19358012Ha  molecule=COOCCCHHHHHH
C      -0.2951300113      0.5450035617     -0.5202685403
O       0.3303152236      0.4648715918      0.2838612724
O       2.4896404744      1.1954672222     -0.0325719763
C      -0.6965220102      1.4317852139     -1.3254892839
C       0.4661534393      2.3947752382      0.8871553285
C      -0.5384081729     -2.5366868309      0.1960613501
H       0.3190539388      2.0059609313     -2.6571641919
H       1.2687491593      0.6592303182      5.2947709388
H      -2.6973731854      1.4512914265     -2.6338538978
H       1.3719933848     -3.9422307706     -5.6340337158
H       1.5218161321     -2.3296322361      7.6913462204
H      -4.2265479980     -0.2568830391      2.5423033366
12
Frame=356  time=178.500fs  energy=-306.19358012Ha  molecule=COOCCCHHHHHH
C      -0.2957943489      0.5465277204     -0.5215867804
O       0.3274783224      0.4665439789      0.2845264602
O       2.4910723351      1.1965840362     -0.0326861438
C      -0.6965205142      1.4319201808     -1.3290943074
C       0.4680390462      2.3943213678      0.8895230195
C      -0.5380137196     -2.5404225047      0.1965721767
H       0.3253812359      2.0085542058     -2.6634437276
H       1.2690662961      0.6526833434      5.3108077544
H      -2.7032205668      1.4454429358     -2.6418474687
H       1.3753865814     -3.9478610360     -5.6498152905
H       1.5288673945     -2.3322879451      7.7110647605
H      -4.2347587436     -0.2529143348      2.5522223147
12
Frame=357  time=179.000fs  energy=-306.19358012Ha  molecule=COOCCCHHHHHH
C      -0.2964585692      0.5480516099     -0.5229047877
O       0.3246419223      0.4682160705      0.2851915305
O       2.4925039429      1.1977006530     -0.0328002912
C      -0.6965190185      1.4320551238     -1.3326986942
C       0.4699243200      2.3938675775      0.8918902923
C      -0.5376193359     -2.5441575187      0.1970829131
H       0.3317074156      2.0111470222     -2.6697221543
H       1.2693833768      0.6461375250      5.3268417377
H      -2.7090669155      1.4395954781     -2.6498396278
H       1.3787791787     -3.9534903070     -5.6655940778
H       1.5359174115     -2.3349431850      7.7307798180
H      -4.2429680390     -0.2489463314      2.5621395410
12
Frame=358  time=179.500fs  energy=-306.19358012Ha  molecule=COOCCCHHHHHH
C      -0.2971226723      0.5495752309     -0.5242225628
O       0.3218060221      0.4698878675      0.2858564835
O       2.4939352984      1.1988170729     -0.0329144185
C      -0.6965175230      1.4321900431     -1.3363024457
C       0.4718092615      2.3934138672      0.8942571479
C      -0.5372250218     -2.5478918745      0.1975935594
H       0.3380324803      2.0137393816     -2.6759994744
H       1.2697004016      0.6395928602      5.3428728952
H      -2.7149122339      1.4337490510     -2.6578303784
H       1.3821711781     -3.9591185859     -5.6813700844
H       1.5429661861     -2.3375979569      7.7504914009
H      -4.2511758876     -0.2449790274      2.5720550195
12
Frame=359  time=180.000fs  energy=-306.19358012Ha  molecule=COOCCCHHHHHH
C      -0.2977866587      0.5510985839     -0.5255401061
O       0.3189706206      0.4715593705      0.2865213197
O       2.4953664022      1.1999332966     -0.0330285257
C      -0.6965160278      1.4323249387     -1.3399055635
C       0.4736938716      2.3929602367      0.8966235873
C      -0.5368307770     -2.5516255735      0.1981041160
H       0.3443564327      2.0163312852     -2.6822756907
H       1.2700173707      0.6330493463      5.3589012334
H      -2.7207565242      1.4279036519     -2.6658197238
H       1.3855625809     -3.9647458750     -5.6971433166
H       1.5500137211     -2.3402522620      7.7701995173
H      -4.2593822927     -0.2410124210      2.5819687542
12
Frame=360  time=180.500fs  energy=-306.19358012Ha  molecule=COOCCCHHHHHH
C      -0.2984505286      0.5526216696     -0.5268574182
O       0.3161357167      0.4732305802      0.2871860392
O       2.4967972548      1.2010493244     -0.0331426129
C      -0.6965145329      1.4324598106     -1.3435080491
C       0.4755781509      2.3925066857      0.8989896114
C      -0.5364366014     -2.5553586174      0.1986145830
H       0.3506792753      2.0189227340     -2.6885508055
H       1.2703342841      0.6265069807      5.3749267590
H      -2.7265997891      1.4220592787     -2.6738076671
H       1.3889533887     -3.9703721766     -5.7129137809
H       1.5570600193     -2.3429061013      7.7899041754
H      -4.2675872578     -0.2370465107      2.5918807493
12
Frame=361  time=181.000fs  energy=-306.19358012Ha  molecule=COOCCCHHHHHH
C      -0.2991142822      0.5541444885     -0.5281744996
O       0.3133013091      0.4749014972      0.2878506423
O       2.4982278569      1.2021651567     -0.0332566801
C      -0.6965130382      1.4325946588     -1.3471099038
C       0.4774621003      2.3920532142      0.9013552212
C      -0.5360424948     -2.5590910075      0.1991249605
H       0.3570010108      2.0215137289     -2.6948248216
H       1.2706511421      0.6199657607      5.3909494784
H      -2.7324420307      1.4162159288     -2.6817942118
H       1.3923436027     -3.9759974931     -5.7286814837
H       1.5641050837     -2.3455594759      7.8096053830
H      -4.2757907862     -0.2330812949      2.6017910088
12
Frame=362  time=181.500fs  energy=-306.19358012Ha  molecule=COOCCCHHHHHH
C      -0.2997779199      0.5556670415     -0.5294913509
O       0.3104673969      0.4765721223      0.2885151292
O       2.4996582091      1.2032807941     -0.0333707274
C      -0.6965115438      1.4327294835     -1.3507111292
C       0.4793457205      2.3915998220      0.9037204177
C      -0.5356484570     -2.5628227456      0.1996352489
H       0.3633216417      2.0241042712     -2.7010977414
H       1.2709679447      0.6134256836      5.4069693983
H      -2.7382832515      1.4103735999     -2.6897793609
H       1.3957332243     -3.9816218266     -5.7444464314
H       1.5711489172     -2.3482123869      7.8293031484
H      -4.2839928812     -0.2291167719      2.6116995366
12
Frame=363  time=182.000fs  energy=-306.19358012Ha  molecule=COOCCCHHHHHH
C      -0.3004414418      0.5571893289     -0.5308079726
O       0.3076339787      0.4782424560      0.2891795003
O       2.5010883118      1.2043962369     -0.0334847548
C      -0.6965100496      1.4328642847     -1.3543117266
C       0.4812290123      2.3911465088      0.9060852018
C      -0.5352544880     -2.5665538329      0.2001454483
H       0.3696411706      2.0266943617     -2.7073695676
H       1.2712846921      0.6068867468      5.4229865250
H      -2.7441234539      1.4045322896     -2.6977631179
H       1.3991222549     -3.9872451796     -5.7602086305
H       1.5781915225     -2.3508648354      7.8489974793
H      -4.2921935461     -0.2251529401      2.6216063369
12
Frame=364  time=182.500fs  energy=-306.19358012Ha  molecule=COOCCCHHHHHH
C      -0.3011048484      0.5587113515     -0.5321243653
O       0.3048010534      0.4799124992      0.2898437558
O       2.5025181657      1.2055114857     -0.0335987623
C      -0.6965085557      1.4329990625     -1.3579116977
C       0.4831119765      2.3906932744      0.9084495745
C      -0.5348605875     -2.5702842712      0.2006555590
H       0.3759596001      2.0292840017     -2.7136403026
H       1.2716013843      0.6003489476      5.4390008651
H      -2.7499626403      1.3986919956     -2.7057454858
H       1.4025106960     -3.9928675542     -5.7759680874
H       1.5852329026     -2.3535168223      7.8686883840
H      -4.3003927844     -0.2211897979      2.6315114137
12
Frame=365  time=183.000fs  energy=-306.19358012Ha  molecule=COOCCCHHHHHH
C      -0.3017681397      0.5602331099     -0.5334405294
O       0.3019686200      0.4815822525      0.2905078960
O       2.5039477715      1.2066265409     -0.0337127501
C      -0.6965070621      1.4331338168     -1.3615110438
C       0.4849946137      2.3902401187      0.9108135367
C      -0.5344667554     -2.5740140618      0.2011655811
H       0.3822769326      2.0318731921     -2.7199099490
H       1.2719180216      0.5938122834      5.4550124251
H      -2.7558008130      1.3928527155     -2.7137264680
H       1.4058985488     -3.9984889527     -5.7917248084
H       1.5922730603     -2.3561683489      7.8883758702
H      -4.3085905992     -0.2172273438      2.6414147709
12
Frame=366  time=183.500fs  energy=-306.19358012Ha  molecule=COOCCCHHHHHH
C      -0.3024313161      0.5617546047     -0.5347564655
O       0.2991366772      0.4832517165      0.2911719212
O       2.5053771295      1.2077414030     -0.0338267181
C      -0.6965055687      1.4332685478     -1.3651097664
C       0.4868769249      2.3897870416      0.9131770894
C      -0.5340729915     -2.5777432064      0.2016755149
H       0.3885931708      2.0344619340     -2.7261785093
H       1.2722346040      0.5872767516      5.4710212115
H      -2.7616379743      1.3870144469     -2.7217060677
H       1.4092858147     -4.0041093775     -5.8074787999
H       1.5993119984     -2.3588194162      7.9080599461
H      -4.3167869939     -0.2132655760      2.6513164125
12
Frame=367  time=184.000fs  energy=-306.19358012Ha  molecule=COOCCCHHHHHH
C      -0.3030943779      0.5632758364     -0.5360721742
O       0.2963052240      0.4849208920      0.2918358316
O       2.5068062405      1.2088560723     -0.0339406664
C      -0.6965040756      1.4334032556     -1.3687078670
C       0.4887589107      2.3893340427      0.9155402336
C      -0.5336792957     -2.5814717063      0.2021853605
H       0.3949083173      2.0370502284     -2.7324459860
H       1.2725511318      0.5807423494      5.4870272307
H      -2.7674741266      1.3811771874     -2.7296842881
H       1.4126724951     -4.0097288308     -5.8232300682
H       1.6063497199     -2.3614700253      7.9277406194
H      -4.3249819719     -0.2093044930      2.6612163427
12
Frame=368  time=184.500fs  energy=-306.19358012Ha  molecule=COOCCCHHHHHH
C      -0.3037573254      0.5647968058     -0.5373876559
O       0.2934742591      0.4865897795      0.2924996274
O       2.5082351050      1.2099705493     -0.0340545951
C      -0.6965025827      1.4335379400     -1.3723053469
C       0.4906405718      2.3888811220      0.9179029702
C      -0.5332856678     -2.5851995632      0.2026951182
H       0.4012223744      2.0396380764     -2.7387123817
H       1.2728676049      0.5742090743      5.5030304891
H      -2.7733092723      1.3753409348     -2.7376611323
H       1.4160585914     -4.0153473148     -5.8389786197
H       1.6133862274     -2.3641201771      7.9474178982
H      -4.3331755363     -0.2053440933      2.6711145652
12
Frame=369  time=185.000fs  energy=-306.19358012Ha  molecule=COOCCCHHHHHH
C      -0.3044201587      0.5663175135     -0.5387029112
O       0.2906437814      0.4882583799      0.2931633090
O       2.5096637236      1.2110848346     -0.0341685041
C      -0.6965010901      1.4336726013     -1.3759022077
C       0.4925219092      2.3884282792      0.9202653001
C      -0.5328921076     -2.5889267784      0.2032047881
H       0.4075353449      2.0422254789     -2.7449776989
H       1.2731840235      0.5676769236      5.5190309932
H      -2.7791434137      1.3695056867     -2.7456366037
H       1.4194441049     -4.0209648318     -5.8547244608
H       1.6204215239     -2.3667698728      7.9670917903
H      -4.3413676906     -0.2013843752      2.6810110842
12
Frame=370  time=185.500fs  energy=-306.19358012Ha  molecule=COOCCCHHHHHH
C      -0.3050828782      0.5678379599     -0.5400179406
O       0.2878137899      0.4899266936      0.2938268767
O       2.5110920969      1.2121989285     -0.0342823936
C      -0.6964995978      1.4338072395     -1.3794984508
C       0.4944029234      2.3879755143      0.9226272243
C      -0.5324986151     -2.5926533536      0.2037143705
H       0.4138472312      2.0448124372     -2.7512419402
H       1.2735003878      0.5611458948      5.5350287493
H      -2.7849765532      1.3636714407     -2.7536107054
H       1.4228290369     -4.0265813840     -5.8704675976
H       1.6274556122     -2.3694191135      7.9867623037
H      -4.3495584379     -0.1974253371      2.6909059035
12
Frame=371  time=186.000fs  energy=-306.19358012Ha  molecule=COOCCCHHHHHH
C      -0.3057454842      0.5693581458     -0.5413327447
O       0.2849842833      0.4915947215      0.2944903306
O       2.5125202253      1.2133128314     -0.0343962636
C      -0.6964981057      1.4339418546     -1.3830940775
C       0.4962836152      2.3875228269      0.9249887437
C      -0.5321051899     -2.5963792901      0.2042238656
H       0.4201580358      2.0473989521     -2.7575051079
H       1.2738166979      0.5546159851      5.5510237640
H      -2.7908086931      1.3578381945     -2.7615834405
H       1.4262133889     -4.0321969738     -5.8862080366
H       1.6344884950     -2.3720679002      8.0064294461
H      -4.3577477817     -0.1934669775      2.7007990272
12
Frame=372  time=186.500fs  energy=-306.19358012Ha  molecule=COOCCCHHHHHH
C      -0.3064079768      0.5708780717     -0.5426473239
O       0.2821552605      0.4932624641      0.2951536711
O       2.5139481095      1.2144265439     -0.0345101141
C      -0.6964966138      1.4340764467     -1.3866890894
C       0.4981639855      2.3870702169      0.9273498594
C      -0.5317118320     -2.6001045895      0.2047332735
H       0.4264677613      2.0499850247     -2.7637672046
H       1.2741329539      0.5480871921      5.5670160435
H      -2.7966398356      1.3520059458     -2.7695548123
H       1.4295971622     -4.0378116033     -5.9019457840
H       1.6415201752     -2.3747162339      8.0260932255
H      -4.3659357250     -0.1895092948      2.7106904592
12
Frame=373  time=187.000fs  energy=-306.19358012Ha  molecule=COOCCCHHHHHH
C      -0.3070703564      0.5723977383     -0.5439616789
O       0.2793267205      0.4949299221      0.2958168984
O       2.5153757502      1.2155400664     -0.0346239451
C      -0.6964951222      1.4342110158     -1.3902834880
C       0.5000440349      2.3866176841      0.9297105721
C      -0.5313185413     -2.6038292532      0.2052425946
H       0.4327764101      2.0525706560     -2.7700282328
H       1.2744491559      0.5415595131      5.5830055943
H      -2.8024699832      1.3461746922     -2.7775248240
H       1.4329803581     -4.0434252747     -5.9176808461
H       1.6485506556     -2.3773641158      8.0457536497
H      -4.3741222712     -0.1855522873      2.7205802034
12
Frame=374  time=187.500fs  energy=-306.19358012Ha  molecule=COOCCCHHHHHH
C      -0.3077326232      0.5739171462     -0.5452758100
O       0.2764986621      0.4965970963      0.2964800127
O       2.5168031477      1.2166533993     -0.0347377568
C      -0.6964936309      1.4343455620     -1.3938772745
C       0.5019237643      2.3861652284      0.9320708830
C      -0.5309253175     -2.6075532828      0.2057518289
H       0.4390839849      2.0551558471     -2.7762881950
H       1.2747653041      0.5350329455      5.5989924227
H      -2.8082991382      1.3403444315     -2.7854934787
H       1.4363629780     -4.0490379904     -5.9334132291
H       1.6555799390     -2.3800115468      8.0654107264
H      -4.3823074236     -0.1815959536      2.7304682638
12
Frame=375  time=188.000fs  energy=-306.19358012Ha  molecule=COOCCCHHHHHH
C      -0.3083947775      0.5754362959     -0.5465897179
O       0.2736710841      0.4982639872      0.2971430144
O       2.5182303027      1.2177665430     -0.0348515492
C      -0.6964921398      1.4344800854     -1.3974704504
C       0.5038031742      2.3857128495      0.9344307928
C      -0.5305321605     -2.6112766797      0.2062609767
H       0.4453904880      2.0577405990     -2.7825470937
H       1.2750813986      0.5285074867      5.6149765350
H      -2.8141273028      1.3345151613     -2.7934607796
H       1.4397450232     -4.0546497525     -5.9491429392
H       1.6626080282     -2.3826585280      8.0850644636
H      -4.3904911854     -0.1776402921      2.7403546443
12
Frame=376  time=188.500fs  energy=-306.19358012Ha  molecule=COOCCCHHHHHH
C      -0.3090568196      0.5769551881     -0.5479034031
O       0.2708439855      0.4999305955      0.2978059037
O       2.5196572158      1.2188794980     -0.0349653223
C      -0.6964906490      1.4346145859     -1.4010630173
C       0.5056822656      2.3852605474      0.9367903025
C      -0.5301390702     -2.6149994453      0.2067700382
H       0.4516959220      2.0603249127     -2.7888049314
H       1.2753974395      0.5219831342      5.6309579376
H      -2.8199544794      1.3286868793     -2.8014267298
H       1.4431264951     -4.0602605633     -5.9648699828
H       1.6696349259     -2.3853050605      8.1047148689
H      -4.3986735598     -0.1736853011      2.7502393487
12
Frame=377  time=189.000fs  energy=-306.19358012Ha  molecule=COOCCCHHHHHH
C      -0.3097187496      0.5784738234     -0.5492168660
O       0.2680173651      0.5015969220      0.2984686809
O       2.5210838875      1.2199922647     -0.0350790761
C      -0.6964891584      1.4347490637     -1.4046549764
C       0.5075610391      2.3848083217      0.9391494132
C      -0.5297460463     -2.6187215813      0.2072790136
H       0.4580002894      2.0629087893     -2.7950617104
H       1.2757134270      0.5154598853      5.6469366368
H      -2.8257806703      1.3228595833     -2.8093913325
H       1.4465073949     -4.0658704250     -5.9805943660
H       1.6766606350     -2.3879511454      8.1243619502
H      -4.4068545501     -0.1697309791      2.7601223811
12
Frame=378  time=189.500fs  energy=-306.19358012Ha  molecule=COOCCCHHHHHH
C      -0.3103805680      0.5799922023     -0.5505301072
O       0.2651912219      0.5032629671      0.2991313462
O       2.5225103184      1.2211048436     -0.0351928107
C      -0.6964876681      1.4348835188     -1.4082463292
C       0.5094394955      2.3843561724      0.9415081256
C      -0.5293530888     -2.6224430889      0.2077879030
H       0.4643035927      2.0654922297     -2.8013174334
H       1.2760293611      0.5089377374      5.6629126389
H      -2.8316058777      1.3170332708     -2.8173545908
H       1.4498877241     -4.0714793397     -5.9963160950
H       1.6836851581     -2.3905967835      8.1440057152
H      -4.4150341596     -0.1657773246      2.7700037453
12
Frame=379  time=190.000fs  energy=-306.19358012Ha  molecule=COOCCCHHHHHH
C      -0.3110422748      0.5815103254     -0.5518431273
O       0.2623655546      0.5049287316      0.2997938999
O       2.5239365091      1.2222172352     -0.0353065262
C      -0.6964861780      1.4350179512     -1.4118370771
C       0.5113176355      2.3839040993      0.9438664407
C      -0.5289601975     -2.6261639698      0.2082967068
H       0.4706058342      2.0680752350     -2.8075721027
H       1.2763452420      0.5024166882      5.6788859502
H      -2.8374301040      1.3112079396     -2.8253165079
H       1.4532674839     -4.0770873098     -6.0120351761
H       1.6907084981     -2.3932419761      8.1636461716
H      -4.4232123913     -0.1618243361      2.7798834451
12
Frame=380  time=190.500fs  energy=-306.19358012Ha  molecule=COOCCCHHHHHH
C      -0.3117038705      0.5830281935     -0.5531559266
O       0.2595403622      0.5065942162      0.3004563423
O       2.5253624600      1.2233294397     -0.0354202225
C      -0.6964846882      1.4351523611     -1.4154272216
C       0.5131954598      2.3834521021      0.9462243595
C      -0.5285673723     -2.6298842253      0.2088054250
H       0.4769070167      2.0706578062     -2.8138257209
H       1.2766610698      0.4958967348      5.6948565769
H      -2.8432533515      1.3053835875     -2.8332770869
H       1.4566466757     -4.0826943373     -6.0277516153
H       1.6977306578     -2.3958867241      8.1832833271
H      -4.4313892485     -0.1578720118      2.7897614846
12
Frame=381  time=191.000fs  energy=-306.19358012Ha  molecule=COOCCCHHHHHH
C      -0.3123653552      0.5845458070     -0.5544685059
O       0.2567156436      0.5082594215      0.3011186735
O       2.5267881719      1.2244414578     -0.0355338998
C      -0.6964831987      1.4352867484     -1.4190167639
C       0.5150729693      2.3830001807      0.9485818829
C      -0.5281746128     -2.6336038569      0.2093140580
H       0.4832071424      2.0732399443     -2.8200782903
H       1.2769768446      0.4893778749      5.7108245254
H      -2.8490756224      1.2995602122     -2.8412363308
H       1.4600253008     -4.0883004246     -6.0434654188
H       1.7047516398     -2.3985310286      8.2029171895
H      -4.4395647345     -0.1539203504      2.7996378675
12
Frame=382  time=191.500fs  energy=-306.19358012Ha  molecule=COOCCCHHHHHH
C      -0.3130267292      0.5860631665     -0.5557808654
O       0.2538913977      0.5099243481      0.3017808939
O       2.5282136451      1.2255532898     -0.0356475581
C      -0.6964817093      1.4354211132     -1.4226057057
C       0.5169501645      2.3825483349      0.9509390118
C      -0.5277819192     -2.6373228661      0.2098226058
H       0.4895062138      2.0758216503     -2.8263298134
H       1.2772925666      0.4828601058      5.7267898018
H      -2.8548969191      1.2937378112     -2.8491942429
H       1.4634033606     -4.0939055737     -6.0591765929
H       1.7117714470     -2.4011748906      8.2225477665
H      -4.4477388525     -0.1499693503      2.8095125977
12
Frame=383  time=192.000fs  energy=-306.19358012Ha  molecule=COOCCCHHHHHH
C      -0.3136879928      0.5875802727     -0.5570930059
O       0.2510676234      0.5115889967      0.3024430038
O       2.5296388803      1.2266649361     -0.0357611974
C      -0.6964802203      1.4355554556     -1.4261940481
C       0.5188270463      2.3820965646      0.9532957471
C      -0.5273892911     -2.6410412543      0.2103310687
H       0.4958042335      2.0784029252     -2.8325802927
H       1.2776082359      0.4763434250      5.7427524125
H      -2.8607172437      1.2879163825     -2.8571508263
H       1.4667808563     -4.0995097870     -6.0748851436
H       1.7187900821     -2.4038183112      8.2421750656
H      -4.4559116055     -0.1460190098      2.8193856791
12
Frame=384  time=192.500fs  energy=-306.19358012Ha  molecule=COOCCCHHHHHH
C      -0.3143491462      0.5890971261     -0.5584049277
O       0.2482443196      0.5132533680      0.3031050033
O       2.5310638781      1.2277763972     -0.0358748177
C      -0.6964787314      1.4356897756     -1.4297817927
C       0.5207036154      2.3816448696      0.9556520897
C      -0.5269967284     -2.6447590230      0.2108394469
H       0.5021012038      2.0809837700     -2.8388297306
H       1.2779238526      0.4698278299      5.7587123635
H      -2.8665365986      1.2820959237     -2.8651060839
H       1.4701577892     -4.1051130665     -6.0905910771
H       1.7258075477     -2.4064612913      8.2617990945
H      -4.4640829969     -0.1420693275      2.8292571155
12
Frame=385  time=193.000fs  energy=-306.19358012Ha  molecule=COOCCCHHHHHH
C      -0.3150101896      0.5906137273     -0.5597166314
O       0.2454214851      0.5149174626      0.3037668928
O       2.5324886390      1.2288876735     -0.0359884192
C      -0.6964772429      1.4358240733     -1.4333689408
C       0.5225798725      2.3811932496      0.9580080406
C      -0.5266042309     -2.6484761736      0.2113477406
H       0.5083971273      2.0835641858     -2.8450781294
H       1.2782394168      0.4633133181      5.7746696612
H      -2.8723549860      1.2762764326     -2.8730600190
H       1.4735341608     -4.1107154144     -6.1062943994
H       1.7328238467     -2.4091038320      8.2814198610
H      -4.4722530298     -0.1381203019      2.8391269107
12
Frame=386  time=193.500fs  energy=-306.19358012Ha  molecule=COOCCCHHHHHH
C      -0.3156711235      0.5921300769     -0.5610281175
O       0.2425991189      0.5165812811      0.3044286724
O       2.5339131635      1.2299987655     -0.0361020018
C      -0.6964757545      1.4359583487     -1.4369554939
C       0.5244558184      2.3807417046      0.9603636006
C      -0.5262117986     -2.6521927075      0.2118559499
H       0.5146920063      2.0861441735     -2.8513254918
H       1.2785549287      0.4567998870      5.7906243118
H      -2.8781724082      1.2704579069     -2.8810126346
H       1.4769099722     -4.1163168330     -6.1219951167
H       1.7398389817     -2.4117459343      8.3010373725
H      -4.4804217073     -0.1341719314      2.8489950687
12
Frame=387  time=194.000fs  energy=-306.19358012Ha  molecule=COOCCCHHHHHH
C      -0.3163319479      0.5936461756     -0.5623393865
O       0.2397772199      0.5182448242      0.3050903425
O       2.5353374522      1.2311096736     -0.0362155656
C      -0.6964742665      1.4360926019     -1.4405414532
C       0.5263314537      2.3802902343      0.9627187708
C      -0.5258194313     -2.6559086262      0.2123640751
H       0.5209858433      2.0887237342     -2.8575718200
H       1.2788703883      0.4502875341      5.8065763213
H      -2.8839888674      1.2646403443     -2.8889639338
H       1.4802852248     -4.1219173243     -6.1376932350
H       1.7468529555     -2.4143875993      8.3206516367
H      -4.4885890327     -0.1302242145      2.8588615931
12
Frame=388  time=194.500fs  energy=-306.19358012Ha  molecule=COOCCCHHHHHH
C      -0.3169926632      0.5951620238     -0.5636504389
O       0.2369557870      0.5199080925      0.3057519034
O       2.5367615056      1.2322203982     -0.0363291107
C      -0.6964727786      1.4362268329     -1.4441268203
C       0.5282067793      2.3798388386      0.9650735519
C      -0.5254271287     -2.6596239312      0.2128721164
H       0.5272786408      2.0913028687     -2.8638171165
H       1.2791857959      0.4437762568      5.8225256960
H      -2.8898043659      1.2588237426     -2.8969139197
H       1.4836599200     -4.1275168906     -6.1533887604
H       1.7538657709     -2.4170288280      8.3402626612
H      -4.4967550090     -0.1262771496      2.8687264879
12
Frame=389  time=195.000fs  energy=-306.19358012Ha  molecule=COOCCCHHHHHH
C      -0.3176532695      0.5966776222     -0.5649612753
O       0.2341348191      0.5215710867      0.3064133552
O       2.5381853244      1.2333309397     -0.0364426370
C      -0.6964712910      1.4363610417     -1.4477115964
C       0.5300817957      2.3793875173      0.9674279449
C      -0.5250348908     -2.6633386239      0.2133800740
H       0.5335704011      2.0938815782     -2.8700613836
H       1.2795011514      0.4372660527      5.8384724420
H      -2.8956189059      1.2530080996     -2.9048625953
H       1.4870340589     -4.1331155340     -6.1690816990
H       1.7608774303     -2.4196696214      8.3598704535
H      -4.5049196395     -0.1223307352      2.8785897568
12
Frame=390  time=195.500fs  energy=-306.19358012Ha  molecule=COOCCCHHHHHH
C      -0.3183137673      0.5981929713     -0.5662718961
O       0.2313143151      0.5232338074      0.3070746982
O       2.5396089090      1.2344412985     -0.0365561447
C      -0.6964698037      1.4364952285     -1.4512957830
C       0.5319565038      2.3789362702      0.9697819508
C      -0.5246427174     -2.6670527056      0.2138879480
H       0.5398611267      2.0964598636     -2.8763046239
H       1.2798164551      0.4307569192      5.8544165655
H      -2.9014324897      1.2471934130     -2.9128099637
H       1.4904076429     -4.1387132567     -6.1847720568
H       1.7678879367     -2.4223099804      8.3794750212
H      -4.5130829273     -0.1183849699      2.8884514037
12
Frame=391  time=196.000fs  energy=-306.19358012Ha  molecule=COOCCCHHHHHH
C      -0.3189741566      0.5997080718     -0.5675823018
O       0.2284942740      0.5248962553      0.3077359327
O       2.5410322600      1.2355514752     -0.0366696337
C      -0.6964683166      1.4366293933     -1.4548793815
C       0.5338309043      2.3784850972      0.9721355703
C      -0.5242506084     -2.6707661779      0.2143957387
H       0.5461508200      2.0990377259     -2.8825468397
H       1.2801317070      0.4242488539      5.8703580726
H      -2.9072451195      1.2413796805     -2.9207560279
H       1.4937806734     -4.1443100608     -6.2004598398
H       1.7748972927     -2.4249499062      8.3990763719
H      -4.5212448755     -0.1144398520      2.8983114323
12
Frame=392  time=196.500fs  energy=-306.19358012Ha  molecule=COOCCCHHHHHH
C      -0.3196344378      0.6012229242     -0.5688924929
O       0.2256746946      0.5265584309      0.3083970589
O       2.5424553779      1.2366614701     -0.0367831042
C      -0.6964668297      1.4367635361     -1.4584623931
C       0.5357049978      2.3780339980      0.9744888045
C      -0.5238585636     -2.6744790421      0.2149034462
H       0.5524394834      2.1016151662     -2.8887880333
H       1.2804469074      0.4177418542      5.8862969694
H      -2.9130567976      1.2355669001     -2.9287007910
H       1.4971531515     -4.1499059485     -6.2161450541
H       1.7819055010     -2.4275893997      8.4186745129
H      -4.5294054872     -0.1104953802      2.9081698463
12
Frame=393  time=197.000fs  energy=-306.19358012Ha  molecule=COOCCCHHHHHH
C      -0.3202946112      0.6027375290     -0.5702024700
O       0.2228555759      0.5282203350      0.3090580771
O       2.5438782633      1.2377712836     -0.0368965561
C      -0.6964653431      1.4368976570     -1.4620448194
C       0.5375787851      2.3775829725      0.9768416541
C      -0.5234665828     -2.6781912997      0.2154110708
H       0.5587271194      2.1041921852     -2.8950282072
H       1.2807620562      0.4112359176      5.9022332620
H      -2.9188675260      1.2297550693     -2.9366442561
H       1.5005250786     -4.1555009219     -6.2318277057
H       1.7889125642     -2.4302284620      8.4382694519
H      -4.5375647656     -0.1065515528      2.9180266497
12
Frame=394  time=197.500fs  energy=-306.19358012Ha  molecule=COOCCCHHHHHH
C      -0.3209546769      0.6042518870     -0.5715122335
O       0.2200369169      0.5298819681      0.3097189875
O       2.5453009167      1.2388809162     -0.0370099895
C      -0.6964638567      1.4370317560     -1.4656266616
C       0.5394522670      2.3771320206      0.9791941202
C      -0.5230746659     -2.6819029521      0.2159186126
H       0.5650137302      2.1067687842     -2.9012673638
H       1.2810771536      0.4047310417      5.9181669565
H      -2.9246773072      1.2239441861     -2.9445864262
H       1.5038964560     -4.1610949832     -6.2475078005
H       1.7959184850     -2.4328670940      8.4578611964
H      -4.5457227138     -0.1026083683      2.9278818461
12
Frame=395  time=198.000fs  energy=-306.19358012Ha  molecule=COOCCCHHHHHH
C      -0.3216146352      0.6057659986     -0.5728217839
O       0.2172187163      0.5315433310      0.3103797905
O       2.5467233387      1.2399903683     -0.0371234045
C      -0.6964623706      1.4371658333     -1.4692079211
C       0.5413254441      2.3766811420      0.9815462036
C      -0.5226828128     -2.6856140006      0.2164260719
H       0.5712993184      2.1093449640     -2.9075055054
H       1.2813921998      0.3982272240      5.9340980590
H      -2.9304861432      1.2181342481     -2.9525273042
H       1.5072672850     -4.1666881344     -6.2631853445
H       1.8029232662     -2.4355052967      8.4774497537
H      -4.5538793349     -0.0986658254      2.9377354392
12
Frame=396  time=198.500fs  energy=-306.19358012Ha  molecule=COOCCCHHHHHH
C      -0.3222744864      0.6072798644     -0.5741311218
O       0.2144009732      0.5332044241      0.3110404861
O       2.5481455298      1.2410996402     -0.0372368011
C      -0.6964608847      1.4372998887     -1.4727885993
C       0.5431983171      2.3762303366      0.9838979052
C      -0.5222910233     -2.6893244468      0.2169334488
H       0.5775838863      2.1119207257     -2.9137426345
H       1.2817071949      0.3917244621      5.9500265755
H      -2.9362940364      1.2123252532     -2.9604668933
H       1.5106375668     -4.1722803777     -6.2788603437
H       1.8099269103     -2.4381430713      8.4970351313
H      -4.5620346320     -0.0947239224      2.9475874329
12
Frame=397  time=199.000fs  energy=-306.19358012Ha  molecule=COOCCCHHHHHH
C      -0.3229342307      0.6087934850     -0.5754402476
O       0.2115836865      0.5348652482      0.3117010748
O       2.5495674906      1.2422087326     -0.0373501793
C      -0.6964593991      1.4374339224     -1.4763686976
C       0.5450708868      2.3757796043      0.9862492259
C      -0.5218992972     -2.6930342921      0.2174407435
H       0.5838674363      2.1144960701     -2.9199787533
H       1.2820221389      0.3852227533      5.9659525121
H      -2.9421009888      1.2065171992     -2.9684051963
H       1.5140073027     -4.1778717153     -6.2945328040
H       1.8169294200     -2.4407804186      8.5166173368
H      -4.5701886081     -0.0907826578      2.9574378309
12
Frame=398  time=199.500fs  energy=-306.19358012Ha  molecule=COOCCCHHHHHH
C      -0.3235938684      0.6103068610     -0.5767491618
O       0.2087668551      0.5365258039      0.3123615566
O       2.5509892215      1.2433176456     -0.0374635392
C      -0.6964579136      1.4375679345     -1.4799482172
C       0.5469431538      2.3753289447      0.9886001666
C      -0.5215076345     -2.6967435377      0.2179479562
H       0.5901499708      2.1170709983     -2.9262138642
H       1.2823370321      0.3787220954      5.9818758747
H      -2.9479070028      1.2007100839     -2.9763422165
H       1.5173764940     -4.1834621492     -6.3102027314
H       1.8239307980     -2.4434173396      8.5361963774
H      -4.5783412665     -0.0868420302      2.9672866369
12
Frame=399  time=200.000fs  energy=-306.19358012Ha  molecule=COOCCCHHHHHH
C      -0.3242533997      0.6118199930     -0.5780578649
O       0.2059504780      0.5381860918      0.3130219320
O       2.5524107232      1.2444263799     -0.0375768808
C      -0.6964564285      1.4377019250     -1.4835271596
C       0.5488151189      2.3748783579      0.9909507282
C      -0.5211160349     -2.7004521852      0.2184550872
H       0.5964314921      2.1196455113     -2.9324479697
H       1.2826518744      0.3722224857      5.9977966695
H      -2.9537120804      1.1949039051     -2.9842779567
H       1.5207451420     -4.1890516815     -6.3258701318
H       1.8309310470     -2.4460538354      8.5557722606
H      -4.5864926101     -0.0829020382      2.9771338547
12
Frame=400  time=200.500fs  energy=-306.19358012Ha  molecule=COOCCCHHHHHH
C      -0.3249128249      0.6133328814     -0.5793663575
O       0.2031345540      0.5398461125      0.3136822011
O       2.5538319961      1.2455349357     -0.0376902041
C      -0.6964549435      1.4378358939     -1.4871055261
C       0.5506867828      2.3744278436      0.9933009115
C      -0.5207244984     -2.7041602359      0.2189621365
H       0.6027120026      2.1222196100     -2.9386810720
H       1.2829666661      0.3657239220      6.0137149025
H      -2.9595162239      1.1890986606     -2.9922124199
H       1.5241132479     -4.1946403145     -6.3415350111
H       1.8379301695     -2.4486899070      8.5753449938
H      -4.5946426421     -0.0789626801      2.9869794879
12
Frame=401  time=201.000fs  energy=-306.19358012Ha  molecule=COOCCCHHHHHH
C      -0.3255721442      0.6148455270     -0.5806746399
O       0.2003190822      0.5415058667      0.3143423642
O       2.5552530408      1.2466433136     -0.0378035093
C      -0.6964534588      1.4379698413     -1.4906833180
C       0.5525581462      2.3739774015      0.9956507175
C      -0.5203330247     -2.7078676912      0.2194691044
H       0.6089915047      2.1247932954     -2.9449131735
H       1.2832814072      0.3592264017      6.0296305795
H      -2.9653194355      1.1832943481     -3.0001456091
H       1.5274808130     -4.2002280501     -6.3571973752
H       1.8449281682     -2.4513255553      8.5949145843
H      -4.6027913655     -0.0750239545      2.9968235402
12
Frame=402  time=201.500fs  energy=-306.19358012Ha  molecule=COOCCCHHHHHH
C      -0.3262313579      0.6163579302     -0.5819827128
O       0.1975040615      0.5431653550      0.3150024215
O       2.5566738579      1.2477515138     -0.0379167963
C      -0.6964519744      1.4381037672     -1.4942605368
C       0.5544292097      2.3735270317      0.9980001470
C      -0.5199416137     -2.7115745525      0.2199759911
H       0.6152700008      2.1273665685     -2.9511442765
H       1.2835960980      0.3527299223      6.0455437067
H      -2.9711217173      1.1774909656     -3.0080775273
H       1.5308478386     -4.2058148905     -6.3728572300
H       1.8519250457     -2.4539607813      8.6144810396
H      -4.6109387833     -0.0710858600      3.0066660155
12
Frame=403  time=202.000fs  energy=-306.19358012Ha  molecule=COOCCCHHHHHH
C      -0.3268904662      0.6178700916     -0.5832905765
O       0.1946894907      0.5448245780      0.3156623734
O       2.5580944478      1.2488595369     -0.0380300652
C      -0.6964504902      1.4382376717     -1.4978371836
C       0.5562999742      2.3730767339      1.0003492009
C      -0.5195502653     -2.7152808213      0.2204827967
H       0.6215474931      2.1299394302     -2.9573743834
H       1.2839107384      0.3462344815      6.0614542899
H      -2.9769230716      1.1716885108     -3.0160081775
H       1.5342143259     -4.2114008377     -6.3885145814
H       1.8589208047     -2.4565955861      8.6340443669
H      -4.6190848987     -0.0671483950      3.0165069172
12
Frame=404  time=202.500fs  energy=-306.19358012Ha  molecule=COOCCCHHHHHH
C      -0.3275494694      0.6193820118     -0.5845982317
O       0.1918753690      0.5464835363      0.3163222199
O       2.5595148111      1.2499673833     -0.0381433160
C      -0.6964490062      1.4383715549     -1.5014132600
C       0.5581704402      2.3726265078      1.0026978801
C      -0.5191589793     -2.7189864989      0.2209895216
H       0.6278239841      2.1325118815     -2.9636034965
H       1.2842253286      0.3397400769      6.0773623352
H      -2.9827235005      1.1658869816     -3.0239375627
H       1.5375802762     -4.2169858939     -6.4041694352
H       1.8659154478     -2.4592299706      8.6536045736
H      -4.6272297146     -0.0632115581      3.0263462492
12
Frame=405  time=203.000fs  energy=-306.19358012Ha  molecule=COOCCCHHHHHH
C      -0.3282083677      0.6208936914     -0.5859056786
O       0.1890616951      0.5481422306      0.3169819614
O       2.5609349484      1.2510750533     -0.0382565488
C      -0.6964475225      1.4385054168     -1.5049887671
C       0.5600406085      2.3721763535      1.0050461855
C      -0.5187677556     -2.7226915866      0.2214961657
H       0.6340994761      2.1350839233     -2.9698316182
H       1.2845398687      0.3332467059      6.0932678485
H      -2.9885230061      1.1600863759     -3.0318656857
H       1.5409456908     -4.2225700612     -6.4198217972
H       1.8729089776     -2.4618639357      8.6731616669
H      -4.6353732342     -0.0592753478      3.0361840151
12
Frame=406  time=203.500fs  energy=-306.19358012Ha  molecule=COOCCCHHHHHH
C      -0.3288671613      0.6224051309     -0.5872129180
O       0.1862484682      0.5498006614      0.3176415981
O       2.5623548601      1.2521825474     -0.0383697636
C      -0.6964460389      1.4386392573     -1.5085637064
C       0.5619104798      2.3717262706      1.0073941179
C      -0.5183765940     -2.7263960859      0.2220027294
H       0.6403739714      2.1376555566     -2.9760587507
H       1.2848543589      0.3267543662      6.1091708356
H      -2.9943215907      1.1542866913     -3.0397925497
H       1.5443105709     -4.2281533416     -6.4354716734
H       1.8799013966     -2.4644974826      8.6927156542
H      -4.6435154604     -0.0553397626      3.0460202186
12
Frame=407  time=204.000fs  energy=-306.19358012Ha  molecule=COOCCCHHHHHH
C      -0.3295258505      0.6239163309     -0.5885199501
O       0.1834356870      0.5514588294      0.3183011303
O       2.5637745468      1.2532898660     -0.0384829605
C      -0.6964445557      1.4387730767     -1.5121380792
C       0.5637800547      2.3712762591      1.0097416782
C      -0.5179854944     -2.7300999981      0.2225092128
H       0.6466474724      2.1402267825     -2.9822848963
H       1.2851687993      0.3202630553      6.1250713026
H      -3.0001192563      1.1484879259     -3.0477181574
H       1.5476749177     -4.2337357372     -6.4511190695
H       1.8868927076     -2.4671306121      8.7122665427
H      -4.6516563963     -0.0514048012      3.0558548633
12
Frame=408  time=204.500fs  energy=-306.19358012Ha  molecule=COOCCCHHHHHH
C      -0.3301844356      0.6254272919     -0.5898267756
O       0.1806233506      0.5531167352      0.3189605582
O       2.5651940090      1.2543970095     -0.0385961395
C      -0.6964430726      1.4389068750     -1.5157118867
C       0.5656493341      2.3708263187      1.0120888674
C      -0.5175944567     -2.7338033247      0.2230156162
H       0.6529199814      2.1427976017     -2.9885100575
H       1.2854831899      0.3137727709      6.1409692553
H      -3.0059160052      1.1426900774     -3.0556425119
H       1.5510387326     -4.2393172500     -6.4667639913
H       1.8938829130     -2.4697633252      8.7318143397
H      -4.6597960449     -0.0474704619      3.0656879529
12
Frame=409  time=205.000fs  energy=-306.19358012Ha  molecule=COOCCCHHHHHH
C      -0.3308429168      0.6269380145     -0.5911333949
O       0.1778114580      0.5547743795      0.3196198821
O       2.5666132472      1.2555039784     -0.0387093006
C      -0.6964415898      1.4390406521     -1.5192851304
C       0.5675183185      2.3703764493      1.0144356861
C      -0.5172034807     -2.7375060669      0.2235219396
H       0.6591915007      2.1453680153     -2.9947342365
H       1.2857975310      0.3072835105      6.1568646995
H      -3.0117118395      1.1368931437     -3.0635656161
H       1.5544020167     -4.2448978823     -6.4824064447
H       1.9008720156     -2.4723956230      8.7513590525
H      -4.6679344092     -0.0435367435      3.0755194910
12
Frame=410  time=205.500fs  energy=-306.19358012Ha  molecule=COOCCCHHHHHH
C      -0.3315012942      0.6284484992     -0.5924398085
O       0.1750000080      0.5564317627      0.3202791022
O       2.5680322620      1.2566107729     -0.0388224439
C      -0.6964401072      1.4391744081     -1.5228578115
C       0.5693870086      2.3699266508      1.0167821355
C      -0.5168125662     -2.7412082262      0.2240281833
H       0.6654620327      2.1479380242     -3.0009574355
H       1.2861118225      0.3007952718      6.1727576413
H      -3.0175067613      1.1310971226     -3.0714874729
H       1.5577647713     -4.2504776359     -6.4980464354
H       1.9078600177     -2.4750275063      8.7709006882
H      -4.6760714923     -0.0396036443      3.0853494813
12
Frame=411  time=206.000fs  energy=-306.19358012Ha  molecule=COOCCCHHHHHH
C      -0.3321595683      0.6299587467     -0.5937460169
O       0.1721889997      0.5580888856      0.3209382187
O       2.5694510538      1.2577173936     -0.0389355694
C      -0.6964386249      1.4393081432     -1.5264299314
C       0.5712554052      2.3694769229      1.0191282162
C      -0.5164217131     -2.7449098039      0.2245343475
H       0.6717315796      2.1505076295     -3.0071796569
H       1.2864260647      0.2943080524      6.1886480864
H      -3.0233007728      1.1253020120     -3.0794080852
H       1.5611269977     -4.2560565130     -6.5136839691
H       1.9148469222     -2.4776589762      8.7904392540
H      -4.6842072971     -0.0356711630      3.0951779274
12
Frame=412  time=206.500fs  energy=-306.19358012Ha  molecule=COOCCCHHHHHH
C      -0.3328177392      0.6314687574     -0.5950520205
O       0.1693784320      0.5597457488      0.3215972318
O       2.5708696233      1.2588238408     -0.0390486772
C      -0.6964371428      1.4394418572     -1.5300014913
C       0.5731235089      2.3690272655      1.0214739291
C      -0.5160309213     -2.7486108014      0.2250404323
H       0.6780001437      2.1530768319     -3.0134009030
H       1.2867402576      0.2878218497      6.2045360407
H      -3.0290938760      1.1195078098     -3.0873274560
H       1.5644886970     -4.2616345156     -6.5293190517
H       1.9218327314     -2.4802900336      8.8099747573
H      -4.6923418266     -0.0317392981      3.1050048329
12
Frame=413  time=207.000fs  energy=-306.19358012Ha  molecule=COOCCCHHHHHH
C      -0.3334758071      0.6329785320     -0.5963578199
O       0.1665683039      0.5614023528      0.3222561420
O       2.5722879709      1.2599301150     -0.0391617674
C      -0.6964356609      1.4395755504     -1.5335724927
C       0.5749913205      2.3685776784      1.0238192752
C      -0.5156401906     -2.7523112200      0.2255464380
H       0.6842677274      2.1556456325     -3.0196211761
H       1.2870544014      0.2813366616      6.2204215101
H      -3.0348860732      1.1137145139     -3.0952455881
H       1.5678498705     -4.2672116457     -6.5449516889
H       1.9288174480     -2.4829206795      8.8295072050
H      -4.7004750838     -0.0278080481      3.1148302014
12
Frame=414  time=207.500fs  energy=-306.19358012Ha  molecule=COOCCCHHHHHH
C      -0.3341337724      0.6344880710     -0.5976634155
O       0.1637586144      0.5630586983      0.3229149492
O       2.5737060972      1.2610362165     -0.0392748398
C      -0.6964341793      1.4397092227     -1.5371429367
C       0.5768588405      2.3681281615      1.0261642553
C      -0.5152495209     -2.7560110612      0.2260523648
H       0.6905343330      2.1582140322     -3.0258404784
H       1.2873684961      0.2748524856      6.2363045003
H      -3.0406773664      1.1079221221     -3.1031624846
H       1.5712105195     -4.2727879055     -6.5605818864
H       1.9358010746     -2.4855509148      8.8490366045
H      -4.7086070717     -0.0238774117      3.1246540365
12
Frame=415  time=208.000fs  energy=-306.19358012Ha  molecule=COOCCCHHHHHH
C      -0.3347916351      0.6359973748     -0.5989688077
O       0.1609493624      0.5647147858      0.3235736539
O       2.5751240026      1.2621421457     -0.0393878947
C      -0.6964326979      1.4398428742     -1.5407128248
C       0.5787260698      2.3676787146      1.0285088702
C      -0.5148589120     -2.7597103261      0.2265582127
H       0.6967999627      2.1607820319     -3.0320588122
H       1.2876825419      0.2683693193      6.2521850172
H      -3.0464677578      1.1021306323     -3.1110781482
H       1.5745706451     -4.2783632970     -6.5762096500
H       1.9427836137     -2.4881807406      8.8685629628
H      -4.7167377933     -0.0199473874      3.1344763418
12
Frame=416  time=208.500fs  energy=-306.19358012Ha  molecule=COOCCCHHHHHH
C      -0.3354493957      0.6375064442     -0.6002739971
O       0.1581405469      0.5663706160      0.3242322563
O       2.5765416877      1.2632479032     -0.0395009320
C      -0.6964312167      1.4399765049     -1.5442821581
C       0.5805930089      2.3672293375      1.0308531207
C      -0.5144683639     -2.7634090163      0.2270639820
H       0.7030646189      2.1633496326     -3.0382761798
H       1.2879965390      0.2618871603      6.2680630665
H      -3.0522572495      1.0963400423     -3.1189925818
H       1.5779302487     -4.2839378221     -6.5918349853
H       1.9497650678     -2.4908101577      8.8880862871
H      -4.7248672516     -0.0160179737      3.1442971210
12
Frame=417  time=209.000fs  energy=-306.19358012Ha  molecule=COOCCCHHHHHH
C      -0.3361070543      0.6390152796     -0.6015789842
O       0.1553321669      0.5680261895      0.3248907565
O       2.5779591530      1.2643534891     -0.0396139517
C      -0.6964297357      1.4401101149     -1.5478509381
C       0.5824596585      2.3667800301      1.0331970079
C      -0.5140778762     -2.7671071331      0.2275696730
H       0.7093283038      2.1659168353     -3.0444925835
H       1.2883104873      0.2554060064      6.2839386542
H      -3.0580458436      1.0905503502     -3.1269057884
H       1.5812893314     -4.2895114830     -6.6074578980
H       1.9567454395     -2.4934391672      8.9076065845
H      -4.7329954494     -0.0120891693      3.1541163775
12
Frame=418  time=209.500fs  energy=-306.19358012Ha  molecule=COOCCCHHHHHH
C      -0.3367646111      0.6405238816     -0.6028837694
O       0.1525242213      0.5696815069      0.3255491549
O       2.5793763991      1.2654589041     -0.0397269540
C      -0.6964282550      1.4402437042     -1.5514191660
C       0.5843260194      2.3663307922      1.0355405324
C      -0.5136874490     -2.7708046777      0.2280752857
H       0.7155910197      2.1684836407     -3.0507080255
H       1.2886243871      0.2489258551      6.2998117858
H      -3.0638335422      1.0847615537     -3.1348177708
H       1.5846478944     -4.2950842816     -6.6230783939
H       1.9637247313     -2.4960677699      8.9271238621
H      -4.7411223898     -0.0081609726      3.1639341150
12
Frame=419  time=210.000fs  energy=-306.19358012Ha  molecule=COOCCCHHHHHH
C      -0.3374220665      0.6420322507     -0.6041883532
O       0.1497167092      0.5713365687      0.3262074516
O       2.5807934263      1.2665641484     -0.0398399388
C      -0.6964267745      1.4403772729     -1.5549868431
C       0.5861920922      2.3658816236      1.0378836952
C      -0.5132970821     -2.7745016516      0.2285808203
H       0.7218527689      2.1710500500     -3.0569225080
H       1.2889382384      0.2424467041      6.3156824673
H      -3.0696203474      1.0789736508     -3.1427285320
H       1.5880059390     -4.3006562200     -6.6386964785
H       1.9707029458     -2.4986959669      8.9466381270
H      -4.7492480757     -0.0042333823      3.1737503370
12
Frame=420  time=210.500fs  energy=-306.19358012Ha  molecule=COOCCCHHHHHH
C      -0.3380794205      0.6435403875     -0.6054927360
O       0.1469096295      0.5729913757      0.3268656469
O       2.5822102353      1.2676692225     -0.0399529063
C      -0.6964252942      1.4405108211     -1.5585539706
C       0.5880578776      2.3654325243      1.0402264971
C      -0.5129067752     -2.7781980561      0.2290862771
H       0.7281135536      2.1736160640     -3.0631360334
H       1.2892520414      0.2359685510      6.3315507043
H      -3.0754062613      1.0731866393     -3.1506380746
H       1.5913634664     -4.3062273001     -6.6543121576
H       1.9776800855     -2.5013237591      8.9661493862
H      -4.7573725101     -0.0003063969      3.1835650470
12
Frame=421  time=211.000fs  energy=-306.19358012Ha  molecule=COOCCCHHHHHH
C      -0.3387366736      0.6450482925     -0.6067969184
O       0.1441029812      0.5746459283      0.3275237411
O       2.5836268266      1.2687741268     -0.0400658563
C      -0.6964238142      1.4406443487     -1.5621205500
C       0.5899233762      2.3649834939      1.0425689389
C      -0.5125165284     -2.7818938925      0.2295916562
H       0.7343733761      2.1761816836     -3.0693486039
H       1.2895657962      0.2294913935      6.3474165025
H      -3.0811912859      1.0674005173     -3.1585464017
H       1.5947204777     -4.3117975241     -6.6699254368
H       1.9846561529     -2.5039511475      8.9856576468
H      -4.7654956959      0.0036199849      3.1933782487
12
Frame=422  time=211.500fs  energy=-306.19358012Ha  molecule=COOCCCHHHHHH
C      -0.3393938259      0.6465559663     -0.6081009008
O       0.1412967633      0.5763002272      0.3281817344
O       2.5850432006      1.2698788616     -0.0401787891
C      -0.6964223344      1.4407778558     -1.5656865824
C       0.5917885887      2.3645345324      1.0449110215
C      -0.5121263414     -2.7855891621      0.2300969578
H       0.7406322387      2.1787469098     -3.0755602217
H       1.2898795028      0.2230152293      6.3632798678
H      -3.0869754235      1.0616152825     -3.1664535161
H       1.5980769743     -4.3173668939     -6.6855363217
H       1.9916311505     -2.5065781329      9.0051629159
H      -4.7736176359      0.0075457646      3.2031899455
12
Frame=423  time=212.000fs  energy=-306.19358012Ha  molecule=COOCCCHHHHHH
C      -0.3400508776      0.6480634093     -0.6094046836
O       0.1384909748      0.5779542730      0.3288396270
O       2.5864593579      1.2709834274     -0.0402917045
C      -0.6964208548      1.4409113425     -1.5692520692
C       0.5936535159      2.3640856396      1.0472527457
C      -0.5117362141     -2.7892838663      0.2306021821
H       0.7468901436      2.1813117435     -3.0817708890
H       1.2901931615      0.2165400560      6.3791408058
H      -3.0927586760      1.0558309329     -3.1743594205
H       1.6014329573     -4.3229354115     -6.7011448180
H       1.9986050809     -2.5092047164      9.0246652004
H      -4.7817383333      0.0114709437      3.2130001411
12
Frame=424  time=212.500fs  energy=-306.19358012Ha  molecule=COOCCCHHHHHH
C      -0.3407078290      0.6495706223     -0.6107082674
O       0.1356856147      0.5796080662      0.3294974191
O       2.5878752990      1.2720878245     -0.0404046028
C      -0.6964193754      1.4410448088     -1.5728170116
C       0.5955181583      2.3636368154      1.0495941124
C      -0.5113461464     -2.7929780064      0.2311073293
H       0.7531470931      2.1838761856     -3.0879806081
H       1.2905067723      0.2100658713      6.3949993222
H      -3.0985410455      1.0500474665     -3.1822641179
H       1.6047884279     -4.3285030789     -6.7167509312
H       2.0055779465     -2.5118308988      9.0441645073
H      -4.7898577908      0.0153955234      3.2228088388
12
Frame=425  time=213.000fs  energy=-306.19358012Ha  molecule=COOCCCHHHHHH
C      -0.3413646803      0.6510776056     -0.6120116526
O       0.1328806819      0.5812616075      0.3301551110
O       2.5892910244      1.2731920534     -0.0405174838
C      -0.6964178963      1.4411782548     -1.5763814109
C       0.5973825167      2.3631880595      1.0519351225
C      -0.5109561380     -2.7966715838      0.2316123995
H       0.7594030894      2.1864402370     -3.0941893812
H       1.2908203352      0.2035926729      6.4108554227
H      -3.1043225342      1.0442648811     -3.1901676112
H       1.6081433873     -4.3340698982     -6.7323546670
H       2.0125497499     -2.5144566812      9.0636608438
H      -4.7979760113      0.0193195053      3.2326160423
12
Frame=426  time=213.500fs  energy=-306.19358012Ha  molecule=COOCCCHHHHHH
C      -0.3420214317      0.6525843598     -0.6133148397
O       0.1300761755      0.5829148975      0.3308127030
O       2.5907065346      1.2742961144     -0.0406303477
C      -0.6964164174      1.4413116805     -1.5799452684
C       0.5992465916      2.3627393718      1.0542757767
C      -0.5105661890     -2.8003645997      0.2321173929
H       0.7656581347      2.1890038987     -3.1003972105
H       1.2911338506      0.1971204585      6.4267091130
H      -3.1101031440      1.0384831747     -3.1980699030
H       1.6114978368     -4.3396358712     -6.7479560309
H       2.0195204935     -2.5170820645      9.0831542166
H      -4.8060929979      0.0232428908      3.2424217550
12
Frame=427  time=214.000fs  energy=-306.19358012Ha  molecule=COOCCCHHHHHH
C      -0.3426780836      0.6540908856     -0.6146178291
O       0.1272720945      0.5845679367      0.3314701952
O       2.5921218300      1.2754000080     -0.0407431944
C      -0.6964149387      1.4414450860     -1.5835085854
C       0.6011103839      2.3622907522      1.0566160758
C      -0.5101762991     -2.8040570555      0.2326223097
H       0.7719122313      2.1915671715     -3.1066040983
H       1.2914473183      0.1906492257      6.4425603987
H      -3.1158828771      1.0327023453     -3.2059709963
H       1.6148517775     -4.3452010001     -6.7635550285
H       2.0264901798     -2.5197070495      9.1026446329
H      -4.8142087533      0.0271656811      3.2522259805
12
Frame=428  time=214.500fs  energy=-306.19358012Ha  molecule=COOCCCHHHHHH
C      -0.3433346361      0.6555971833     -0.6159206214
O       0.1244684378      0.5862207257      0.3321275879
O       2.5935369113      1.2765037345     -0.0408560241
C      -0.6964134603      1.4415784713     -1.5870713631
C       0.6029738941      2.3618422005      1.0589560208
C      -0.5097864683     -2.8077489524      0.2331271501
H       0.7781653814      2.1941300564     -3.1128100467
H       1.2917607387      0.1841789723      6.4584092854
H      -3.1216617354      1.0269223907     -3.2138708938
H       1.6182052106     -4.3507652867     -6.7791516653
H       2.0334588113     -2.5223316373      9.1221320995
H      -4.8223232805      0.0310878778      3.2620287222
12
Frame=429  time=215.000fs  energy=-306.19358012Ha  molecule=COOCCCHHHHHH
C      -0.3439910894      0.6571032535     -0.6172232169
O       0.1216652045      0.5878732651      0.3327848814
O       2.5949517790      1.2776072944     -0.0409688367
C      -0.6964119820      1.4417118364     -1.5906336028
C       0.6048371228      2.3613937165      1.0612956125
C      -0.5093966963     -2.8114402919      0.2336319143
H       0.7844175873      2.1966925543     -3.1190150580
H       1.2920741117      0.1777096959      6.4742557789
H      -3.1274397211      1.0211433089     -3.2217695984
H       1.6215581373     -4.3563287331     -6.7947459470
H       2.0404263906     -2.5249558287      9.1416166233
H      -4.8304365823      0.0350094822      3.2718299836
12
Frame=430  time=215.500fs  energy=-306.19358012Ha  molecule=COOCCCHHHHHH
C      -0.3446474438      0.6586090969     -0.6185256161
O       0.1188623936      0.5895255556      0.3334420758
O       2.5963664334      1.2787106880     -0.0410816324
C      -0.6964105040      1.4418451815     -1.5941953058
C       0.6067000709      2.3609453001      1.0636348516
C      -0.5090069830     -2.8151310751      0.2341366024
H       0.7906688511      2.1992546661     -3.1252191343
H       1.2923874375      0.1712413943      6.4900998848
H      -3.1332168363      1.0153650979     -3.2296671128
H       1.6249105588     -4.3618913412     -6.8103378790
H       2.0473929200     -2.5275796248      9.1610982113
H      -4.8385486617      0.0389304957      3.2816297682
12
Frame=431  time=216.000fs  energy=-306.19358012Ha  molecule=COOCCCHHHHHH
C      -0.3453036996      0.6601147138     -0.6198278196
O       0.1160600041      0.5911775976      0.3340991714
O       2.5977808751      1.2798139157     -0.0411944111
C      -0.6964090262      1.4419785065     -1.5977564732
C       0.6085627388      2.3604969511      1.0659737390
C      -0.5086173283     -2.8188213035      0.2346412147
H       0.7969191751      2.2018163927     -3.1314222779
H       1.2927007161      0.1647740651      6.5059416085
H      -3.1389930828      1.0095877556     -3.2375634400
H       1.6282624763     -4.3674531130     -6.8259274668
H       2.0543584020     -2.5302030264      9.1805768705
H      -4.8466595214      0.0428509197      3.2914280795
12
Frame=432  time=216.500fs  energy=-306.19358012Ha  molecule=COOCCCHHHHHH
C      -0.3459598569      0.6616201049     -0.6211298276
O       0.1132580350      0.5928293918      0.3347561684
O       2.5991951047      1.2809169779     -0.0413071728
C      -0.6964075486      1.4421118115     -1.6013171065
C       0.6104251273      2.3600486693      1.0683122756
C      -0.5082277320     -2.8225109783      0.2351457512
H       0.8031685614      2.2043777350     -3.1376244910
H       1.2930139478      0.1583077062      6.5217809559
H      -3.1447684629      1.0038112800     -3.2454585825
H       1.6316138910     -4.3730140505     -6.8415147161
H       2.0613228391     -2.5328260344      9.2000526075
H      -4.8547691645      0.0467707556      3.3012249210
12
Frame=433  time=217.000fs  energy=-306.19358012Ha  molecule=COOCCCHHHHHH
C      -0.3466159159      0.6631252706     -0.6224316408
O       0.1104564852      0.5944809388      0.3354130671
O       2.6006091226      1.2820198749     -0.0414199177
C      -0.6964060713      1.4422450965     -1.6048772068
C       0.6122872371      2.3596004547      1.0706504622
C      -0.5078381941     -2.8262001008      0.2356502123
H       0.8094170124      2.2069386939     -3.1438257757
H       1.2933271326      0.1518423151      6.5376179323
H      -3.1505429785      0.9980356690     -3.2533525434
H       1.6349648040     -4.3785741556     -6.8570996322
H       2.0682862338     -2.5354486499      9.2195254294
H      -4.8628775937      0.0506900048      3.3110202960
12
Frame=434  time=217.500fs  energy=-306.19358012Ha  molecule=COOCCCHHHHHH
C      -0.3472718770      0.6646302116     -0.6237332596
O       0.1076553539      0.5961322391      0.3360698677
O       2.6020229293      1.2831226073     -0.0415326457
C      -0.6964045941      1.4423783616     -1.6084367754
C       0.6141490687      2.3591523070      1.0729882995
C      -0.5074487144     -2.8298886724      0.2361545980
H       0.8156645301      2.2094992704     -3.1500261342
H       1.2936402706      0.1453778897      6.5534525435
H      -3.1563166316      0.9922609206     -3.2612453252
H       1.6383152166     -4.3841334303     -6.8726822206
H       2.0752485885     -2.5380708736      9.2389953430
H      -4.8709848118      0.0546086686      3.3208142080
12
Frame=435  time=218.000fs  energy=-306.19358012Ha  molecule=COOCCCHHHHHH
C      -0.3479277404      0.6661349283     -0.6250346844
O       0.1048546400      0.5977832933      0.3367265704
O       2.6034365253      1.2842251753     -0.0416453570
C      -0.6964031172      1.4425116069     -1.6119958135
C       0.6160106229      2.3587042261      1.0753257884
C      -0.5070592927     -2.8335766943      0.2366589085
H       0.8219111167      2.2120594652     -3.1562255687
H       1.2939533620      0.1389144276      6.5692847949
H      -3.1620894244      0.9864870328     -3.2691369308
H       1.6416651298     -4.3896918765     -6.8882624869
H       2.0822099056     -2.5406927066      9.2584623551
H      -4.8790908218      0.0585267485      3.3306066606
12
Frame=436  time=218.500fs  energy=-306.19358012Ha  molecule=COOCCCHHHHHH
C      -0.3485835062      0.6676394212     -0.6263359157
O       0.1020543426      0.5994341020      0.3373831754
O       2.6048499111      1.2853275794     -0.0417580515
C      -0.6964016405      1.4426448324     -1.6155543224
C       0.6178719003      2.3582562118      1.0776629298
C      -0.5066699289     -2.8372641677      0.2371631440
H       0.8281567746      2.2146192794     -3.1624240814
H       1.2942664068      0.1324519265      6.5851146921
H      -3.1678613587      0.9807140035     -3.2770273630
H       1.6450145450     -4.3952494962     -6.9038404365
H       2.0891701876     -2.5433141497      9.2779264725
H      -4.8871956265      0.0624442457      3.3403976570
12
Frame=437  time=219.000fs  energy=-306.19358012Ha  molecule=COOCCCHHHHHH
C      -0.3492391747      0.6691436909     -0.6276369539
O       0.0992544607      0.6010846658      0.3380396830
O       2.6062630872      1.2864298199     -0.0418707292
C      -0.6964001641      1.4427780381     -1.6191123034
C       0.6197329015      2.3578082640      1.0799997244
C      -0.5062806229     -2.8409510941      0.2376673047
H       0.8344015058      2.2171787137     -3.1686216745
H       1.2945794052      0.1259903844      6.6009422407
H      -3.1736324367      0.9749418308     -3.2849166245
H       1.6483634632     -4.4008062914     -6.9194160748
H       2.0961294369     -2.5459352038      9.2973877021
H      -4.8952992286      0.0663611617      3.3501872007
12
Frame=438  time=219.500fs  energy=-306.19358012Ha  molecule=COOCCCHHHHHH
C      -0.3498947462      0.6706477379     -0.6289377995
O       0.0964549932      0.6027349852      0.3386960935
O       2.6076760541      1.2875318973     -0.0419833903
C      -0.6963986878      1.4429112240     -1.6226697576
C       0.6215936273      2.3573603825      1.0823361730
C      -0.5058913745     -2.8446374746      0.2381713908
H       0.8406453125      2.2197377692     -3.1748183500
H       1.2948923572      0.1195297988      6.6167674462
H      -3.1794026603      0.9691705126     -3.2928047180
H       1.6517118856     -4.4063622639     -6.9349894072
H       2.1030876560     -2.5485558700      9.3168460507
H      -4.9034016312      0.0702774979      3.3599752952
12
Frame=439  time=220.000fs  energy=-306.19358012Ha  molecule=COOCCCHHHHHH
C      -0.3505502208      0.6721515628     -0.6302384530
O       0.0936559393      0.6043850609      0.3393524070
O       2.6090888123      1.2886338118     -0.0420960348
C      -0.6963972118      1.4430443903     -1.6262266864
C       0.6234540781      2.3569125671      1.0846722766
C      -0.5055021836     -2.8483233106      0.2386754025
H       0.8468881969      2.2222964467     -3.1810141102
H       1.2952052630      0.1130701675      6.6325903141
H      -3.1851720316      0.9634000468     -3.3006916464
H       1.6550598134     -4.4119174157     -6.9505604393
H       2.1100448472     -2.5511761490      9.3363015249
H      -4.9115028368      0.0741932555      3.3697619439
12
Frame=440  time=220.500fs  energy=-306.19358012Ha  molecule=COOCCCHHHHHH
C      -0.3512055988      0.6736551660     -0.6315389147
O       0.0908572979      0.6060348933      0.3400086237
O       2.6105013622      1.2897355640     -0.0422086626
C      -0.6963957360      1.4431775370     -1.6297830908
C       0.6253142548      2.3564648178      1.0870080358
C      -0.5051130500     -2.8520086034      0.2391793398
H       0.8531301612      2.2248547470     -3.1872089572
H       1.2955181226      0.1066114883      6.6484108498
H      -3.1909405526      0.9576304316     -3.3085774123
H       1.6584072478     -4.4174717487     -6.9661291763
H       2.1170010130     -2.5537960418      9.3557541317
H      -4.9196028485      0.0781084361      3.3795471501
12
Frame=441  time=221.000fs  energy=-306.19358012Ha  molecule=COOCCCHHHHHH
C      -0.3518608805      0.6751585480     -0.6328391852
O       0.0880590681      0.6076844831      0.3406647440
O       2.6119137044      1.2908371541     -0.0423212739
C      -0.6963942604      1.4433106641     -1.6333389723
C       0.6271741579      2.3560171343      1.0893434515
C      -0.5047239737     -2.8556933542      0.2396832030
H       0.8593712075      2.2274126711     -3.1934028932
H       1.2958309363      0.1001537589      6.6642290589
H      -3.1967082252      0.9518616649     -3.3164620185
H       1.6617541898     -4.4230252649     -6.9816956238
H       2.1239561559     -2.5564155494      9.3752038776
H      -4.9277016689      0.0820230408      3.3893309173
12
Frame=442  time=221.500fs  energy=-306.19358012Ha  molecule=COOCCCHHHHHH
C      -0.3525160659      0.6766617095     -0.6341392649
O       0.0852612489      0.6093338309      0.3413207679
O       2.6133258394      1.2919385825     -0.0424338686
C      -0.6963927850      1.4434437717     -1.6368943320
C       0.6290337881      2.3555695165      1.0916785245
C      -0.5043349545     -2.8593775643      0.2401869923
H       0.8656113380      2.2299702198     -3.1995959203
H       1.2961437041      0.0936969771      6.6800449469
H      -3.2024750514      0.9460937447     -3.3243454677
H       1.6651006408     -4.4285779662     -6.9972597871
H       2.1309102781     -2.5590346725      9.3946507696
H      -4.9357993009      0.0859370711      3.3991132488
12
Frame=443  time=222.000fs  energy=-306.19358012Ha  molecule=COOCCCHHHHHH
C      -0.3531711555      0.6781646509     -0.6354391543
O       0.0824638393      0.6109829372      0.3419766958
O       2.6147377676      1.2930398498     -0.0425464469
C      -0.6963913098      1.4435768598     -1.6404491711
C       0.6308931460      2.3551219643      1.0940132556
C      -0.5039459923     -2.8630612350      0.2406907078
H       0.8718505548      2.2325273941     -3.2057880406
H       1.2964564260      0.0872411407      6.6958585192
H      -3.2082410333      0.9403266690     -3.3322277627
H       1.6684466018     -4.4341298545     -7.0128216715
H       2.1378633821     -2.5616534122      9.4140948142
H      -4.9438957473      0.0898505284      3.4088941481
12
Frame=444  time=222.500fs  energy=-306.19358012Ha  molecule=COOCCCHHHHHH
C      -0.3538261493      0.6796673727     -0.6367388537
O       0.0796668385      0.6126318025      0.3426325279
O       2.6161494896      1.2941409561     -0.0426590087
C      -0.6963898349      1.4437099284     -1.6440034909
C       0.6327522322      2.3546744774      1.0963476457
C      -0.5035570868     -2.8667443675      0.2411943498
H       0.8780888602      2.2350841948     -3.2119792563
H       1.2967691023      0.0807862474      6.7116697813
H      -3.2140061729      0.9345604359     -3.3401089062
H       1.6717920739     -4.4396809317     -7.0283812825
H       2.1448154704     -2.5642717693      9.4335360182
H      -4.9519910109      0.0937634139      3.4186736184
12
Frame=445  time=223.000fs  energy=-306.19358012Ha  molecule=COOCCCHHHHHH
C      -0.3544810477      0.6811698755     -0.6380383637
O       0.0768702453      0.6142804275      0.3432882644
O       2.6175610057      1.2952419019     -0.0427715541
C      -0.6963883601      1.4438429776     -1.6475572926
C       0.6346110475      2.3542270557      1.0986816954
C      -0.5031682381     -2.8704269631      0.2416979183
H       0.8843262562      2.2376406228     -3.2181695695
H       1.2970817330      0.0743322951      6.7274787385
H      -3.2197704721      0.9287950432     -3.3479889008
H       1.6751370584     -4.4452311997     -7.0439386254
H       2.1517665453     -2.5668897447      9.4529743883
H      -4.9600850944      0.0976757290      3.4284516632
12
Frame=446  time=223.500fs  energy=-306.19358012Ha  molecule=COOCCCHHHHHH
C      -0.3551358508      0.6826721597     -0.6393376847
O       0.0740740589      0.6159288127      0.3439439055
O       2.6189723166      1.2963426876     -0.0428840832
C      -0.6963868856      1.4439760075     -1.6511105774
C       0.6364695924      2.3537796992      1.1010154057
C      -0.5027794459     -2.8741090231      0.2422014136
H       0.8905627450      2.2401966790     -3.2243589824
H       1.2973943183      0.0678792815      6.7432853964
H      -3.2255339328      0.9230304892     -3.3558677493
H       1.6784815564     -4.4507806605     -7.0594937054
H       2.1587166091     -2.5695073394      9.4724099311
H      -4.9681780007      0.1015874751      3.4382282858
12
Frame=447  time=224.000fs  energy=-306.19358012Ha  molecule=COOCCCHHHHHH
C      -0.3557905589      0.6841742259     -0.6406368172
O       0.0712782783      0.6175769587      0.3445994515
O       2.6203834226      1.2974433135     -0.0429965959
C      -0.6963854113      1.4441090181     -1.6546633465
C       0.6383278676      2.3533324075      1.1033487773
C      -0.5023907102     -2.8777905488      0.2427048358
H       0.8967983287      2.2427523643     -3.2305474970
H       1.2977068581      0.0614272044      6.7590897604
H      -3.2312965572      0.9172667717     -3.3637454543
H       1.6818255690     -4.4563293159     -7.0750465281
H       2.1656656643     -2.5721245542      9.4918426533
H      -4.9762697325      0.1054986535      3.4480034895
12
Frame=448  time=224.500fs  energy=-306.19358012Ha  molecule=COOCCCHHHHHH
C      -0.3564451722      0.6856760746     -0.6419357615
O       0.0684829025      0.6192248661      0.3452549025
O       2.6217943243      1.2985437800     -0.0431090923
C      -0.6963839372      1.4442420094     -1.6582156011
C       0.6401858737      2.3528851806      1.1056818110
C      -0.5020020307     -2.8814715413      0.2432081851
H       0.9030330095      2.2453076794     -3.2367351155
H       1.2980193527      0.0549760615      6.7748918358
H      -3.2370583471      0.9115038888     -3.3716220187
H       1.6851690974     -4.4618771678     -7.0905970986
H       2.1726137133     -2.5747413899      9.5112725616
H      -4.9843602925      0.1094092656      3.4577772778
12
Frame=449  time=225.000fs  energy=-306.19358012Ha  molecule=COOCCCHHHHHH
C      -0.3570996909      0.6871777064     -0.6432345181
O       0.0656879307      0.6208725353      0.3459102588
O       2.6232050222      1.2996440876     -0.0432215725
C      -0.6963824633      1.4443749815     -1.6617673426
C       0.6420436113      2.3524380184      1.1080145077
C      -0.5016134074     -2.8851520020      0.2437114617
H       0.9092667894      2.2478626254     -3.2429218400
H       1.2983318022      0.0485258508      6.7906916280
H      -3.2428193045      0.9057418386     -3.3794974450
H       1.6885121427     -4.4674242181     -7.1061454223
H       2.1795607583     -2.5773578476      9.5306996625
H      -4.9924496836      0.1133193126      3.4675496539
12
Frame=450  time=225.500fs  energy=-306.19358012Ha  molecule=COOCCCHHHHHH
C      -0.3577541152      0.6886791216     -0.6445330875
O       0.0628933617      0.6225199670      0.3465655207
O       2.6246155167      1.3007442365     -0.0433340364
C      -0.6963809896      1.4445079344     -1.6653185719
C       0.6439010811      2.3519909206      1.1103468680
C      -0.5012248401     -2.8888319321      0.2442146658
H       0.9154996707      2.2504172030     -3.2491076725
H       1.2986442066      0.0420765699      6.8064891425
H      -3.2485794313      0.8999806190     -3.3873717359
H       1.6918547060     -4.4729704688     -7.1216915045
H       2.1865068019     -2.5799739281      9.5501239628
H      -5.0005379085      0.1172287959      3.4773206211
12
Frame=451  time=226.000fs  energy=-306.19358012Ha  molecule=COOCCCHHHHHH
C      -0.3584084454      0.6901803208     -0.6458314701
O       0.0600991948      0.6241671617      0.3472206883
O       2.6260258083      1.3018442272     -0.0434464842
C      -0.6963795162      1.4446408682     -1.6688692905
C       0.6457582838      2.3515438871      1.1126788928
C      -0.5008363287     -2.8925113329      0.2447177974
H       0.9217316554      2.2529714131     -3.2552926153
H       1.2989565661      0.0356282168      6.8222843845
H      -3.2543387296      0.8942202282     -3.3952448941
H       1.6951967886     -4.4785159216     -7.1372353504
H       2.1934518462     -2.5825896323      9.5695454689
H      -5.0086249699      0.1211377169      3.4870901829
12
Frame=452  time=226.500fs  energy=-306.19358012Ha  molecule=COOCCCHHHHHH
C      -0.3590626817      0.6916813046     -0.6471296663
O       0.0573054289      0.6258141200      0.3478757618
O       2.6274358974      1.3029440600     -0.0435589158
C      -0.6963780429      1.4447737829     -1.6724194994
C       0.6476152198      2.3510969178      1.1150105829
C      -0.5004478731     -2.8961902056      0.2452208568
H       0.9279627456      2.2555252567     -3.2614766704
H       1.2992688807      0.0291807891      6.8380773595
H      -3.2600972013      0.8884606642     -3.4031169224
H       1.6985383914     -4.4840605785     -7.1527769654
H       2.2003958938     -2.5852049611      9.5889641875
H      -5.0167108706      0.1250460768      3.4968583424
12
Frame=453  time=227.000fs  energy=-306.19358012Ha  molecule=COOCCCHHHHHH
C      -0.3597168243      0.6931820735     -0.6484276766
O       0.0545120631      0.6274608425      0.3485307416
O       2.6288457847      1.3040437353     -0.0436713314
C      -0.6963765699      1.4449066786     -1.6759691999
C       0.6494718900      2.3506500125      1.1173419391
C      -0.5000594731     -2.8998685514      0.2457238442
H       0.9341929435      2.2580787345     -3.2676598398
H       1.2995811506      0.0227342849      6.8538680728
H      -3.2658548483      0.8827019250     -3.4109878232
H       1.7018795157     -4.4896044414     -7.1683163547
H       2.2073389469     -2.5878199153      9.6083801251
H      -5.0247956134      0.1289538770      3.5066251031
12
Frame=454  time=227.500fs  energy=-306.19358012Ha  molecule=COOCCCHHHHHH
C      -0.3603708734      0.6946826279     -0.6497255015
O       0.0517190964      0.6291073296      0.3491856277
O       2.6302554704      1.3051432534     -0.0437837308
C      -0.6963750971      1.4450395553     -1.6795183932
C       0.6513282948      2.3502031710      1.1196729622
C      -0.4996711286     -2.9035463716      0.2462267598
H       0.9404222511      2.2606318474     -3.2738421257
H       1.2998933759      0.0162887017      6.8696565297
H      -3.2716116726      0.8769440087     -3.4188575994
H       1.7052201626     -4.4951475120     -7.1838535234
H       2.2142810079     -2.5904344958      9.6277932884
H      -5.0328792009      0.1328611189      3.5163904681
12
Frame=455  time=228.000fs  energy=-306.19358012Ha  molecule=COOCCCHHHHHH
C      -0.3610248293      0.6961829683     -0.6510231413
O       0.0489265280      0.6307535820      0.3498404205
O       2.6316649552      1.3062426148     -0.0438961143
C      -0.6963736245      1.4451724131     -1.6830670804
C       0.6531844350      2.3497563933      1.1220036529
C      -0.4992828394     -2.9072236674      0.2467296036
H       0.9466506706      2.2631845964     -3.2800235301
H       1.3002055567      0.0098440376      6.8854427355
H      -3.2773676761      0.8711869133     -3.4267262536
H       1.7085603331     -4.5006897924     -7.1993884770
H       2.2212220792     -2.5930487036      9.6472036838
H      -5.0409616358      0.1367678036      3.5261544408
12
Frame=456  time=228.500fs  energy=-306.19358012Ha  molecule=COOCCCHHHHHH
C      -0.3616786921      0.6976830953     -0.6523205965
O       0.0461343568      0.6323996002      0.3504951202
O       2.6330742395      1.3073418198     -0.0440084817
C      -0.6963721521      1.4453052519     -1.6866152628
C       0.6550403111      2.3493096791      1.1243340121
C      -0.4988946056     -2.9109004401      0.2472323759
H       0.9528782040      2.2657369821     -3.2862040552
H       1.3005176931      0.0034002903      6.9012266956
H      -3.2831228607      0.8654306369     -3.4345937883
H       1.7119000285     -4.5062312843     -7.2149212205
H       2.2281621630     -2.5956625395      9.6666113178
H      -5.0490429209      0.1406739326      3.5359170245
12
Frame=457  time=229.000fs  energy=-306.19358012Ha  molecule=COOCCCHHHHHH
C      -0.3623324622      0.6991830094     -0.6536178675
O       0.0433425820      0.6340453847      0.3511497269
O       2.6344833237      1.3084408687     -0.0441208333
C      -0.6963706799      1.4454380719     -1.6901629415
C       0.6568959237      2.3488630283      1.1266640404
C      -0.4985064268     -2.9145766909      0.2477350768
H       0.9591048535      2.2682890056     -3.2923837030
H       1.3008297852     -0.0030425424      6.9170084152
H      -3.2888772284      0.8596751776     -3.4424602063
H       1.7152392499     -4.5117719897     -7.2304517593
H       2.2351012616     -2.5982760043      9.6860161971
H      -5.0571230590      0.1445795071      3.5456782225
12
Frame=458  time=229.500fs  energy=-306.19358012Ha  molecule=COOCCCHHHHHH
C      -0.3629861396      0.7006827110     -0.6549149548
O       0.0405512025      0.6356909362      0.3518042408
O       2.6358922084      1.3095397620     -0.0442331688
C      -0.6963692079      1.4455708731     -1.6937101178
C       0.6587512736      2.3484164408      1.1289937388
C      -0.4981183030     -2.9182524211      0.2482377065
H       0.9653306210      2.2708406676     -3.2985624755
H       1.3011418330     -0.0094844626      6.9327878997
H      -3.2946307812      0.8539205335     -3.4503255101
H       1.7185779983     -4.5173119103     -7.2459800984
H       2.2420393775     -2.6008890990      9.7054183280
H      -5.0652020526      0.1484845284      3.5554380380
12
Frame=459  time=230.000fs  energy=-306.19358012Ha  molecule=COOCCCHHHHHH
C      -0.3636397247      0.7021822007     -0.6562118588
O       0.0377602175      0.6373362551      0.3524586623
O       2.6373008939      1.3106385001     -0.0443454886
C      -0.6963677361      1.4457036555     -1.6972567928
C       0.6606063613      2.3479699164      1.1313231080
C      -0.4977302340     -2.9219276317      0.2487402652
H       0.9715555088      2.2733919691     -3.3047403749
H       1.3014538368     -0.0159254724      6.9485651542
H      -3.3003835208      0.8481667025     -3.4581897025
H       1.7219162749     -4.5228510480     -7.2615062431
H       2.2489765129     -2.6035018245      9.7248177170
H      -5.0732799046      0.1523889980      3.5651964742
