12
Frame=0  time=0.500fs  energy=-306.21108475Ha  molecule=COOCCCHHHHHH
C      -0.0117607807      0.0299085268     -0.0421427341
O       1.2511582469     -0.1330772597      0.0124768766
O       2.0827970012      0.9200114295      0.0316778959
C      -0.6871744244      1.3076952545     -0.0782366933
C      -0.1469263137      2.5316764922      0.0080892502
C      -0.7494861777     -1.2659794068      0.0163963505
H      -1.8045136810      1.2158837007     -0.1651084762
H       0.8843405321      2.6488942966      0.0635725825
H      -0.7681740599      3.4222894014     -0.0242079651
H       0.0130335692     -2.1254133205     -0.1155405589
H      -1.2798227262     -1.3723060915      0.9662125033
H      -1.5255708933     -1.3613515182     -0.7946369682
12
Frame=1  time=1.000fs  energy=-306.20290574Ha  molecule=COOCCCHHHHHH
C      -0.0107288902      0.0258095557     -0.0395852487
O       1.2523678921     -0.1331841997      0.0139014212
O       2.0862661319      0.9241819901      0.0296962698
C      -0.6807980756      1.3090548429     -0.0777742633
C      -0.1507354347      2.5286863772      0.0087698572
C      -0.7571686139     -1.2634202481      0.0212613581
H      -1.8205682805      1.2234305314     -0.1890911258
H       0.8519725798      2.6323914117      0.0558530918
H      -0.7395334558      3.4369751857     -0.0457840821
H       0.0414656218     -2.1438701067     -0.1339039270
H      -1.2910672067     -1.3632059544      0.9521868093
H      -1.5485841966     -1.3844473469     -0.8021972563
12
Frame=2  time=1.500fs  energy=-306.19776336Ha  molecule=COOCCCHHHHHH
C      -0.0099302736      0.0221127241     -0.0371869621
O       1.2536536638     -0.1333188745      0.0152968520
O       2.0895127383      0.9281964221      0.0277529411
C      -0.6755935910      1.3102832056     -0.0775928628
C      -0.1556670910      2.5254958257      0.0094632774
C      -0.7638263674     -1.2623603252      0.0249390843
H      -1.8275081949      1.2303958514     -0.2136051324
H       0.8432295140      2.6195540699      0.0500727626
H      -0.7149810265      3.4528802793     -0.0669174613
H       0.0574552886     -2.1480090622     -0.1510373005
H      -1.3039740302     -1.3555084948      0.9462635643
H      -1.5659101841     -1.4048175740     -0.8018449562
12
Frame=3  time=2.000fs  energy=-306.19824162Ha  molecule=COOCCCHHHHHH
C      -0.0094128543      0.0189439468     -0.0350109258
O       1.2550260006     -0.1334861381      0.0166592581
O       2.0924723758      0.9320037616      0.0258608994
C      -0.6718464805      1.3112529058     -0.0777934397
C      -0.1615235323      2.5222671042      0.0101761078
C      -0.7693208512     -1.2630163059      0.0272596887
H      -1.8239372408      1.2363900911     -0.2384976542
H       0.8591093995      2.6105168500      0.0466743734
H      -0.6956176771      3.4697002392     -0.0874542986
H       0.0590909222     -2.1362434343     -0.1662466786
H      -1.3181402417     -1.3496702266      0.9495991849
H      -1.5765108818     -1.4214806107     -0.7924244693
12
Frame=4  time=2.500fs  energy=-306.20143443Ha  molecule=COOCCCHHHHHH
C      -0.0091847448      0.0163934654     -0.0330730842
O       1.2564793929     -0.1336856941      0.0179892411
O       2.0951260853      0.9355598969      0.0240201077
C      -0.6697269712      1.3117667443     -0.0783857943
C      -0.1674554483      2.5193201074      0.0108433833
C      -0.7736934847     -1.2652955548      0.0283256458
H      -1.8101549599      1.2410861492     -0.2634024294
H       0.8924639773      2.6042405872      0.0459755978
H      -0.6824475755      3.4870250925     -0.1071890627
H       0.0466870093     -2.1099729635     -0.1785908785
H      -1.3322132691     -1.3461473081      0.9613376549
H      -1.5807149574     -1.4337501592     -0.7750595786
12
Frame=5  time=3.000fs  energy=-306.20300707Ha  molecule=COOCCCHHHHHH
C      -0.0092181036      0.0145179152     -0.0313722699
O       1.2579815332     -0.1339109590      0.0192888558
O       2.0974680107      0.9388116088      0.0222278846
C      -0.6692549179      1.3116137053     -0.0793383157
C      -0.1723301071      2.5170938655      0.0113598973
C      -0.7771328780     -1.2688133098      0.0284925591
H      -1.7882787360      1.2442100044     -0.2878050400
H       0.9318621203      2.5991245077      0.0482174802
H      -0.6758802295      3.5038116065     -0.1258338247
H       0.0228242407     -2.0734820485     -0.1870476467
H      -1.3440006675     -1.3453765174      0.9789966392
H      -1.5800774537     -1.4412237306     -0.7526980703
12
Frame=6  time=3.500fs  energy=-306.20079505Ha  molecule=COOCCCHHHHHH
C      -0.0094550135      0.0133247159     -0.0299224510
O       1.2594696044     -0.1341491597      0.0205611184
O       2.0994816047      0.9417028419      0.0204838903
C      -0.6702142890      1.3106533561     -0.0806462499
C      -0.1751912939      2.5160658563      0.0116507374
C      -0.7799862973     -1.2729139351      0.0283121058
H      -1.7625019489      1.2455343397     -0.3113143838
H       0.9660984859      2.5936475917      0.0536186708
H      -0.6750749602      3.5179890853     -0.1431060773
H      -0.0073987532     -2.0338904186     -0.1908989822
H      -1.3508303134     -1.3476964671      0.9991660810
H      -1.5770722756     -1.4438545206     -0.7291541552
12
Frame=7  time=4.000fs  energy=-306.19623721Ha  molecule=COOCCCHHHHHH
C      -0.0098211932      0.0127645781     -0.0287609433
O       1.2608629579     -0.1343837738      0.0218108643
O       2.1011377102      0.9441939056      0.0187879905
C      -0.6721399320      1.3088717377     -0.0823662394
C      -0.1755257498      2.5166354703      0.0117201895
C      -0.7827350105     -1.2767740969      0.0284041880
H      -1.7387047370      1.2448653424     -0.3338828264
H       0.9871494747      2.5867600246      0.0624048394
H      -0.6779746022      3.5268336891     -0.1588489920
H      -0.0369154397     -2.0002070676     -0.1900163466
H      -1.3501808644     -1.3532680524      1.0184484427
H      -1.5745070965     -1.4419541827     -0.7079819978
12
Frame=8  time=4.500fs  energy=-306.19350422Ha  molecule=COOCCCHHHHHH
C      -0.0102453014      0.0127499746     -0.0279287723
O       1.2620860306     -0.1345980667      0.0230442799
O       2.1024064020      0.9462713618      0.0171368346
C      -0.6744545745      1.3063771597     -0.0845951901
C      -0.1732656829      2.5190084078      0.0116363660
C      -0.7858563982     -1.2796133917      0.0292938046
H      -1.7229570559      1.2420489290     -0.3557495672
H       0.9911963520      2.5780342839      0.0747899531
H      -0.6822020767      3.5279919563     -0.1730624075
H      -0.0585733013     -1.9810575906     -0.1848197367
H      -1.3403926306     -1.3620538471      1.0343900795
H      -1.5748564198     -1.4360502491     -0.6917520005
12
Frame=9  time=5.000fs  energy=-306.19584574Ha  molecule=COOCCCHHHHHH
C      -0.0106752976      0.0131928103     -0.0274346675
O       1.2630874785     -0.1347776204      0.0242651932
O       2.1032687808      0.9479351685      0.0155259358
C      -0.6767016803      1.3033547529     -0.0874027101
C      -0.1686487975      2.5231134511      0.0114526618
C      -0.7895984902     -1.2809374605      0.0312771522
H      -1.7194296381      1.2370159165     -0.3770581290
H       0.9785241958      2.5677347065      0.0908730484
H      -0.6862879482      3.5205430664     -0.1857895434
H      -0.0676980000     -1.9818392460     -0.1759519670
H      -1.3212394690     -1.3738293924      1.0460557999
H      -1.5797617320     -1.4266710705     -0.6820203574
12
Frame=10  time=5.500fs  energy=-306.20193561Ha  molecule=COOCCCHHHHHH
C      -0.0110848113      0.0140313209     -0.0272289804
O       1.2638461958     -0.1349109521      0.0254698460
O       2.1037207647      0.9491767306      0.0139574824
C      -0.6787115323      1.3000327128     -0.0907687090
C      -0.1621175498      2.5285628352      0.0111338910
C      -0.7938127425     -1.2806918683      0.0343595221
H      -1.7289139733      1.2298554724     -0.3974531715
H       0.9531968695      2.5568712903      0.1104783065
H      -0.6903853621      3.5055335355     -0.1969666844
H      -0.0638549122     -2.0027869432     -0.1640136630
H      -1.2941871832     -1.3881488334      1.0540793925
H      -1.5897455704     -1.4142302806     -0.6795133541
12
Frame=11  time=6.000fs  energy=-306.20688003Ha  molecule=COOCCCHHHHHH
C      -0.0114699403      0.0152234831     -0.0272129619
O       1.2643679649     -0.1349892160      0.0266466454
O       2.1037710670      0.9499792234      0.0124433953
C      -0.6805875259      1.2966778399     -0.0945921330
C      -0.1543201947      2.5346890886      0.0105709558
C      -0.7979956619     -1.2792558002      0.0382798179
H      -1.7487929122      1.2208684960     -0.4161458011
H       0.9226116493      2.5470976613      0.1331102380
H      -0.6959432596      3.4856938755     -0.2064370502
H      -0.0507288573     -2.0390210497     -0.1496412049
H      -1.2621276310     -1.4043021177      1.0602989504
H      -1.6041161913     -1.3990821214     -0.6838576405
12
Frame=12  time=6.500fs  energy=-306.20731237Ha  molecule=COOCCCHHHHHH
C      -0.0118411189      0.0167200646     -0.0272809793
O       1.2646778769     -0.1350058940      0.0277819491
O       2.1034364181      0.9503425221      0.0109984461
C      -0.6825532346      1.2935873505     -0.0987698733
C      -0.1460967780      2.5406953330      0.0096796786
C      -0.8015285833     -1.2772799786      0.0426147712
H      -1.7743716155      1.2105450950     -0.4324613300
H       0.8961381578      2.5403169410      0.1581320271
H      -0.7045858679      3.4643974604     -0.2141322360
H      -0.0342205946     -2.0826149937     -0.1337793763
H      -1.2285473020     -1.4213776678      1.0671340612
H      -1.6211638262     -1.3816377345     -0.6930927475
12
Frame=13  time=7.000fs  energy=-306.20432262Ha  molecule=COOCCCHHHHHH
C      -0.0122148160      0.0184511773     -0.0273587608
O       1.2648101223     -0.1349567061      0.0288669410
O       2.1027369150      0.9503009755      0.0096296811
C      -0.6848059924      1.2910461755     -0.1032677175
C      -0.1383074791      2.5458733397      0.0084787640
C      -0.8039312764     -1.2754550874      0.0469217424
H      -1.8006217764      1.1994633817     -0.4463106336
H       0.8823768841      2.5381009251      0.1850303507
H      -0.7171164129      3.4444554468     -0.2202114527
H      -0.0200528066     -2.1254747658     -0.1177413717
H      -1.1965321388     -1.4384436444      1.0768852332
H      -1.6386917521     -1.3623897425     -0.7038354568
12
Frame=14  time=7.500fs  energy=-306.20121230Ha  molecule=COOCCCHHHHHH
C      -0.0126068141      0.0203376359     -0.0274073737
O       1.2647958905     -0.1348393792      0.0298993761
O       2.1016936492      0.9499104400      0.0083336773
C      -0.6874664539      1.2892730853     -0.1081164275
C      -0.1315592964      2.5497570042      0.0070703903
C      -0.8049580095     -1.2743308849      0.0508527113
H      -1.8233497615      1.1881869723     -0.4581207600
H       0.8861471779      2.5412434170      0.2135039722
H      -0.7333342392      3.4275242424     -0.2249999625
H      -0.0122917893     -2.1613829587     -0.1029453321
H      -1.1681972796     -1.4546972139      1.0911559135
H      -1.6546311939     -1.3418528323     -0.7122953782
12
Frame=15  time=8.000fs  energy=-306.20002282Ha  molecule=COOCCCHHHHHH
C      -0.0130269232      0.0223074477     -0.0274026498
O       1.2646538014     -0.1346532397      0.0308803222
O       2.1003296514      0.9492206781      0.0071029331
C      -0.6905915522      1.2883947776     -0.1133537370
C      -0.1260400294      2.5521415611      0.0055643914
C      -0.8045481663     -1.2742447244      0.0542049013
H      -1.8395601835      1.1772305172     -0.4684158797
H       0.9070589449      2.5496603682      0.2433265220
H      -0.7524386280      3.4142528298     -0.2288168018
H      -0.0130994233     -2.1865600564     -0.0905994638
H      -1.1446755147     -1.4694817068      1.1105282299
H      -1.6674437134     -1.3205351400     -0.7154055372
12
Frame=16  time=8.500fs  energy=-306.20067897Ha  molecule=COOCCCHHHHHH
C      -0.0134752525      0.0243006134     -0.0273184336
O       1.2643866869     -0.1343988432      0.0318108109
O       2.0986719937      0.9482603766      0.0059329194
C      -0.6941863141      1.2884507760     -0.1189768590
C      -0.1215650009      2.5530239015      0.0040263861
C      -0.8027493177     -1.2753275706      0.0569279693
H      -1.8474303531      1.1670759077     -0.4775133443
H       0.9403246621      2.5625819727      0.2741761250
H      -0.7733989751      3.4046493036     -0.2318642548
H      -0.0230750226     -2.1993493179     -0.0815583417
H      -1.1263219342     -1.4822453598      1.1345015527
H      -1.6762879472     -1.2989702082     -0.7114406295
12
Frame=17  time=9.000fs  energy=-306.20210028Ha  molecule=COOCCCHHHHHH
C      -0.0139409165      0.0262649555     -0.0271253240
O       1.2639839745     -0.1340777076      0.0326911347
O       2.0967519720      0.9470402979      0.0048240855
C      -0.6981955904      1.2894101196     -0.1249346538
C      -0.1177599871      2.5525392519      0.0024742147
C      -0.7996807614     -1.2775326193      0.0591128042
H      -1.8462847810      1.1581808469     -0.4854987716
H       0.9789322423      2.5788631520      0.3055864513
H      -0.7950561974      3.3982729982     -0.2342266479
H      -0.0415837017     -2.1998099085     -0.0763303078
H      -1.1128607302     -1.4925393048      1.1616399005
H      -1.6810507102     -1.2777448740     -0.7000872443
12
Frame=18  time=9.500fs  energy=-306.20321720Ha  molecule=COOCCCHHHHHH
C      -0.0144038057      0.0281521558     -0.0267983712
O       1.2634265921     -0.1336921568      0.0335219536
O       2.0946027352      0.9455639958      0.0037797223
C      -0.7024900860      1.2911886637     -0.1311468077
C      -0.1142468578      2.5509173519      0.0008998852
C      -0.7955320903     -1.2806613977      0.0609650752
H      -1.8366415467      1.1509525337     -0.4923546649
H       1.0158580776      2.5972702628      0.3370133798
H      -0.8161027764      3.3942740540     -0.2359240460
H      -0.0669185457     -2.1894959802     -0.0751349360
H      -1.1034756379     -1.5000611963      1.1898674976
H      -1.6822715006     -1.2574748143     -0.6821760099
12
Frame=19  time=10.000fs  energy=-306.20332215Ha  molecule=COOCCCHHHHHH
C      -0.0148389245      0.0299178371     -0.0263252343
O       1.2626920753     -0.1332452335      0.0343056110
O       2.0922555617      0.9438370905      0.0028025552
C      -0.7068627015      1.2936658637     -0.1375307538
C      -0.1107531495      2.5484492635     -0.0007059138
C      -0.7905684908     -1.2843900164      0.0627625071
H      -1.8202156093      1.1456992306     -0.4981018731
H       1.0455091736      2.6166735503      0.3679486628
H      -0.8351136414      3.3914464503     -0.2369685165
H      -0.0964069130     -2.1713155101     -0.0779633049
H      -1.0969307366     -1.5047039215      1.2168551032
H      -1.6809683466     -1.2387352871     -0.6592553778
12
Frame=20  time=10.500fs  energy=-306.20221417Ha  molecule=COOCCCHHHHHH
C      -0.0152219267      0.0315247351     -0.0257109620
O       1.2617588487     -0.1327405148      0.0350468901
O       2.0897357896      0.9418721831      0.0018917976
C      -0.7110441733      1.2967020105     -0.1440264587
C      -0.1071393768      2.5454536924     -0.0023356967
C      -0.7851193378     -1.2883079192      0.0648037645
H      -1.7997427576      1.1425874206     -0.5028966019
H       1.0642984337      2.6361453215      0.3980318941
H      -0.8506809491      3.3883832362     -0.2374033582
H      -0.1266272144     -2.1492586026     -0.0846400625
H      -1.0917531549     -1.5065802292      1.2404373244
H      -1.6784163676     -1.2219798011     -0.6331422536
12
Frame=21  time=11.000fs  energy=-306.20033154Ha  molecule=COOCCCHHHHHH
C      -0.0155342039      0.0329465311     -0.0249774483
O       1.2606093065     -0.1321818649      0.0357528585
O       2.0870597208      0.9396890940      0.0010418580
C      -0.7147399428      1.3001552857     -0.1506109224
C      -0.1033770730      2.5422373502     -0.0039580826
C      -0.7795369228     -1.2919768392      0.0673599294
H      -1.7785467682      1.1416320854     -0.5070557369
H       1.0706415827      2.6550009431      0.4271156064
H      -0.8616229509      3.3837336257     -0.2373174196
H      -0.1538525813     -2.1278394820     -0.0948872093
H      -1.0864715247     -1.5060063284      1.2589825476
H      -1.6759397980     -1.2074846178     -0.6055706983
12
Frame=22  time=11.500fs  energy=-306.19859908Ha  molecule=COOCCCHHHHHH
C      -0.0157661303      0.0341698932     -0.0241563435
O       1.2592318343     -0.1315736232      0.0364316242
O       2.0842350290      0.9373113057      0.0002437647
C      -0.7176800184      1.3038954304     -0.1572922651
C      -0.0995145664      2.5390520874     -0.0055260419
C      -0.7741301034     -1.2950027635      0.0706360797
H      -1.7598999818      1.1427343539     -0.5109879590
H       1.0646801176      2.6728100378      0.4552306215
H      -0.8672000259      3.3765087733     -0.2368297074
H      -0.1746931492     -2.1112740442     -0.1083725354
H      -1.0798883341     -1.5034360409      1.2716230278
H      -1.6747479019     -1.1953510584     -0.5780248887
12
Frame=23  time=12.000fs  energy=-306.19786674Ha  molecule=COOCCCHHHHHH
C      -0.0159179162      0.0351933956     -0.0232775649
O       1.2576225005     -0.1309217093      0.0370904151
O       2.0812663942      0.9347615145     -0.0005109836
C      -0.7196644278      1.3078099565     -0.1640820854
C      -0.0956526579      2.5360604665     -0.0069977369
C      -0.7690989946     -1.2970997062      0.0747467021
H      -1.7463771414      1.1457513847     -0.5150524315
H       1.0479207795      2.6893801979      0.4824440090
H      -0.8672620093      3.3663447376     -0.2360539053
H      -0.1867382343     -2.1026363432     -0.1247241266
H      -1.0713259391     -1.4993621130      1.2782904519
H      -1.6758176664     -1.1855670599     -0.5517505407
12
Frame=24  time=12.500fs  energy=-306.19833805Ha  molecule=COOCCCHHHHHH
C      -0.0159986311      0.0360242234     -0.0223594767
O       1.2557869698     -0.1302352468      0.0377340268
O       2.0781640896      0.9320599154     -0.0012264755
C      -0.7205884378      1.3118023142     -0.1709625217
C      -0.0919326525      2.5333229978     -0.0083568532
C      -0.7645023842     -1.2981249510      0.0797067222
H      -1.7394428094      1.1505578660     -0.5194283089
H       1.0228858541      2.7047115688      0.5086914080
H      -0.8622753440      3.3536222679     -0.2350684716
H      -0.1889523292     -2.1033178349     -0.1435169156
H      -1.0607508629     -1.4942283081      1.2795878584
H      -1.6798179135     -1.1780855496     -0.5278312836
12
Frame=25  time=13.000fs  energy=-306.19949746Ha  molecule=COOCCCHHHHHH
C      -0.0160244597      0.0366751074     -0.0214062654
O       1.2537419010     -0.1295274047      0.0383645463
O       2.0749497123      0.9292261427     -0.0019011005
C      -0.7204434884      1.3157869325     -0.1778720902
C      -0.0885258375      2.5308113639     -0.0096182874
C      -0.7602713032     -1.2980798224      0.0854388488
H      -1.7393903603      1.1570652334     -0.5240809073
H       0.9927854827      2.7189355211      0.5337036881
H      -0.8532222738      3.3393847460     -0.2339137534
H      -0.1816986343     -2.1129731170     -0.1642647174
H      -1.0487080885     -1.4883903038      1.2765852623
H      -1.6870720966     -1.1728638404     -0.5071914494
12
Frame=26  time=13.500fs  energy=-306.20055901Ha  molecule=COOCCCHHHHHH
C      -0.0160168384      0.0371630555     -0.0204127707
O       1.2515142101     -0.1288144451      0.0389823162
O       2.0716547807      0.9262822331     -0.0025296128
C      -0.7193002528      1.3196872380     -0.1847204760
C      -0.0856138749      2.5284405566     -0.0108163385
C      -0.7562567766     -1.2970831948      0.0917957047
H      -1.7455751316      1.1651993965     -0.5288380904
H       0.9611597734      2.7322560070      0.5570777477
H      -0.8414006894      3.3250742642     -0.2326142388
H      -0.1664338778     -2.1299052701     -0.1864477401
H      -1.0360873861     -1.4821261160      1.2706083385
H      -1.6975610035     -1.1698451041     -0.4904825492
12
Frame=27  time=14.000fs  energy=-306.20099054Ha  molecule=COOCCCHHHHHH
C      -0.0160005330      0.0375093302     -0.0193721594
O       1.2491376099     -0.1281133527      0.0395872763
O       2.0683135850      0.9232535251     -0.0031067237
C      -0.7172833791      1.3234380756     -0.1914197973
C      -0.0833602041      2.5261070876     -0.0119852874
C      -0.7522867831     -1.2953299031      0.0985908243
H      -1.7567821884      1.1748657082     -0.5335123380
H       0.9314547419      2.7449004918      0.5784284663
H      -0.8281795760      3.3121835339     -0.2312054586
H      -0.1452283353     -2.1516810484     -0.2095705841
H      -1.0238309797     -1.4756659692      1.2630459877
H      -1.7109652984     -1.1689125181     -0.4779369030
12
Frame=28  time=14.500fs  energy=-306.20071518Ha  molecule=COOCCCHHHHHH
C      -0.0160016216      0.0377391493     -0.0182813492
O       1.2466477354     -0.1274394399      0.0401798423
O       2.0649556013      0.9201668030     -0.0036297706
C      -0.7145460178      1.3269891930     -0.1979105203
C      -0.0818816946      2.5237213526     -0.0131452431
C      -0.7482108206     -1.2930464448      0.1056293781
H      -1.7715721934      1.1859290630     -0.5379890120
H       0.9065813842      2.7570774098      0.5975135481
H      -0.8147790224      3.3019512609     -0.2297468610
H      -0.1202882440     -2.1757325864     -0.2332175081
H      -1.0127064698     -1.4692120427      1.2551877994
H      -1.7267399165     -1.1698607825     -0.4693064671
12
Frame=29  time=15.000fs  energy=-306.19997110Ha  molecule=COOCCCHHHHHH
C      -0.0160455682      0.0378802932     -0.0171422546
O       1.2440779797     -0.1268050701      0.0407610838
O       2.0616017992      0.9170473365     -0.0040993412
C      -0.7112492400      1.3303060850     -0.2041693090
C      -0.0812304736      2.5212273356     -0.0142991080
C      -0.7439229677     -1.2904541953      0.1127308913
H      -1.7885199782      1.1982167082     -0.5422467747
H       0.8885713466      2.7689391389      0.6142695065
H      -0.8021307128      3.2951902193     -0.2283171656
H      -0.0936075145     -2.1997806776     -0.2570761584
H      -1.0032070681     -1.4629399147      1.2481081159
H      -1.7442039755     -1.1724051471     -0.4639347947
12
Frame=30  time=15.500fs  energy=-306.19906182Ha  molecule=COOCCCHHHHHH
C      -0.0161556702      0.0379609737     -0.0159601479
O       1.2414573100     -0.1262196428      0.0413324655
O       2.0582653925      0.9139167479     -0.0045183485
C      -0.7075482333      1.3333674846     -0.2102011023
C      -0.0813901620      2.5186087780     -0.0154379127
C      -0.7393659212     -1.2877458360      0.1197413953
H      -1.8063388462      1.2115342087     -0.5463282521
H       0.8784234034      2.7805564276      0.6287715171
H      -0.7908362180      3.2922613790     -0.2270007345
H      -0.0667904785     -2.2220367070     -0.2809266559
H      -0.9955621812     -1.4569910372      1.2426098066
H      -1.7626283008     -1.1762170233     -0.4609202834
12
Frame=31  time=16.000fs  energy=-306.19819487Ha  molecule=COOCCCHHHHHH
C      -0.0163520338      0.0380077922     -0.0147414005
O       1.2388098989     -0.1256902320      0.0418955207
O       2.0549547784      0.9107923852     -0.0048906877
C      -0.7035845304      1.3361613998     -0.2160255088
C      -0.0822846445      2.5158850370     -0.0165483864
C      -0.7345236356     -1.2850751799      0.1265373390
H      -1.8239272833      1.2256821992     -0.5502981859
H       0.8761570315      2.7919114944      0.6411671585
H      -0.7812012966      3.2931482897     -0.2258748558
H      -0.0410158841     -2.2412322817     -0.3046131861
H      -0.9898016662     -1.4514678816      1.2392235918
H      -1.7813085750     -1.1809636784     -0.4592937938
12
Frame=32  time=16.500fs  energy=-306.19745149Ha  molecule=COOCCCHHHHHH
C      -0.0166510432      0.0380443416     -0.0134920095
O       1.2361556418     -0.1252222221      0.0424516556
O       2.0516762061      0.9076877281     -0.0052202689
C      -0.6994822733      1.3386818480     -0.2216659097
C      -0.0837944914      2.5131012890     -0.0176184030
C      -0.7294096932     -1.2825567305      0.1330252095
H      -1.8403787485      1.2404678191     -0.5542145653
H       0.8810180642      2.8029110075      0.6516243573
H      -0.7733074934      3.2975708374     -0.2250026398
H      -0.0170828133     -2.2565555625     -0.3280171703
H      -0.9858243326     -1.4464364594      1.2382437015
H      -1.7996194811     -1.1863368457     -0.4581553016
12
Frame=33  time=17.000fs  energy=-306.19683152Ha  molecule=COOCCCHHHHHH
C      -0.0170652098      0.0380905324     -0.0122171287
O       1.2335107618     -0.1248196477      0.0430021007
O       2.0484350689      0.9046130842     -0.0055106089
C      -0.6953466589      1.3409271593     -0.2271440757
C      -0.0857760054      2.5103172079     -0.0186392283
C      -0.7240558616     -1.2802703626      0.1391396402
H      -1.8549790881      1.2557108217     -0.5581183444
H       0.8917528246      2.8134127338      0.6603060744
H      -0.7670881161      3.3050944752     -0.2244312109
H       0.0045137645     -2.2675575637     -0.3510412088
H      -0.9834482993     -1.4419343517      1.2397777611
H      -1.8170493540     -1.1920671210     -0.4567527258
12
Frame=34  time=17.500fs  energy=-306.19630798Ha  molecule=COOCCCHHHHHH
C      -0.0176032870      0.0381624532     -0.0109211935
O       1.2308882102     -0.1244852879      0.0435479384
O       2.0452360255      0.9015761593     -0.0057647979
C      -0.6912635291      1.3428994911     -0.2324789698
C      -0.0880790296      2.5075968957     -0.0196055600
C      -0.7185029093     -1.2782675959      0.1448409643
H      -1.8671997453      1.2712465159     -0.5620353041
H       0.9068766624      2.8232561500      0.6673645978
H      -0.7623907692      3.3152152083     -0.2241928666
H       0.0235085740     -2.2740625080     -0.3736029826
H      -0.9824422825     -1.4379801564      1.2437951914
H      -1.8332163129     -1.1979280355     -0.4545118249
12
Frame=35  time=18.000fs  energy=-306.19585928Ha  molecule=COOCCCHHHHHH
C      -0.0182705639      0.0382725358     -0.0096081867
O       1.2282979355     -0.1242206903      0.0440901435
O       2.0420826712      0.8985824535     -0.0059855937
C      -0.6872997726      1.3446047616     -0.2376872568
C      -0.0905611111      2.5050014504     -0.0205147619
C      -0.7127942729     -1.2765775566      0.1501121745
H      -1.8766867067      1.2869271556     -0.5659816608
H       0.9248902318      2.8322886469      0.6729434333
H      -0.7590215554      3.3274173648     -0.2243071906
H       0.0398047135     -2.2760941165     -0.3956340290
H      -0.9825451162     -1.4345813018      1.2501669353
H      -1.8478679801     -1.2037348033     -0.4510341077
12
Frame=36  time=18.500fs  energy=-306.19547690Ha  molecule=COOCCCHHHHHH
C      -0.0190692640      0.0384298658     -0.0082818110
O       1.2257471788     -0.1240262514      0.0446296074
O       2.0389773284      0.8956355954     -0.0061755005
C      -0.6835044840      1.3460524319     -0.2427838016
C      -0.0930969993      2.5025844524     -0.0213661780
C      -0.7069723793     -1.2752119507      0.1549551795
H      -1.8832440190      1.3026223634     -0.5699683465
H       0.9444255014      2.8403829515      0.6771788823
H      -0.7567730240      3.3412085903     -0.2247831164
H       0.0534269302     -2.2738187623     -0.4170790497
H      -0.9834800275     -1.4317391273      1.2586954910
H      -1.8608684846     -1.2093410158     -0.4460775117
12
Frame=37  time=19.000fs  energy=-306.19516017Ha  molecule=COOCCCHHHHHH
C      -0.0199989877      0.0386405579     -0.0069455328
O       1.2232408708     -0.1239013813      0.0451671467
O       2.0359211551      0.8927377002     -0.0063367950
C      -0.6799107839      1.3472549641     -0.2477816126
C      -0.0955835905      2.5003899518     -0.0221607871
C      -0.7010770213     -1.2741690114      0.1593865770
H      -1.8868125406      1.3182187012     -0.5740027008
H       0.9643247340      2.8474453772      0.6801990442
H      -0.7554401440      3.3561381777     -0.2256207093
H       0.0644871875     -2.2675029609     -0.4378940221
H      -0.9849667217     -1.4294515370      1.2691371291
H      -1.8721776875     -1.2146346935     -0.4395296510
12
Frame=38  time=19.500fs  energy=-306.19490842Ha  molecule=COOCCCHHHHHH
C      -0.0210571498      0.0389081589     -0.0056025551
O       1.2207820946     -0.1238447146      0.0457035040
O       2.0329144826      0.8898897508     -0.0064715268
C      -0.6765380691      1.3482270655     -0.2526914373
C      -0.0979411676      2.4984522219     -0.0229010820
C      -0.6951450558     -1.2734366008      0.1634333999
H      -1.8874462134      1.3336185329     -0.5780884707
H       0.9836671451      2.8534169726      0.6821213722
H      -0.7548283756      3.3718042221     -0.2268127457
H       0.0731596951     -2.2574822879     -0.4580434489
H      -0.9867317658     -1.4277140750      1.2812187633
H      -1.8818276470     -1.2195340796     -0.4313793075
12
Frame=39  time=20.000fs  energy=-306.19471611Ha  molecule=COOCCCHHHHHH
C      -0.0222393869      0.0392340579     -0.0042557869
O       1.2183725318     -0.1238543142      0.0462393497
O       2.0299571928      0.8870919517     -0.0065815214
C      -0.6733944009      1.3489849141     -0.2575214307
C      -0.1001120910      2.4967965341     -0.0235909686
C      -0.6892107439     -1.2729946687      0.1671292921
H      -1.8852884450      1.3487384946     -0.5822254765
H       1.0017611027      2.8582703916      0.6830506926
H      -0.7547569565      3.3878539463     -0.2283461983
H       0.0796629899     -2.2441390783     -0.4774978636
H      -0.9885168272     -1.4265202306      1.2946514475
H      -1.8899002886     -1.2239832611     -0.4216892288
12
Frame=40  time=20.500fs  energy=-306.19457193Ha  molecule=COOCCCHHHHHH
C      -0.0235399278      0.0396178926     -0.0029078388
O       1.2160128158     -0.1239278301      0.0467752872
O       2.0270489785      0.8843439956     -0.0066684054
C      -0.6704787809      1.3495455121     -0.2622771899
C      -0.1020580463      2.4954403627     -0.0242355422
C      -0.6833062235     -1.2728172421      0.1705114049
H      -1.8805504856      1.3635079444     -0.5864098637
H       1.0181176439      2.8620049161      0.6830789128
H      -0.7550595659      3.4039804192     -0.2302036661
H       0.0842470872     -2.2278864826     -0.4962325045
H      -0.9900844333     -1.4258615103      1.3091417304
H      -1.8965086637     -1.2279477347     -0.4105718299
12
Frame=41  time=21.000fs  energy=-306.19446058Ha  molecule=COOCCCHHHHHH
C      -0.0249519304      0.0400579380     -0.0015610511
O       1.2137027566     -0.1240626028      0.0473118590
O       2.0241894178      0.8816452143     -0.0067336519
C      -0.6677831608      1.3499262264     -0.2669622342
C      -0.1037567159      2.4943946385     -0.0248407004
C      -0.6774618020     -1.2728740787      0.1736181000
H      -1.8734926442      1.3778676842     -0.5906352188
H       1.0324168090      2.8646412389      0.6822866309
H      -0.7555837915      3.4199179123     -0.2323647287
H       0.0871840243     -2.2091566681     -0.5142274748
H      -0.9912213577     -1.4257275476      1.3244014824
H      -1.9017826928     -1.2314101038     -0.3981685713
12
Frame=42  time=21.500fs  energy=-306.19436567Ha  molecule=COOCCCHHHHHH
C      -0.0264677946      0.0405514690     -0.0002175389
O       1.2114414435     -0.1242557197      0.0478495531
O       2.0213778716      0.8789946158     -0.0067786357
C      -0.6652941382      1.3501445016     -0.2715788312
C      -0.1051984477      2.4936648582     -0.0254126350
C      -0.6717059434     -1.2731320893      0.1764873876
H      -1.8644083444      1.3917690879     -0.5948943534
H       1.0444739160      2.8662168074      0.6807461236
H      -0.7561902813      3.4354373117     -0.2348071770
H       0.0887603832     -2.1883912979     -0.5314691526
H      -0.9917400833     -1.4261063350      1.3401564037
H      -1.9058592248     -1.2343661113     -0.3846333045
12
Frame=43  time=22.000fs  energy=-306.19427262Ha  molecule=COOCCCHHHHHH
C      -0.0280794570      0.0410950864      0.0011207641
O       1.2092272603     -0.1245040442      0.0483888057
O       2.0186132698      0.8763908395     -0.0068046859
C      -0.6629943628      1.3502176910     -0.2761289810
C      -0.1063832410      2.4932519845     -0.0259572859
C      -0.6660649518     -1.2735566020      0.1791559444
H      -1.8536105552      1.4051736131     -0.5991813329
H       1.0542094240      2.8667819632      0.6785248697
H      -0.7567520861      3.4503423373     -0.2375080778
H       0.0892706942     -2.1660329004     -0.5479522749
H      -0.9914789403     -1.4269845639      1.3561532024
H      -1.9088756627     -1.2368211704     -0.3701195725
12
Frame=44  time=22.500fs  energy=-306.19417077Ha  molecule=COOCCCHHHHHH
C      -0.0297786642      0.0416850018      0.0024520758
O       1.2070578616     -0.1248042352      0.0489300007
O       2.0158938651      0.8738320722     -0.0068131227
C      -0.6608637153      1.3501629418     -0.2806153530
C      -0.1073181825      2.4931531530     -0.0264798444
C      -0.6605624397     -1.2741125150      0.1816585303
H      -1.8414200307      1.4180525666     -0.6034932977
H       1.0616237156      2.8663967993      0.6756887826
H      -0.7571544170      3.4644668262     -0.2404446429
H       0.0890109898     -2.1425163133     -0.5636820221
H      -0.9903014880     -1.4283480152      1.3721653357
H      -1.9109662053     -1.2387874879     -0.3547716521
12
Frame=45  time=23.000fs  energy=-306.19405445Ha  molecule=COOCCCHHHHHH
C      -0.0315572216      0.0423172739      0.0037747574
O       1.2049301557     -0.1251527743      0.0494734665
O       2.0132170346      0.8713159683     -0.0068052765
C      -0.6588803277      1.3499970849     -0.2850420094
C      -0.1080153560      2.4933622314     -0.0269843803
C      -0.6552187063     -1.2747653550      0.1840276479
H      -1.8281549239      1.4303869457     -0.6078317267
H       1.0667767970      2.8651285393      0.6723045387
H      -0.7572948545      3.4776730025     -0.2435948909
H       0.0882721582     -2.1182599312     -0.5786755088
H      -0.9880955856     -1.4301819339      1.3879971936
H      -1.9122597997     -1.2402818080     -0.3387189770
12
Frame=46  time=23.500fs  energy=-306.19392310Ha  molecule=COOCCCHHHHHH
C      -0.0334072048      0.0429879953      0.0050873258
O       1.2028403305     -0.1255460082      0.0500194709
O       2.0105791819      0.8688396119     -0.0067824849
C      -0.6570214932      1.3497364975     -0.2894148087
C      -0.1084901848      2.4938702842     -0.0274736355
C      -0.6500501543     -1.2754822338      0.1862933238
H      -1.8141215746      1.4421671784     -0.6122029420
H       1.0697722815      2.8630492502      0.6684406780
H      -0.7570839120      3.4898504622     -0.2469381081
H       0.0873330995     -2.0936569424     -0.5929622794
H      -0.9847724347     -1.4324713338      1.4034866489
H      -1.9128790684     -1.2413237456     -0.3220734735
12
Frame=47  time=24.000fs  energy=-306.19378043Ha  molecule=COOCCCHHHHHH
C      -0.0353211265      0.0436934287      0.0063884815
O       1.2007839406     -0.1259802072      0.0505682169
O       2.0079757710      0.8663995398     -0.0067460753
C      -0.6552644950      1.3493969290     -0.2937414538
C      -0.1087601460      2.4946659852     -0.0279489998
C      -0.6450688541     -1.2762326822      0.1884829403
H      -1.7996064971      1.4533926369     -0.6166178217
H       1.0707448346      2.8602337632      0.6641674433
H      -0.7564457844      3.5009155198     -0.2504551260
H       0.0864539544     -2.0690670414     -0.6065836398
H      -0.9802657162     -1.4352011906      1.4185059709
H      -1.9129396901     -1.2419346385     -0.3049292536
12
Frame=48  time=24.500fs  energy=-306.19363318Ha  molecule=COOCCCHHHHHH
C      -0.0372920497      0.0444300945      0.0076771434
O       1.1987560596     -0.1264516356      0.0511198401
O       2.0054014878      0.8639918326     -0.0066973362
C      -0.6535873550      1.3489933021     -0.2980312148
C      -0.1088437877      2.4957360053     -0.0284106499
C      -0.6402823284     -1.2769893312      0.1906210849
H      -1.7848697446      1.4640708593     -0.6210908262
H       1.0698502953      2.8567577516      0.6595555601
H      -0.7553190820      3.5108105688     -0.2541284428
H       0.0858698392     -2.0448092401     -0.6195908912
H      -0.9745308160     -1.4383565107      1.4329611983
H      -1.9125499219     -1.2421368219     -0.2873640604
12
Frame=49  time=25.000fs  energy=-306.19348951Ha  molecule=COOCCCHHHHHH
C      -0.0393136471      0.0451948163      0.0089524816
O       1.1967514839     -0.1269566277      0.0516744095
O       2.0028505059      0.8616122643     -0.0066374873
C      -0.6519694862      1.3485395069     -0.3022944028
C      -0.1087599892      2.4970653886     -0.0288578151
C      -0.6356935862     -1.2777284145      0.1927294178
H      -1.7701398796      1.4742164881     -0.6256385485
H       1.0672578306      2.8526959799      0.6546743126
H      -0.7536573592      3.5195031776     -0.2579422205
H       0.0857855673     -2.0211563664     -0.6320427153
H      -0.9675440452     -1.4419222805      1.4467901642
H      -1.9118101245     -1.2419532149     -0.2694418411
12
Frame=50  time=25.500fs  energy=-306.19335747Ha  molecule=COOCCCHHHHHH
C      -0.0413802103      0.0459847313      0.0102139399
O       1.1947649647     -0.1274916587      0.0522319314
O       2.0003168142      0.8592564887     -0.0065676521
C      -0.6503922262      1.3480482136     -0.3065417062
C      -0.1085274115      2.4986379180     -0.0292891147
C      -0.6313013987     -1.2784300760      0.1948265746
H      -1.7556107310      1.4838499943     -0.6302780469
H       1.0631436388      2.8481207704      0.6495893404
H      -0.7514292863      3.5269847368     -0.2618821949
H       0.0863717763     -1.9983316826     -0.6440020794
H      -0.9593017196     -1.4458833258      1.4599594485
H      -1.9108122746     -1.2414071146     -0.2512158557
12
Frame=51  time=26.000fs  energy=-306.19324377Ha  molecule=COOCCCHHHHHH
C      -0.0434866193      0.0467972751      0.0114612451
O       1.1927914415     -0.1280534048      0.0527923564
O       1.9977945569      0.8569202388     -0.0064888386
C      -0.6488392271      1.3475307270     -0.3107834990
C      -0.1081640961      2.5004364669     -0.0297029126
C      -0.6271007725     -1.2790784785      0.1969281283
H      -1.7414400005      1.4929962928     -0.6350252215
H       1.0576858557      2.8431007433      0.6443605544
H      -0.7486183677      3.5332685829     -0.2659355315
H       0.0877627443     -1.9765078228     -0.6555330666
H      -0.9498189643     -1.4502241212      1.4724605838
H      -1.9096395168     -1.2405220977     -0.2327317997
12
Frame=52  time=26.500fs  energy=-306.19315294Ha  molecule=COOCCCHHHHHH
C      -0.0456282842      0.0476301510      0.0126943991
O       1.1908262492     -0.1286387856      0.0533555882
O       1.9952783404      0.8545995109     -0.0064019314
C      -0.6472966893      1.3469968969     -0.3150292268
C      -0.1076871775      2.5024433297     -0.0300976392
C      -0.6230835594     -1.2796617302      0.1990466306
H      -1.7277496335      1.5016833681     -0.6398934516
H       1.0510604244      2.8376998682      0.6390404899
H      -0.7452221701      3.5383876176     -0.2700906586
H       0.0900559971     -1.9558079935     -0.6666979993
H      -0.9391281446     -1.4549285975      1.4843058544
H      -1.9083658342     -1.2393219556     -0.2140305404
12
Frame=53  time=27.000fs  energy=-306.19308707Ha  molecule=COOCCCHHHHHH
C      -0.0478010757      0.0484812929      0.0139136564
O       1.1888652777     -0.1292449890      0.0539214945
O       1.9927634728      0.8522907122     -0.0063076929
C      -0.6457534360      1.3464550923     -0.3192869402
C      -0.1071126850      2.5046405289     -0.0304720440
C      -0.6192391335     -1.2801716509      0.2011917429
H      -1.7146277273      1.5099410165     -0.6448926367
H       1.0434377614      2.8319768371      0.6336732864
H      -0.7412510872      3.5423915152     -0.2743371022
H       0.0933136256     -1.9363091646     -0.6775551298
H      -0.9272768849     -1.4599799919      1.4955240020
H      -1.9070559026     -1.2378306071     -0.1951502032
12
Frame=54  time=27.500fs  energy=-306.19304584Ha  molecule=COOCCCHHHHHH
C      -0.0500012560      0.0493488284      0.0151194894
O       1.1869050727     -0.1298694778      0.0544899166
O       1.9902461134      0.8499907598     -0.0062067731
C      -0.6442008441      1.3459122363     -0.3235630169
C      -0.1064554113      2.5070100932     -0.0308253591
C      -0.6155550747     -1.2806034178      0.2033704532
H      -1.7021316459      1.5177997824     -0.6500287061
H       1.0349800965      2.8259847406      0.6282943566
H      -0.7367267094      3.5453436526     -0.2786653397
H       0.0975650766     -1.9180468183     -0.6881570481
H      -0.9143256993     -1.4653607723      1.5061560979
H      -1.9057651665     -1.2360719600     -0.1761274941
12
Frame=55  time=28.000fs  energy=-306.19302701Ha  molecule=COOCCCHHHHHH
C      -0.0522254196      0.0502310483      0.0163125467
O       1.1849428747     -0.1305099817      0.0550606789
O       1.9877233295      0.8476971240     -0.0060997258
C      -0.6426326531      1.3453738924     -0.3278620743
C      -0.1057288354      2.5095343100     -0.0311573706
C      -0.6120178065     -1.2809551259      0.2055873668
H      -1.6902919545      1.5252901259     -0.6553035790
H       1.0258394007      2.8197710007      0.6229306889
H      -0.7316799080      3.5473179165     -0.2830666810
H       0.1028110716     -1.9010207470     -0.6985498351
H      -0.9003453230     -1.4710526544      1.5162517693
H      -1.9045401393     -1.2340697158     -0.1569982764
12
Frame=56  time=28.500fs  energy=-306.19302703Ha  molecule=COOCCCHHHHHH
C      -0.0544704501      0.0511263836      0.0174936082
O       1.1829766022     -0.1311644792      0.0556335973
O       1.9851930689      0.8454078224     -0.0059870263
C      -0.6410446874      1.3448443892     -0.3321870499
C      -0.1049450863      2.5121959497     -0.0314684084
C      -0.6086131589     -1.2812273060      0.2078450456
H      -1.6791167864      1.5324418269     -0.6607155010
H       1.0161558327      2.8133775047      0.6176016512
H      -0.7261487551      3.5483955378     -0.2875331803
H       0.1090282525     -1.8852013868     -0.7087728836
H      -0.8854138743     -1.4770367136      1.5258658966
H      -1.9034189008     -1.2318471266     -0.1377975202
12
Frame=57  time=29.000fs  energy=-306.19304165Ha  molecule=COOCCCHHHHHH
C      -0.0567334934      0.0520333911      0.0186635413
O       1.1810047902     -0.1318311738      0.0562084846
O       1.9826540675      0.8431213722     -0.0058690898
C      -0.6394345256      1.3443269678     -0.3365394075
C      -0.1041149417      2.5149784639     -0.0317592742
C      -0.6053268373     -1.2814224314      0.2101443730
H      -1.6685962943      1.5392835977     -0.6662596474
H       1.0060566545      2.8068408794      0.6123201222
H      -0.7201764070      3.5486620874     -0.2920575733
H       0.1161741566     -1.8705362221     -0.7188592436
H      -0.8696140027     -1.4832935747      1.5350558322
H      -1.9024317462     -1.2294267258     -0.1185588073
12
Frame=58  time=29.500fs  energy=-306.19306656Ha  molecule=COOCCCHHHHHH
C      -0.0590119449      0.0529507453      0.0198232616
O       1.1790265008     -0.1325084685      0.0567851556
O       1.9801057141      0.8408367160     -0.0057462871
C      -0.6378011516      1.3438239389     -0.3409194187
C      -0.1032478546      2.5178661558     -0.0320311299
C      -0.6021447963     -1.2815444443      0.2124849166
H      -1.6587069042      1.5458428627     -0.6719288723
H       0.9956555729      2.8001928488      0.6070937730
H      -0.7138090672      3.5482047407     -0.2966332348
H       0.1241921584     -1.8569558892     -0.7288363165
H      -0.8530301783     -1.4898036597      1.5438791438
H      -1.9016019315     -1.2268300600     -0.0993135897
12
Frame=59  time=30.000fs  energy=-306.19309779Ha  molecule=COOCCCHHHHHH
C      -0.0613034472      0.0538772365      0.0209736986
O       1.1770412183     -0.1331949410      0.0573634299
O       1.9775478968      0.8385531338     -0.0056189574
C      -0.6361446154      1.3433368363     -0.3453264736
C      -0.1023520038      2.5208443216     -0.0322853710
C      -0.5990535247     -1.2815983220      0.2148652682
H      -1.6494151743      1.5521456569     -0.6777144931
H       0.9850524705      2.7934606358      0.6019263472
H      -0.7070941241      3.5471098877     -0.3012541497
H       0.1330160940     -1.8443797081     -0.7387267277
H      -0.8357462529     -1.4965474622      1.5523918498
H      -1.9009464661     -1.2240774455     -0.0800903904
12
Frame=60  time=30.500fs  energy=-306.19313202Ha  molecule=COOCCCHHHHHH
C      -0.0636058915      0.0548117692      0.0221157686
O       1.1750487449     -0.1338893220      0.0579431332
O       1.9749808508      0.8362701533     -0.0054874175
C      -0.6344657243      1.3428665605     -0.3497593801
C      -0.1014343636      2.5238993616     -0.0325235018
C      -0.5960402509     -1.2815896951      0.2172833457
H      -1.6406811362      1.5582165977     -0.6836070232
H       0.9743334885      2.7866673726      0.5968188237
H      -0.7000785349      3.5454611363     -0.3059148879
H       0.1425743586     -1.8327204761     -0.7485492348
H      -0.8178433953     -1.5035058225      1.5606470975
H      -1.9004769056     -1.2211877700     -0.0609140941
12
Frame=61  time=31.000fs  energy=-306.19316669Ha  molecule=COOCCCHHHHHH
C      -0.0659174206      0.0557533627      0.0232503550
O       1.1730491034     -0.1345904773      0.0585240990
O       1.9724050219      0.8339874683     -0.0053519675
C      -0.6327657791      1.3424135060     -0.3542166261
C      -0.1005007895      2.5270188578     -0.0327470275
C      -0.5930930844     -1.2815245277      0.2197366477
H      -1.6324610677      1.5640788951     -0.6895967935
H       0.9635714195      2.7798325046      0.5917703951
H      -0.6928074960      3.5433377274     -0.3106105808
H       0.1527933613     -1.8218884483     -0.7583195654
H      -0.7993984537     -1.5106601796      1.5686942253
H      -1.9002001168     -1.2181783518     -0.0418054274
12
Frame=62  time=31.500fs  energy=-306.19320002Ha  molecule=COOCCCHHHHHH
C      -0.0682364275      0.0567011492      0.0243782930
O       1.1710424568     -0.1352973928      0.0591061683
O       1.9698209542      0.8317048706     -0.0052128938
C      -0.6310463597      1.3419776714     -0.3586965879
C      -0.0995561152      2.5301916193     -0.0329573707
C      -0.5902011038     -1.2814088566      0.2222224569
H      -1.6247097028      1.5697543734     -0.6956744333
H       0.9528263637      2.7729721742      0.5867792305
H      -0.6853234183      3.5408133566     -0.3153368934
H       0.1636002878     -1.8117945024     -0.7680511236
H      -0.7804827645     -1.5179927840      1.5765781490
H      -1.9001189908     -1.2150648606     -0.0227806790
12
Frame=63  time=32.000fs  energy=-306.19323092Ha  molecule=COOCCCHHHHHH
C      -0.0705615501      0.0576543700      0.0255003611
O       1.1690290435     -0.1360091636      0.0596891902
O       1.9672292069      0.8294221981     -0.0050704704
C      -0.6293091617      1.3415587511     -0.3631976805
C      -0.0986042563      2.5334076954     -0.0331558143
C      -0.5873544033     -1.2812485915      0.2247379951
H      -1.6173819174      1.5752634930     -0.7018312047
H       0.9421465989      2.7660995832      0.5818430259
H      -0.6776651989      3.5379553769     -0.3200899925
H       0.1749251876     -1.8023525372     -0.7777555372
H      -0.7611613879     -1.5254868609      1.5843390172
H      -1.9002330960     -1.2118612996     -0.0038516670
12
Frame=64  time=32.500fs  energy=-306.19325888Ha  molecule=COOCCCHHHHHH
C      -0.0728916586      0.0586123699      0.0266172759
O       1.1670091326     -0.1367249849      0.0602730219
O       1.9646302986      0.8271392997     -0.0049249583
C      -0.6275558785      1.3411562103     -0.3677184525
C      -0.0976483189      2.5366583586     -0.0333434702
C      -0.5845441064     -1.2810493670      0.2272805346
H      -1.6104339579      1.5806253625     -0.7080591995
H       0.9315696087      2.7592253324      0.5769593657
H      -0.6698677673      3.5348243434     -0.3248665090
H       0.1867024424     -1.7934811891     -0.7874430488
H      -0.7414927252     -1.5331267228      1.5920120834
H      -1.9005392653     -1.2085800399      0.0149740717
12
Frame=65  time=33.000fs  energy=-306.19328380Ha  molecule=COOCCCHHHHHH
C      -0.0752258379      0.0595745891      0.0277296902
O       1.1649829935     -0.1374441446      0.0608575290
O       1.9620246758      0.8248560147     -0.0047766056
C      -0.6257881241      1.3407693468     -0.3722576341
C      -0.0966907058      2.5399360614     -0.0335212700
C      -0.5817623549     -1.2808164415      0.2298474716
H      -1.6038242853      1.5858577454     -0.7143514238
H       0.9211232171      2.7523577392      0.5721259307
H      -0.6619618699      3.5314738532     -0.3296634968
H       0.1988716972     -1.7851049658     -0.7971227689
H      -0.7215284586     -1.5408978315      1.5996277508
H      -1.9010321196     -1.2052318992      0.0336929124
12
Frame=66  time=33.500fs  energy=-306.19330587Ha  molecule=COOCCCHHHHHH
C      -0.0775633662      0.0605405528      0.0288381931
O       1.1629508799     -0.1381660168      0.0614425854
O       1.9594127018      0.8225721641     -0.0046256459
C      -0.6240073872      1.3403973394     -0.3768141481
C      -0.0957332215      2.5432343713     -0.0336899728
C      -0.5790022777     -1.2805546343      0.2324363705
H      -1.5975141098      1.5909770612     -0.7207017937
H       0.9108267769      2.7455031356      0.5673405908
H      -0.6539740536      3.5279506257     -0.3344783898
H       0.2113783492     -1.7771549010     -0.8068028226
H      -0.7013137442     -1.5487868170      1.6072117484
H      -1.9017045319     -1.2018262520      0.0523046468
12
Frame=67  time=34.000fs  energy=-306.19332545Ha  molecule=COOCCCHHHHHH
C      -0.0799036887      0.0615098611      0.0299433127
O       1.1609130238     -0.1388900561      0.0620280740
O       1.9567946592      0.8202875511     -0.0044722981
C      -0.6222150099      1.3400392874     -0.3813870950
C      -0.0947771693      2.5465478886     -0.0338501841
C      -0.5762579451     -1.2802682946      0.2350449856
H      -1.5914676855      1.5959983887     -0.7271050705
H       0.9006923672      2.7386661456      0.5626014194
H      -0.6459268040      3.5242947746     -0.3393089574
H       0.2241736901     -1.7695688315     -0.8164904183
H      -0.6808875918     -1.5567814611      1.6147854058
H      -1.9025480349     -1.1983711610      0.0708119147
12
Frame=68  time=34.500fs  energy=-306.19334297Ha  molecule=COOCCCHHHHHH
C      -0.0822463920      0.0624821771      0.0310455182
O       1.1588696358     -0.1396157914      0.0626138869
O       1.9541707624      0.8180019672     -0.0043167659
C      -0.6204121841      1.3396942420     -0.3859757230
C      -0.0938234414      2.5498721535     -0.0340023820
C      -0.5735243116     -1.2799612942      0.2376712667
H      -1.5856524266      1.6009354746     -0.7335567592
H       0.8907259606      2.7318499450      0.5579066607
H      -0.6378387975      3.5205402183     -0.3441532616
H       0.2372147896     -1.7622913856     -0.8261918715
H      -0.6602833692     -1.5648706533      1.6223659948
H      -1.9035531780     -1.1948735191      0.0892196084
12
Frame=69  time=35.000fs  energy=-306.19335886Ha  molecule=COOCCCHHHHHH
C      -0.0845911769      0.0634572169      0.0321452242
O       1.1568209110     -0.1403428204      0.0631999253
O       1.9515411753      0.8157152020     -0.0041592383
C      -0.6185999591      1.3393612319     -0.3905793896
C      -0.0928726005      2.5532035460     -0.0341469458
C      -0.5707971509     -1.2796370378      0.2403133533
H      -1.5800388927      1.6058007520     -0.7400529894
H       0.8809285282      2.7250564994      0.5532546732
H      -0.6297252312      3.5167151872     -0.3490096167
H       0.2504641978     -1.7552737626     -0.8359126038
H      -0.6395293766     -1.5730443277      1.6299671152
H      -1.9047098394     -1.1913391934      0.1075342907
12
Frame=70  time=35.500fs  energy=-306.19337352Ha  molecule=COOCCCHHHHHH
C      -0.0869378331      0.0644347383      0.0332427941
O       1.1547670351     -0.1410708030      0.0637861002
O       1.9489060297      0.8134270532     -0.0039998895
C      -0.6167792553      1.3390392829     -0.3951975226
C      -0.0919249504      2.5565391830     -0.0342841841
C      -0.5680729855     -1.2792984863      0.2429695636
H      -1.5746006870      1.6106053706     -0.7465903946
H       0.8712970608      2.7182867837      0.5486438692
H      -0.6215981968      3.5128427865     -0.3538765520
H       0.2638895326     -1.7484733673     -0.8456571391
H      -0.6186494488     -1.5812933891      1.6375991019
H      -1.9060074944     -1.1877731649      0.1257636547
12
Frame=71  time=36.000fs  energy=-306.19338727Ha  molecule=COOCCCHHHHHH
C      -0.0892862168      0.0654145327      0.0343385443
O       1.1527081927     -0.1417994554      0.0643723319
O       1.9462654437      0.8111373372     -0.0038388801
C      -0.6149508820      1.3387274348     -0.3998295843
C      -0.0909805976      2.5598768182     -0.0344143606
C      -0.5653490137     -1.2789481887      0.2456383790
H      -1.5693142952      1.6153592397     -0.7531659988
H       0.8618254897      2.7115409791      0.5440726590
H      -0.6134670735      3.5089415839     -0.3587527784
H       0.2774630013     -1.7418533521     -0.8554291068
H      -0.5976635509     -1.5896096322      1.6452694372
H      -1.9074354464     -1.1841796598      0.1439160439
12
Frame=72  time=36.500fs  energy=-306.19340036Ha  molecule=COOCCCHHHHHH
C      -0.0916362298      0.0663964164      0.0354327484
O       1.1506445733     -0.1425285438      0.0649585504
O       1.9436195377      0.8088458975     -0.0036763581
C      -0.6131155548      1.3384247544     -0.4044750420
C      -0.0900395035      2.5632147450     -0.0345377152
C      -0.5626230352     -1.2785883186      0.2483184280
H      -1.5641588909      1.6200710840     -0.7597771184
H       0.8525054987      2.7048186496      0.5395394083
H      -0.6053389198      3.5050261962     -0.3636371603
H       0.2911608990     -1.7353821090     -0.8652312604
H      -0.5765883438     -1.5979856614      1.6529831554
H      -1.9089830211     -1.1805622675      0.1620000455
12
Frame=73  time=37.000fs  energy=-306.19341297Ha  molecule=COOCCCHHHHHH
C      -0.0939878032      0.0673802248      0.0365256411
O       1.1485763768     -0.1432578785      0.0655446948
O       1.9409684464      0.8065526109     -0.0035124595
C      -0.6112739124      1.3381303451     -0.4091333449
C      -0.0891015272      2.5665517071     -0.0346544815
C      -0.5598933778     -1.2782207123      0.2510084703
H      -1.5591161227      1.6247485100     -0.7664212811
H       0.8433272248      2.6981188959      0.5350424110
H      -0.5972188471      3.5011078549     -0.3685286902
H       0.3049631089     -1.7290327407     -0.8750655132
H      -0.5554377043     -1.6064148121      1.6607432284
H      -1.9106397293     -1.1769240463      0.1800241585
12
Frame=74  time=37.500fs  energy=-306.19342519Ha  molecule=COOCCCHHHHHH
C      -0.0963408831      0.0683658066      0.0376174216
O       1.1465038168     -0.1439873078      0.0661307132
O       1.9383123276      0.8042573916     -0.0033473098
C      -0.6094265314      1.3378433555     -0.4138039093
C      -0.0881664603      2.5698868168     -0.0347648990
C      -0.5571588265     -1.2778469082      0.2537073824
H      -1.5541698962      1.6293980820     -0.7730961633
H       0.8342798493      2.6914404890      0.5305798755
H      -0.5891103674      3.4971949374     -0.3734264689
H       0.3188526273     -1.7227825358     -0.8849329922
H      -0.5342231901     -1.6148910773      1.6685509252
H      -1.9123953983     -1.1732676137      0.1979965372
12
Frame=75  time=38.000fs  energy=-306.19343709Ha  molecule=COOCCCHHHHHH
C      -0.0986954209      0.0693530202      0.0387082581
O       1.1444271223     -0.1447167126      0.0667165620
O       1.9356513672      0.8019601936     -0.0031810247
C      -0.6075739383      1.3375629844     -0.4184861107
C      -0.0872340547      2.5732194816     -0.0348692214
C      -0.5544185563     -1.2774681843      0.2564141442
H      -1.5493061583      1.6340254045     -0.7797995451
H       0.8253520849      2.6847819821      0.5261499262
H      -0.5810157059      3.4932934534     -0.3783296885
H       0.3328151238     -1.7166124620     -0.8948341065
H      -0.5129544462     -1.6234090404      1.6764061410
H      -1.9142402765     -1.1695952239      0.2159248030
12
Frame=76  time=38.500fs  energy=-306.19344866Ha  molecule=COOCCCHHHHHH
C      -0.1010513648      0.0703417309      0.0397982907
O       1.1423465377     -0.1454460012      0.0673022053
O       1.9329857815      0.7996610095     -0.0030137113
C      -0.6057166192      1.3372884852     -0.4231792815
C      -0.0863040438      2.5765493412     -0.0349677204
C      -0.5516720691     -1.2770855933      0.2591278285
H      -1.5445126895      1.6386352085     -0.7865292799
H       0.8165325670      2.6781418040      0.5217506141
H      -0.5729360776      3.4894074829     -0.3832376190
H       0.3468385438     -1.7105066900     -0.9047686272
H      -0.4916395535     -1.6319638146      1.6843076924
H      -1.9161651131     -1.1659088321      0.2338159184
12
Frame=77  time=39.000fs  energy=-306.19345989Ha  molecule=COOCCCHHHHHH
C      -0.1034086555      0.0713318089      0.0408876349
O       1.1402623210     -0.1461751046      0.0678876144
O       1.9303158159      0.7973598693     -0.0028454689
C      -0.6038550270      1.3370191680     -0.4278827143
C      -0.0853761583      2.5798762130     -0.0350606875
C      -0.5489191357     -1.2766999955      0.2618475909
H      -1.5397789073      1.6432314405     -0.7932832779
H       0.8078101578      2.6715183343      0.5173799362
H      -0.5648719255      3.4855395617     -0.3881495974
H       0.3609127573     -1.7044521542     -0.9147357753
H      -0.4702853213     -1.6405509890      1.6922535775
H      -1.9181612154     -1.1622101467      0.2516761132
12
Frame=78  time=39.500fs  energy=-306.19347073Ha  molecule=COOCCCHHHHHH
C      -0.1057672230      0.0723231281      0.0419763847
O       1.1381747420     -0.1469039724      0.0684727671
O       1.9276417426      0.7950568365     -0.0026763894
C      -0.6019895868      1.3367544003     -0.4325956680
C      -0.0844501377      2.5832000458     -0.0351484321
C      -0.5461597438     -1.2763120883      0.2645726620
H      -1.5350956834      1.6478173498     -0.8000594986
H       0.7991741750      2.6649099620      0.5130358591
H      -0.5568231213      3.4816910165     -0.3930650195
H       0.3750292517     -1.6984381523     -0.9247343128
H      -0.4488975295     -1.6491665817      1.7002412011
H      -1.9202204865     -1.1585006724      0.2695108546
12
Frame=79  time=40.000fs  energy=-306.19348113Ha  molecule=COOCCCHHHHHH
C      -0.1081269854      0.0733155661      0.0430646155
O       1.1360840788     -0.1476325690      0.0690576467
O       1.9249638558      0.7927520046     -0.0025065583
C      -0.6001206991      1.3364936070     -0.4373173776
C      -0.0835257381      2.5865208826     -0.0352312792
C      -0.5433940508     -1.2759224323      0.2673023412
H      -1.5304551742      1.6523955740     -0.8068559515
H       0.7906145540      2.6583151304      0.5087163452
H      -0.5487891327      3.4778622494     -0.3979833336
H       0.3891808685     -1.6924559878     -0.9347626330
H      -0.4274811262     -1.6578069981      1.7082675666
H      -1.9223354457     -1.1547817440      0.2873248511
12
Frame=80  time=40.500fs  energy=-306.19349104Ha  molecule=COOCCCHHHHHH
C      -0.1104878495      0.0743090033      0.0441523867
O       1.1339906141     -0.1483608709      0.0696422414
O       1.9222824666      0.7904454912     -0.0023360549
C      -0.5982487421      1.3362362688     -0.4420470637
C      -0.0826027371      2.5898388303     -0.0353095643
C      -0.5406223433     -1.2755314744      0.2700359906
H      -1.5258506666      1.6569682206     -0.8136707017
H       0.7821219557      2.6517323693      0.5044193792
H      -0.5407691578      3.4740529778     -0.4029040348
H       0.4033615787     -1.6864986517     -0.9448188485
H      -0.4060403854     -1.6664689948      1.7163294361
H      -1.9244992346     -1.1510545527      0.3051220829
12
Frame=81  time=41.000fs  energy=-306.19350041Ha  molecule=COOCCCHHHHHH
C      -0.1128497114      0.0753033240      0.0452397440
O       1.1318946313     -0.1490888632      0.0702265438
O       1.9195978975      0.7881374340     -0.0021649528
C      -0.5963740728      1.3359819206     -0.4467839442
C      -0.0816809360      2.5931540352     -0.0353836295
C      -0.5378450018     -1.2751395680      0.2727730306
H      -1.5212764370      1.6615369436     -0.8205018783
H       0.7736878285      2.6451603163      0.5001429927
H      -0.5327622323      3.4702624310     -0.4078266616
H       0.4175662946     -1.6805605443     -0.9549008725
H      -0.3845790324     -1.6751496481      1.7244234609
H      -1.9267056106     -1.1473201674      0.3229058502
12
Frame=82  time=41.500fs  energy=-306.19350920Ha  molecule=COOCCCHHHHHH
C      -0.1152124588      0.0762984165      0.0463267220
O       1.1297964116     -0.1498165382      0.0708105496
O       1.9169104762      0.7858279847     -0.0019933203
C      -0.5944970276      1.3357301482     -0.4515272444
C      -0.0807601612      2.5964666649     -0.0354538178
C      -0.5350624702     -1.2747469899      0.2755129356
H      -1.5167276245      1.6661030129     -0.8273476841
H       0.7653044333      2.6385977300      0.4958852866
H      -0.5247673121      3.4664895104     -0.4127507924
H       0.4317907120     -1.6746372336     -0.9650064931
H      -0.3631003420     -1.6838463258      1.7325462864
H      -1.9289489312     -1.1435795512      0.3406788346
12
Frame=83  time=42.000fs  energy=-306.19351737Ha  molecule=COOCCCHHHHHH
C      -0.1175759731      0.0772941735      0.0474133455
O       1.1276962295     -0.1505438929      0.0713942578
O       1.9142205303      0.7835173049     -0.0018212203
C      -0.5926179223      1.3354805857     -0.4562762072
C      -0.0798402635      2.5997768942     -0.0355204689
C      -0.5322752313     -1.2743539547      0.2782552304
H      -1.5122001175      1.6706673789     -0.8342064058
H       0.7569648406      2.6320434959      0.4916444493
H      -0.5167833348      3.4627329157     -0.4176760427
H       0.4460311795     -1.6687252465     -0.9751334379
H      -0.3416072138     -1.6925566624      1.7406946334
H      -1.9312241295     -1.1398335733      0.3584431659
12
Frame=84  time=42.500fs  energy=-306.19352492Ha  molecule=COOCCCHHHHHH
C      -0.1199401316      0.0782904926      0.0484996319
O       1.1255943505     -0.1512709281      0.0719776695
O       1.9115283824      0.7812055614     -0.0016487111
C      -0.5907370517      1.3352329117     -0.4610301016
C      -0.0789211167      2.6030848958     -0.0355839143
C      -0.5294837857     -1.2739606277      0.2809994867
H      -1.5076904517      1.6752307286     -0.8410764229
H       0.7486629057      2.6254966266      0.4874187720
H      -0.5088092648      3.4589912441     -0.4226020633
H       0.4602845911     -1.6628218923     -0.9852794304
H      -0.3201022314     -1.7012785367      1.7488653583
H      -1.9335266844     -1.1360830195      0.3762004925
12
Frame=85  time=43.000fs  energy=-306.19353183Ha  molecule=COOCCCHHHHHH
C      -0.1223048103      0.0792872774      0.0495855922
O       1.1234910285     -0.1519976468      0.0725607874
O       1.9088343454      0.7788929221     -0.0014758462
C      -0.5888546901      1.3349868457     -0.4657882300
C      -0.0780026159      2.6063908330     -0.0356444735
C      -0.5266886364     -1.2735671342      0.2837453202
H      -1.5031957199      1.6797935363     -0.8479562145
H       0.7403932286      2.6189562582      0.4832066594
H      -0.5008441237      3.4552630645     -0.4275285377
H       0.4745482971     -1.6569251114     -0.9954422361
H      -0.2985877063     -1.7100100518      1.7570554972
H      -1.9358525866     -1.1323286003      0.3939520508
12
Frame=86  time=43.500fs  energy=-306.19353811Ha  molecule=COOCCCHHHHHH
C      -0.1246698857      0.0802844369      0.0506712325
O       1.1213865035     -0.1527240533      0.0731436157
O       1.9061387191      0.7765795527     -0.0013026744
C      -0.5869710909      1.3347421445     -0.4705499337
C      -0.0770846755      2.6096948554     -0.0357024510
C      -0.5238902752     -1.2731735684      0.2864923870
H      -1.4987134922      1.6843561067     -0.8548443656
H       0.7321511031      2.6124216437      0.4790066365
H      -0.4928870093      3.4515469720     -0.4324551805
H       0.4888200320     -1.6510333506     -1.0056196991
H      -0.2770657129     -1.7187495160      1.7652622942
H      -1.9381983011     -1.1285709566      0.4116987307
12
Frame=87  time=44.000fs  energy=-306.19354377Ha  molecule=COOCCCHHHHHH
C      -0.1270352367      0.0812818870      0.0517565552
O       1.1192810000     -0.1534501530      0.0737261596
O       1.9034417871      0.7742656140     -0.0011292403
C      -0.5850864867      1.3344985985     -0.4753145978
C      -0.0761672266      2.6129970972     -0.0357581339
C      -0.5210891738     -1.2727800002      0.2892403812
H      -1.4942417464      1.6889186122     -0.8617395697
H       0.7239324600      2.6058921441      0.4748173526
H      -0.4849371070      3.4478416266     -0.4373817353
H       0.5030978542     -1.6451454574     -1.0158097712
H      -0.2555381146     -1.7274954260      1.7734832181
H      -1.9405607298     -1.1248106660      0.4294411372
12
Frame=88  time=44.500fs  energy=-306.19354884Ha  molecule=COOCCCHHHHHH
C      -0.1294007468      0.0822795495      0.0528415598
O       1.1171747262     -0.1541759513      0.0743084245
O       1.9007438150      0.7719512596     -0.0009555846
C      -0.5832010896      1.3342560281     -0.4800816530
C      -0.0752502148      2.6162976753     -0.0358117897
C      -0.5182857766     -1.2723864806      0.2919890317
H      -1.4897788058      1.6934811242     -0.8686406303
H       0.7157338068      2.5993672187      0.4706375815
H      -0.4769936934      3.4441457785     -0.4423079730
H       0.5173800976     -1.6392605946     -1.0260105319
H      -0.2340065857     -1.7362464505      1.7817159697
H      -1.9429371717     -1.1210482470      0.4471796458
12
Frame=89  time=45.000fs  energy=-306.19355334Ha  molecule=COOCCCHHHHHH
C      -0.1317663049      0.0832773530      0.0539262438
O       1.1150678736     -0.1549014539      0.0748904166
O       1.8980450487      0.7696366340     -0.0007817436
C      -0.5813150918      1.3340142802     -0.4848505778
C      -0.0743335980      2.6195966906     -0.0358636655
C      -0.5154804967     -1.2719930462      0.2947380997
H      -1.4853232866      1.6980436396     -0.8755464601
H       0.7075521669      2.5928464143      0.4664662193
H      -0.4690561362      3.4404582829     -0.4472336900
H       0.5316653306     -1.6333781688     -1.0362202020
H      -0.2124726275     -1.7450014150      1.7899584812
H      -1.9453252853     -1.1172841637      0.4649144507
12
Frame=90  time=45.500fs  energy=-306.19355732Ha  molecule=COOCCCHHHHHH
C      -0.1341318066      0.0842752327      0.0550106032
O       1.1129606163     -0.1556266659      0.0754721417
O       1.8953457134      0.7673218720     -0.0006077503
C      -0.5794286662      1.3337732254     -0.4896208984
C      -0.0734173445      2.6228942276     -0.0359139874
C      -0.5126737128     -1.2715997226      0.2974873755
H      -1.4808740512      1.7026061017     -0.8824560787
H       0.6993850208      2.5863293556      0.4623022805
H      -0.4611238894      3.4367781072     -0.4521587062
H       0.5459523229     -1.6274977739     -1.0464371513
H      -0.1909375838     -1.7537592876      1.7982089092
H      -1.9477230516     -1.1135188295      0.4826456079
12
Frame=91  time=46.000fs  energy=-306.19356080Ha  molecule=COOCCCHHHHHH
C      -0.1364971552      0.0852731298      0.0560946331
O       1.1108531117     -0.1563515920      0.0760536060
O       1.8926460141      0.7650070973     -0.0004336340
C      -0.5775419675      1.3335327543     -0.4943921880
C      -0.0725014309      2.6261903569     -0.0359629602
C      -0.5098657685     -1.2712065273      0.3002366762
H      -1.4764301682      1.7071684176     -0.8893686086
H       0.6912302497      2.5798157340      0.4581448916
H      -0.4531964878      3.4331043323     -0.4570828631
H       0.5602400175     -1.6216191451     -1.0566599012
H      -0.1694026528     -1.7625191657      1.8064656249
H      -1.9501287381     -1.1097526112      0.5003730703
12
Frame=92  time=46.500fs  energy=-306.19356384Ha  molecule=COOCCCHHHHHH
C      -0.1388622614      0.0862709920      0.0571783282
O       1.1087455006     -0.1570762366      0.0766348151
O       1.8899461352      0.7626924227     -0.0002594208
C      -0.5756551329      1.3332927756     -0.4991640651
C      -0.0715858407      2.6294851357     -0.0360107685
C      -0.5070569721     -1.2708134720      0.3029858429
H      -1.4719908788      1.7117304718     -0.8962832700
H       0.6830860824      2.5733052988      0.4539932842
H      -0.4452735396      3.4294361497     -0.4620060222
H       0.5745275066     -1.6157421222     -1.0668871227
H      -0.1478688988     -1.7712802631      1.8147271997
H      -1.9525408663     -1.1059858326      0.5180967183
12
Frame=93  time=47.000fs  energy=-306.19356647Ha  molecule=COOCCCHHHHHH
C      -0.1412270442      0.0872687726      0.0582616830
O       1.1066379083     -0.1578006036      0.0772157746
O       1.8872462412      0.7603779499     -0.0000851338
C      -0.5737682833      1.3330532130     -0.5039361918
C      -0.0706705625      2.6327786101     -0.0360575765
C      -0.5042475978     -1.2704205637      0.3057347385
H      -1.4675555667      1.7162921369     -0.9031993747
H       0.6749510478      2.5667978484      0.4498467871
H      -0.4373547176      3.4257728552     -0.4669280631
H       0.5888140124     -1.6098666210     -1.0771176323
H      -0.1263372628     -1.7800418983      1.8229923903
H      -1.9549581807     -1.1022187780      0.5358163835
12
Frame=94  time=47.500fs  energy=-306.19356873Ha  molecule=COOCCCHHHHHH
C      -0.1435914307      0.0882664305      0.0593446920
O       1.1045304454     -0.1585246961      0.0777964896
O       1.8845464779      0.7580637694      0.0000892069
C      -0.5718815250      1.3328140033     -0.5087082705
C      -0.0697555893      2.6360708166     -0.0361035298
C      -0.5014378873     -1.2700278066      0.3084832454
H      -1.4631237340      1.7208532810     -0.9101163199
H       0.6668239308      2.5602932217      0.4457048180
H      -0.4294397520      3.4221138417     -0.4718488817
H       0.6030988692     -1.6039926112     -1.0873503843
H      -0.1048085728     -1.7888034830      1.8312601222
H      -1.9573796199     -1.0984516958      0.5535318684
12
Frame=95  time=48.000fs  energy=-306.19357066Ha  molecule=COOCCCHHHHHH
C      -0.1459553556      0.0892639295      0.0604273501
O       1.1024232084     -0.1592485169      0.0783769648
O       1.8818469736      0.7557499618      0.0002635834
C      -0.5699949500      1.3325750943     -0.5134800414
C      -0.0688409170      2.6393617835     -0.0361487565
C      -0.4986280518     -1.2696352027      0.3112312628
H      -1.4586949801      1.7254137743     -0.9170335809
H       0.6587037334      2.5537912919      0.4415668749
H      -0.4215284220      3.4184585900     -0.4767683887
H       0.6173815093     -1.5981200994     -1.0975844622
H      -0.0832835529     -1.7975645124      1.8395294730
H      -1.9598042915     -1.0946848019      0.5712429615
12
Frame=96  time=48.500fs  energy=-306.19357230Ha  molecule=COOCCCHHHHHH
C      -0.1483187614      0.0902612383      0.0615096522
O       1.1003162816     -0.1599720686      0.0789572045
O       1.8791478398      0.7534365974      0.0004379803
C      -0.5681086383      1.3323364435     -0.5182512790
C      -0.0679265440      2.6426515325     -0.0361933680
C      -0.4958182745     -1.2692427526      0.3139787055
H      -1.4542689837      1.7299734925     -0.9239507039
H       0.6505896403      2.5472919599      0.4374325275
H      -0.4136205483      3.4148066596     -0.4816865077
H       0.6316614495     -1.5922491157     -1.1078190687
H      -0.0617628333     -1.8063245550      1.8477996559
H      -1.9622314486     -1.0909182827      0.5889494487
12
Frame=97  time=49.000fs  energy=-306.19357369Ha  molecule=COOCCCHHHHHH
C      -0.1506815974      0.0912583299      0.0625915941
O       1.0982097376     -0.1606953531      0.0795372126
O       1.8764491733      0.7511237376      0.0006123844
C      -0.5662226583      1.3320980157     -0.5230217894
C      -0.0670124702      2.6459400797     -0.0362374612
C      -0.4930087132     -1.2688504557      0.3167255012
H      -1.4498454886      1.7345323196     -0.9308672994
H       0.6424809895      2.5407951491      0.4333014097
H      -0.4057159873      3.4111576795     -0.4866031742
H       0.6459382805     -1.5863797047     -1.1180535154
H      -0.0402469589     -1.8150832438      1.8560700043
H      -1.9646604688     -1.0871522986      0.6066511216
12
Frame=98  time=49.500fs  energy=-306.19357485Ha  molecule=COOCCCHHHHHH
C      -0.1530438197      0.0922551809      0.0636731718
O       1.0961036385     -0.1614183721      0.0801169927
O       1.8737510572      0.7488114355      0.0007867843
C      -0.5643370685      1.3318597827     -0.5277914064
C      -0.0660986967      2.6492274373     -0.0362811194
C      -0.4901995028     -1.2684583113      0.3194715895
H      -1.4454242909      1.7390901499     -0.9377830348
H       0.6343772454      2.5343008009      0.4291732112
H      -0.3978146238      3.4075113397     -0.4915183336
H       0.6602116569     -1.5805119184     -1.1282872120
H      -0.0187363982     -1.8238402688      1.8643399565
H      -1.9670908363     -1.0833869862      0.6243477832
12
Frame=99  time=50.000fs  energy=-306.19357583Ha  molecule=COOCCCHHHHHH
C      -0.1554053905      0.0932517715      0.0647543818
O       1.0939980374     -0.1621411271      0.0806965479
O       1.8710535624      0.7464997364      0.0009611700
C      -0.5624519184      1.3316217214     -0.5325599891
C      -0.0651852251      2.6525136140     -0.0363244139
C      -0.4873907577     -1.2680663181      0.3222169199
H      -1.4410052294      1.7436468884     -0.9446976280
H       0.6262779775      2.5278088708      0.4250476708
H      -0.3899163672      3.4038673824     -0.4964319407
H       0.6744812881     -1.5746458110     -1.1385196555
H       0.0027684491     -1.8325953690      1.8726090424
H      -1.9695221253     -1.0796224620      0.6420392520
12
Frame=100  time=50.500fs  energy=-306.19357664Ha  molecule=COOCCCHHHHHH
C      -0.1577662772      0.0942480850      0.0658352212
O       1.0918929791     -0.1628636193      0.0812758810
O       1.8683567489      0.7441886789      0.0011355334
C      -0.5605672499      1.3313838136     -0.5373274184
C      -0.0642720577      2.6557986158     -0.0363674053
C      -0.4845825743     -1.2676744747      0.3249614504
H      -1.4365881767      1.7482024509     -0.9516108415
H       0.6181828408      2.5213193255      0.4209245697
H      -0.3820211457      3.4002255950     -0.5013439576
H       0.6887469316     -1.5687814359     -1.1487504208
H       0.0242672436     -1.8413483261      1.8808768707
H      -1.9719539861     -1.0758588238      0.6597253635
12
Frame=101  time=51.000fs  energy=-306.19357731Ha  molecule=COOCCCHHHHHH
C      -0.1601264525      0.0952441073      0.0669156873
O       1.0897885012     -0.1635858496      0.0818549945
O       1.8656606673      0.7418782955      0.0013098675
C      -0.5586830978      1.3311460442     -0.5420935947
C      -0.0633591966      2.6590824472     -0.0364101449
C      -0.4817750335     -1.2672827796      0.3277051467
H      -1.4321730328      1.7527567642     -0.9585224764
H       0.6100915605      2.5148321404      0.4168037255
H      -0.3741289035      3.3965858026     -0.5062543534
H       0.7030083854     -1.5629188434     -1.1589791504
H       0.0457596998     -1.8500989588      1.8891431177
H      -1.9743861326     -1.0720961542      0.6774059719
12
Frame=102  time=51.500fs  energy=-306.19357786Ha  molecule=COOCCCHHHHHH
C      -0.1624858932      0.0962398268      0.0679957782
O       1.0876846349     -0.1643078191      0.0824338905
O       1.8629653597      0.7395686135      0.0014841662
C      -0.5567994911      1.3309084016     -0.5468584348
C      -0.0624466442      2.6623651110     -0.0364526757
C      -0.4789682025     -1.2668912316      0.3304479806
H      -1.4277597192      1.7573097649     -0.9654323672
H       0.6020039183      2.5083472969      0.4126849869
H      -0.3662395968      3.3929478626     -0.5111631029
H       0.7172654828     -1.5570580794     -1.1692055460
H       0.0672455786     -1.8588471169      1.8974075170
H      -1.9768183323     -1.0683345215      0.6950809495
12
Frame=103  time=52.000fs  energy=-306.19357831Ha  molecule=COOCCCHHHHHH
C      -0.1648445800      0.0972352336      0.0690754921
O       1.0855814063     -0.1650295285      0.0830125710
O       1.8602708609      0.7372596554      0.0016584247
C      -0.5549164537      1.3306708763     -0.5516218704
C      -0.0615344024      2.6656466093     -0.0364950338
C      -0.4761621367     -1.2664998293      0.3331899292
H      -1.4233481745      1.7618613992     -0.9723403774
H       0.5939197415      2.5018647818      0.4085682290
H      -0.3583531918      3.3893116590     -0.5160701859
H       0.7315180869     -1.5511991847     -1.1794293602
H       0.0887246820     -1.8675926772      1.9056698513
H      -1.9792503966     -1.0645739827      0.7127501864
12
Frame=104  time=52.500fs  energy=-306.19357868Ha  molecule=COOCCCHHHHHH
C      -0.1672024971      0.0982303199      0.0701548278
O       1.0834788366     -0.1657509784      0.0835910376
O       1.8575771998      0.7349514397      0.0018326390
C      -0.5530340052      1.3304334610     -0.5563838452
C      -0.0606224732      2.6689269436     -0.0365372490
C      -0.4733568815     -1.2661085717      0.3359309743
H      -1.4189383508      1.7664116218     -0.9792463946
H       0.5858388939      2.4953845849      0.4044533490
H      -0.3504696620      3.3856770980     -0.5209755863
H       0.7457660862     -1.5453421947     -1.1896503893
H       0.1101968471     -1.8763355393      1.9139299438
H      -1.9816821736     -1.0608145843      0.7304135893
12
Frame=105  time=53.000fs  energy=-306.19357897Ha  molecule=COOCCCHHHHHH
C      -0.1695596315      0.0992250792      0.0712337842
O       1.0813769430     -0.1664721696      0.0841692920
O       1.8548843997      0.7326439816      0.0020068056
C      -0.5511521614      1.3301961497     -0.5611443135
C      -0.0597108584      2.6722061150     -0.0365793461
C      -0.4705524741     -1.2657174578      0.3386711012
H      -1.4145302107      1.7709603946     -0.9861503276
H       0.5777612683      2.4889066987      0.4003402626
H      -0.3425889867      3.3820441038     -0.5258792916
H       0.7600093905     -1.5394871399     -1.1998684668
H       0.1316619411     -1.8850756219      1.9221876518
H      -1.9841135414     -1.0570563645      0.7480710800
12
Frame=106  time=53.500fs  energy=-306.19357921Ha  molecule=COOCCCHHHHHH
C      -0.1719159728      0.1002195063      0.0723123607
O       1.0792757396     -0.1671931026      0.0847473352
O       1.8521924794      0.7303372932      0.0021809219
C      -0.5492709351      1.3299589378     -0.5659032386
C      -0.0587995592      2.6754841244     -0.0366213455
C      -0.4677489443     -1.2653264865      0.3414102985
H      -1.4101237249      1.7755076867     -0.9930521025
H       0.5696867804      2.4824311177      0.3962289010
H      -0.3347111496      3.3784126159     -0.5307812923
H       0.7742479279     -1.5336340457     -1.2100834574
H       0.1531198571     -1.8938128596      1.9304428612
H      -1.9865444027     -1.0532993540      0.7657225944
12
Frame=107  time=54.000fs  energy=-306.19357941Ha  molecule=COOCCCHHHHHH
C      -0.1742715127      0.1012135971      0.0733905567
O       1.0771752374     -0.1679137779      0.0853251686
O       1.8495014541      0.7280313841      0.0023549855
C      -0.5473903364      1.3297218217     -0.5706605909
C      -0.0578885770      2.6787609726     -0.0366632637
C      -0.4649463160     -1.2649356571      0.3441485573
H      -1.4057188705      1.7800534727     -0.9999516601
H       0.5616153641      2.4759578370      0.3921192083
H      -0.3268361377      3.3747825855     -0.5356815812
H       0.7884816415     -1.5277829329     -1.2202952523
H       0.1745705099     -1.9025472005      1.9386954811
H      -1.9889746804     -1.0495435776      0.7833680803
12
Frame=108  time=54.500fs  energy=-306.19357956Ha  molecule=COOCCCHHHHHH
C      -0.1766262446      0.1022073485      0.0744683721
O       1.0750754451     -0.1686341962      0.0859027932
O       1.8468113356      0.7257262620      0.0025289946
C      -0.5455103733      1.3294847986     -0.5754163474
C      -0.0569779125      2.6820366605     -0.0367051143
C      -0.4621446083     -1.2645449688      0.3468858710
H      -1.4013156295      1.7845977321     -1.0068489535
H       0.5535469674      2.4694868529      0.3880111389
H      -0.3189639404      3.3711539737     -0.5405801533
H       0.8027104869     -1.5219338185     -1.2305037645
H       0.1960138327     -1.9112786039      1.9469454399
H      -1.9914043133     -1.0457890548      0.8010074965
12
Frame=109  time=55.000fs  energy=-306.19357968Ha  molecule=COOCCCHHHHHH
C      -0.1789801635      0.1032007579      0.0755458067
O       1.0729763696     -0.1693543579      0.0864802098
O       1.8441221332      0.7234219325      0.0027029479
C      -0.5436310519      1.3292478663     -0.5801704900
C      -0.0560675664      2.6853111892     -0.0367469084
C      -0.4593438360     -1.2641544211      0.3496222345
H      -1.3969139876      1.7891404490     -1.0137439458
H       0.5454815493      2.4630181619      0.3839046558
H      -0.3110945488      3.3675267494     -0.5454770054
H       0.8169344305     -1.5160867159     -1.2407089253
H       0.2174497743     -1.9200070382      1.9551926816
H      -1.9938332537     -1.0420358010      0.8186408110
12
Frame=110  time=55.500fs  energy=-306.19357978Ha  molecule=COOCCCHHHHHH
C      -0.1813332658      0.1041938235      0.0766228608
O       1.0708780161     -0.1700742636      0.0870574194
O       1.8414338540      0.7211184003      0.0028768441
C      -0.5417523769      1.3290110230     -0.5849230049
C      -0.0551575393      2.6885845598     -0.0367886546
C      -0.4565440106     -1.2637640133      0.3523576442
H      -1.3925139333      1.7936816109     -1.0206366085
H       0.5374190771      2.4565517606      0.3797997291
H      -0.3032279551      3.3639008879     -0.5503721353
H       0.8311534470     -1.5102416353     -1.2509106810
H       0.2388782961     -1.9287324794      1.9634371632
H      -1.9962614642     -1.0382838279      0.8362679998
12
Frame=111  time=56.000fs  energy=-306.19357986Ha  molecule=COOCCCHHHHHH
C      -0.1836855488      0.1051865440      0.0776995344
O       1.0687803882     -0.1707939138      0.0876344227
O       1.8387465031      0.7188156682      0.0030506824
C      -0.5398743517      1.3287742673     -0.5896738818
C      -0.0542478314      2.6918567735     -0.0368303602
C      -0.4537451408     -1.2633737450      0.3550920979
H      -1.3881154573      1.7982212082     -1.0275269197
H       0.5293595250      2.4500876458      0.3756963342
H      -0.2953641525      3.3602763691     -0.5552655424
H       0.8453675182     -1.5043985842     -1.2611089902
H       0.2602993701     -1.9374549094      1.9716788516
H      -1.9986889158     -1.0345331445      0.8538890456
12
Frame=112  time=56.500fs  energy=-306.19357992Ha  molecule=COOCCCHHHHHH
C      -0.1860370107      0.1061789185      0.0787758280
O       1.0666834888     -0.1715133089      0.0882112204
O       1.8360600844      0.7165137387      0.0032244621
C      -0.5379969788      1.3285375982     -0.5944231132
C      -0.0533384429      2.6951278317     -0.0368720308
C      -0.4509472333     -1.2629836156      0.3578255940
H      -1.3837185520      1.8027592340     -1.0344148632
H       0.5213028720      2.4436258142      0.3715944515
H      -0.2875031348      3.3566531772     -0.5601572268
H       0.8595766320     -1.4985575682     -1.2713038216
H       0.2817129771     -1.9461743154      1.9799177224
H      -2.0011155864     -1.0307837573      0.8715039370
12
Frame=113  time=57.000fs  energy=-306.19357996Ha  molecule=COOCCCHHHHHH
C      -0.1883876504      0.1071709463      0.0798517419
O       1.0645873196     -0.1722324495      0.0887878131
O       1.8333746006      0.7142126129      0.0033981827
C      -0.5361202598      1.3283010148     -0.5991706939
C      -0.0524293736      2.6983977361     -0.0369136709
C      -0.4481502927     -1.2625936247      0.3605581318
H      -1.3793232107      1.8072956835     -1.0413004272
H       0.5132491009      2.4371662624      0.3674940646
H      -0.2796448960      3.3530312993     -0.5650471893
H       0.8737807806     -1.4927185906     -1.2814951517
H       0.3031191049     -1.9548906886      1.9881537576
H      -2.0035414591     -1.0270356710      0.8891126672
12
Frame=114  time=57.500fs  energy=-306.19358000Ha  molecule=COOCCCHHHHHH
C      -0.1907374674      0.1081626272      0.0809272768
O       1.0624918819     -0.1729513362      0.0893642014
O       1.8306900531      0.7119122918      0.0035718437
C      -0.5342441957      1.3280645164     -0.6039166207
C      -0.0515206235      2.7016664883     -0.0369552841
C      -0.4453543222     -1.2622037720      0.3632897113
H      -1.3749294279      1.8118305533     -1.0481836035
H       0.5051981974      2.4307089868      0.3633951603
H      -0.2717894305      3.3494107247     -0.5699354313
H       0.8879799602     -1.4868816534     -1.2916829640
H       0.3245177473     -1.9636040233      1.9963869446
H      -2.0059665213     -1.0232888887      0.9067152334
12
Frame=115  time=58.000fs  energy=-306.19358003Ha  molecule=COOCCCHHHHHH
C      -0.1930864617      0.1091539611      0.0820024331
O       1.0603971761     -0.1736699694      0.0899403859
O       1.8280064429      0.7096127755      0.0037454448
C      -0.5323687871      1.3278281025     -0.6086608915
C      -0.0506121924      2.7049340902     -0.0369968731
C      -0.4425593240     -1.2618140570      0.3660203327
H      -1.3705371987      1.8163638416     -1.0550643869
H       0.4971501494      2.4242539837      0.3592977275
H      -0.2639367327      3.3457914449     -0.5748219548
H       0.9021741702     -1.4810467573     -1.3018672468
H       0.3459089027     -1.9723143165      2.0046172749
H      -2.0083907635     -1.0195434121      0.9243116359
12
Frame=116  time=58.500fs  energy=-306.19358005Ha  molecule=COOCCCHHHHHH
C      -0.1954346337      0.1101449482      0.0830772115
O       1.0583032024     -0.1743883496      0.0905163672
O       1.8253237702      0.7073140637      0.0039189860
C      -0.5304940339      1.3275917726     -0.6134035058
C      -0.0497040798      2.7082005436     -0.0370384403
C      -0.4397652992     -1.2614244795      0.3687499969
H      -1.3661465185      1.8208955477     -1.0619427743
H       0.4891049464      2.4178012492      0.3552017570
H      -0.2560867971      3.3421734527     -0.5797067622
H       0.9163634123     -1.4752139019     -1.3120479930
H       0.3672925731     -1.9810215674      2.0128447433
H      -2.0108141789     -1.0157992422      0.9419018779
12
Frame=117  time=59.000fs  energy=-306.19358007Ha  molecule=COOCCCHHHHHH
C      -0.1977819841      0.1111355885      0.0841516126
O       1.0562099605     -0.1751064774      0.0910921458
O       1.8226420346      0.7050161561      0.0040924670
C      -0.5286199360      1.3273555263     -0.6181444639
C      -0.0487962854      2.7114658506     -0.0370799873
C      -0.4369722483     -1.2610350390      0.3714787048
H      -1.3617573832      1.8254256718     -1.0688187646
H       0.4810625791      2.4113507792      0.3511072409
H      -0.2482396182      3.3385567419     -0.5845898560
H       0.9305476900     -1.4693830860     -1.3222251984
H       0.3886687638     -1.9897257767      2.0210693473
H      -2.0132367628     -1.0120563790      0.9594859645
12
Frame=118  time=59.500fs  energy=-306.19358008Ha  molecule=COOCCCHHHHHH
C      -0.2001285136      0.1121258826      0.0852256372
O       1.0541174498     -0.1758243533      0.0916677221
O       1.8199612357      0.7027190517      0.0042658878
C      -0.5267464928      1.3271193633     -0.6228837666
C      -0.0478888087      2.7147300132     -0.0371215154
C      -0.4341801712     -1.2606457352      0.3742064577
H      -1.3573697890      1.8299542147     -1.0756923580
H       0.4730230393      2.4049025697      0.3470141726
H      -0.2403951905      3.3349413073     -0.5894712391
H       0.9447270087     -1.4635543077     -1.3323988618
H       0.4100374822     -1.9984269463      2.0292910864
H      -2.0156585120     -1.0083148218      0.9770639026
12
Frame=119  time=60.000fs  energy=-306.19358009Ha  molecule=COOCCCHHHHHH
C      -0.2024742235      0.1131158307      0.0862992859
O       1.0520256694     -0.1765419778      0.0922430967
O       1.8172813723      0.7004227495      0.0044392483
C      -0.5248737035      1.3268832833     -0.6276214157
C      -0.0469816493      2.7179930337     -0.0371630258
C      -0.4313890672     -1.2602565679      0.3769332572
H      -1.3529837322      1.8344811779     -1.0825635558
H       0.4649863191      2.3984566164      0.3429225462
H      -0.2325535085      3.3313271443     -0.5943509145
H       0.9589013748     -1.4577275645     -1.3425689838
H       0.4313987378     -2.0071250795      2.0375099616
H      -2.0180794245     -1.0045745696      0.9946357004
12
Frame=120  time=60.500fs  energy=-306.19358009Ha  molecule=COOCCCHHHHHH
C      -0.2048191150      0.1141054336      0.0873725594
O       1.0499346186     -0.1772593515      0.0928182699
O       1.8146024434      0.6981272484      0.0046125487
C      -0.5230015674      1.3266472860     -0.6323574132
C      -0.0460748065      2.7212549143     -0.0372045193
C      -0.4285989355     -1.2598675366      0.3796591047
H      -1.3485992092      1.8390065632     -1.0894323604
H       0.4569524113      2.3920129148      0.3388323566
H      -0.2247145666      3.3277142486     -0.5992288854
H       0.9730707956     -1.4519028536     -1.3527355667
H       0.4527525415     -2.0158201800      2.0457259751
H      -2.0204994991     -1.0008356209      1.0122013674
12
Frame=121  time=61.000fs  energy=-306.19358010Ha  molecule=COOCCCHHHHHH
C      -0.2071631893      0.1150946916      0.0884454586
O       1.0478442960     -0.1779764749      0.0933932424
O       1.8119244474      0.6958325471      0.0047857888
C      -0.5211300834      1.3264113712     -0.6370917613
C      -0.0451682799      2.7245156571     -0.0372459964
C      -0.4258097748     -1.2594786412      0.3823840019
H      -1.3442162165      1.8435303729     -1.0962987746
H       0.4489213091      2.3855714606      0.3347435990
H      -0.2168783591      3.3241026166     -0.6041051552
H       0.9872352793     -1.4460801717     -1.3628986141
H       0.4740989054     -2.0245122524      2.0539391302
H      -2.0229187355     -0.9970979738      1.0297609137
12
Frame=122  time=61.500fs  energy=-306.19358010Ha  molecule=COOCCCHHHHHH
C      -0.2095064481      0.1160836054      0.0895179842
O       1.0457547006     -0.1786933485      0.0939680145
O       1.8092473829      0.6935386442      0.0049589688
C      -0.5192592504      1.3261755387     -0.6418244630
C      -0.0442620688      2.7277752646     -0.0372874577
C      -0.4230215837     -1.2590898813      0.3851079508
H      -1.3398347509      1.8480526094     -1.1031628019
H       0.4408930059      2.3791322492      0.3306562692
H      -0.2090448805      3.3204922448     -0.6089797271
H       1.0013948345     -1.4402595155     -1.3730581304
H       0.4954378425     -2.0332013015      2.0621494307
H      -2.0253371339     -0.9933616264      1.0473143502
12
Frame=123  time=62.000fs  energy=-306.19358011Ha  molecule=COOCCCHHHHHH
C      -0.2118488927      0.1170721757      0.0905901369
O       1.0436658309     -0.1794099728      0.0945425866
O       1.8065712483      0.6912455382      0.0051320888
C      -0.5173890673      1.3259397883     -0.6465555209
C      -0.0433561726      2.7310337390     -0.0373289035
C      -0.4202343606     -1.2587012565      0.3878309530
H      -1.3354548088      1.8525732755     -1.1100244462
H       0.4328674951      2.3726952760      0.3265703632
H      -0.2012141251      3.3168831299     -0.6138526046
H       1.0155494705     -1.4344408812     -1.3832141210
H       0.5167693664     -2.0418873327      2.0703568812
H      -2.0277546947     -0.9896265765      1.0648616883
12
Frame=124  time=62.500fs  energy=-306.19358011Ha  molecule=COOCCCHHHHHH
C      -0.2141905248      0.1180604031      0.0916619176
O       1.0415776858     -0.1801263484      0.0951169593
O       1.8038960417      0.6889532276      0.0053051487
C      -0.5155195328      1.3257041197     -0.6512849381
C      -0.0424505906      2.7342910827     -0.0373703342
C      -0.4174481039     -1.2583127667      0.3905530105
H      -1.3310763870      1.8570923739     -1.1168837116
H       0.4248447706      2.3662605365      0.3224858773
H      -0.1933860871      3.3132752688     -0.6187237913
H       1.0296991967     -1.4286242649     -1.3933665916
H       0.5380934914     -2.0505703516      2.0785614864
H      -2.0301714191     -0.9858928217      1.0824029398
12
Frame=125  time=63.000fs  energy=-306.19358011Ha  molecule=COOCCCHHHHHH
C      -0.2165313460      0.1190482882      0.0927333269
O       1.0394902637     -0.1808424758      0.0956911330
O       1.8012217614      0.6866617108      0.0054781488
C      -0.5136506456      1.3254685329     -0.6560127178
C      -0.0415453224      2.7375472981     -0.0374117500
C      -0.4146628117     -1.2579244115      0.3932741252
H      -1.3266994823      1.8616099078     -1.1237406025
H       0.4168248261      2.3598280259      0.3184028080
H      -0.1855607609      3.3096686584     -0.6235932905
H       1.0438440229     -1.4228096628     -1.4035155485
H       0.5594102320     -2.0592503640      2.0867632516
H      -2.0325873079     -0.9821603596      1.0999381167
12
Frame=126  time=63.500fs  energy=-306.19358011Ha  molecule=COOCCCHHHHHH
C      -0.2188713579      0.1200358318      0.0938043658
O       1.0374035631     -0.1815583555      0.0962651081
O       1.7985484056      0.6843709862      0.0056510892
C      -0.5117824045      1.3252330275     -0.6607388632
C      -0.0406403671      2.7408023874     -0.0374531510
C      -0.4118784822     -1.2575361906      0.3959942990
H      -1.3223240912      1.8661258802     -1.1305951235
H       0.4088076555      2.3533977395      0.3143211518
H      -0.1777381407      3.3060632960     -0.6284611059
H       1.0579839589     -1.4169970708     -1.4136609982
H       0.5807196032     -2.0679273760      2.0949621822
H      -2.0350023627     -0.9784291875      1.1174672313
12
Frame=127  time=64.000fs  energy=-306.19358011Ha  molecule=COOCCCHHHHHH
C      -0.2212105622      0.1210230346      0.0948750350
O       1.0353175828     -0.1822739882      0.0968388850
O       1.7958759723      0.6820810522      0.0058239699
C      -0.5099148082      1.3249976035     -0.6654633777
C      -0.0397357241      2.7440563532     -0.0374945374
C      -0.4090951134     -1.2571481037      0.3987135340
H      -1.3179502106      1.8706402941     -1.1374472794
H       0.4007932528      2.3469696728      0.3102409054
H      -0.1699182207      3.3024591786     -0.6333272411
H       1.0721190148     -1.4111864848     -1.4238029476
H       0.6020216201     -2.0766013935      2.1031582838
H      -2.0374165846     -0.9746993031      1.1349902963
12
Frame=128  time=64.500fs  energy=-306.19358011Ha  molecule=COOCCCHHHHHH
C      -0.2235489606      0.1220098973      0.0959453352
O       1.0332323210     -0.1829893742      0.0974124641
O       1.7932044597      0.6797919071      0.0059967910
C      -0.5080478553      1.3247622606     -0.6701862646
C      -0.0388313929      2.7473091978     -0.0375359094
C      -0.4063127035     -1.2567601505      0.4014318320
H      -1.3135778372      1.8751531529     -1.1442970748
H       0.3927816119      2.3405438209      0.3061620656
H      -0.1621009952      3.2988563034     -0.6381916995
H       1.0862492008     -1.4053779007     -1.4339414037
H       0.6233162980     -2.0852724227      2.1113515620
H      -2.0398299754     -0.9709707035      1.1525073240
12
Frame=129  time=65.000fs  energy=-306.19358012Ha  molecule=COOCCCHHHHHH
C      -0.2258865547      0.1229964206      0.0970152673
O       1.0311477764     -0.1837045141      0.0979858460
O       1.7905338659      0.6775035494      0.0061695528
C      -0.5061815444      1.3245269986     -0.6749075272
C      -0.0379273726      2.7505609235     -0.0375772669
C      -0.4035312504     -1.2563723308      0.4041491951
H      -1.3092069678      1.8796644597     -1.1511445147
H       0.3847727268      2.3341201792      0.3020846291
H      -0.1542864585      3.2952546677     -0.6430544848
H       1.1003745272     -1.3995713141     -1.4440763735
H       0.6446036522     -2.0939404699      2.1195420228
H      -2.0422425366     -0.9672433862      1.1700183273
12
Frame=130  time=65.500fs  energy=-306.19358012Ha  molecule=COOCCCHHHHHH
C      -0.2282233464      0.1239826052      0.0980848320
O       1.0290639475     -0.1844194085      0.0985590310
O       1.7878641889      0.6752159772      0.0063422552
C      -0.5043158743      1.3242918174     -0.6796271690
C      -0.0370236628      2.7538115328     -0.0376186101
C      -0.4007507521     -1.2559846443      0.4068656253
H      -1.3048375991      1.8841742178     -1.1579896040
H       0.3767665916      2.3276987429      0.2980085930
H      -0.1464746048      3.2916542687     -0.6479156005
H       1.1144950042     -1.3937667210     -1.4542078643
H       0.6658836984     -2.1026055414      2.1277296719
H      -2.0446542698     -0.9635173484      1.1875233190
12
Frame=131  time=66.000fs  energy=-306.19358012Ha  molecule=COOCCCHHHHHH
C      -0.2305593372      0.1249684518      0.0991540302
O       1.0269808326     -0.1851340579      0.0991320195
O       1.7851954268      0.6729291890      0.0065148985
C      -0.5024508435      1.3240567169     -0.6843451935
C      -0.0361202626      2.7570610281     -0.0376599391
C      -0.3979712066     -1.2555970906      0.4095811245
H      -1.3004697278      1.8886824305     -1.1648323476
H       0.3687632003      2.3212795073      0.2939339540
H      -0.1386654283      3.2880551038     -0.6527750503
H       1.1286106422     -1.3879641171     -1.4643358834
H       0.6871564519     -2.1112676435      2.1359145153
H      -2.0470651767     -0.9597925875      1.2050223117
12
Frame=132  time=66.500fs  energy=-306.19358012Ha  molecule=COOCCCHHHHHH
C      -0.2328945289      0.1259539612      0.1002228627
O       1.0248984304     -0.1858484629      0.0997048120
O       1.7825275776      0.6706431830      0.0066874827
C      -0.5005864507      1.3238216967     -0.6890616040
C      -0.0352171715      2.7603094118     -0.0377012538
C      -0.3951926120     -1.2552096695      0.4122956948
H      -1.2961033508      1.8931891011     -1.1716727506
H       0.3607625471      2.3148624676      0.2898607090
H      -0.1308589232      3.2844571702     -0.6576328377
H       1.1427214514     -1.3821634981     -1.4744604380
H       0.7084219285     -2.1199267824      2.1440965589
H      -2.0494752590     -0.9560691007      1.2225153183
12
Frame=133  time=67.000fs  energy=-306.19358012Ha  molecule=COOCCCHHHHHH
C      -0.2352289232      0.1269391341      0.1012913301
O       1.0228167392     -0.1865626238      0.1002774089
O       1.7798606393      0.6683579577      0.0068600080
C      -0.4987226945      1.3235867569     -0.6937764041
C      -0.0343143887      2.7635566863     -0.0377425544
C      -0.3924149661     -1.2548223807      0.4150093381
H      -1.2917384648      1.8976942328     -1.1785108178
H       0.3527646258      2.3084476192      0.2857888551
H      -0.1230550839      3.2808604653     -0.6624889662
H       1.1568274423     -1.3763648599     -1.4845815357
H       0.7296801436     -2.1285829646      2.1522758087
H      -2.0518845185     -0.9523468854      1.2400023516
12
Frame=134  time=67.500fs  energy=-306.19358012Ha  molecule=COOCCCHHHHHH
C      -0.2375625219      0.1279239712      0.1023594334
O       1.0207357575     -0.1872765414      0.1008498107
O       1.7771946101      0.6660735112      0.0070324745
C      -0.4968595736      1.3233518971     -0.6984895971
C      -0.0334119137      2.7668028538     -0.0377838409
C      -0.3896382670     -1.2544352240      0.4177220565
H      -1.2873750666      1.9021978289     -1.1853465543
H       0.3447694308      2.3020349573      0.2817183893
H      -0.1152539046      3.2772649864     -0.6673434396
H       1.1709286252     -1.3705681981     -1.4946991837
H       0.7509311129     -2.1372361963      2.1604522707
H      -2.0542929568     -0.9486259387      1.2574834245
12
Frame=135  time=68.000fs  energy=-306.19358012Ha  molecule=COOCCCHHHHHH
C      -0.2398953266      0.1289084732      0.1034271732
O       1.0186554839     -0.1879902160      0.1014220176
O       1.7745294880      0.6637898420      0.0072048823
C      -0.4949970866      1.3231171172     -0.7032011865
C      -0.0325097457      2.7700479170     -0.0378251133
C      -0.3868625125     -1.2540481989      0.4204338520
H      -1.2830131530      1.9066998928     -1.1921799651
H       0.3367769560      2.2956244772      0.2776493084
H      -0.1074553795      3.2736707309     -0.6721962612
H       1.1850250103     -1.3647735085     -1.5048133894
H       0.7721748519     -2.1458864840      2.1686259509
H      -2.0567005758     -0.9449062580      1.2749585498
12
Frame=136  time=68.500fs  energy=-306.19358012Ha  molecule=COOCCCHHHHHH
C      -0.2422273390      0.1298926409      0.1044945504
O       1.0165759167     -0.1887036483      0.1019940303
O       1.7718652709      0.6615069484      0.0073772315
C      -0.4931352321      1.3228824170     -0.7079111759
C      -0.0316078841      2.7732918780     -0.0378663717
C      -0.3840877008     -1.2536613053      0.4231447264
H      -1.2786527208      1.9112004278     -1.1990110553
H       0.3287871956      2.2892161743      0.2735816094
H      -0.0996595029      3.2700776960     -0.6770474348
H       1.1991166082     -1.3589807868     -1.5149241603
H       0.7934113762     -2.1545338339      2.1767968551
H      -2.0591073771     -0.9411878406      1.2924277403
12
Frame=137  time=69.000fs  energy=-306.19358012Ha  molecule=COOCCCHHHHHH
C      -0.2445585609      0.1308764749      0.1055615658
O       1.0144970545     -0.1894168387      0.1025658490
O       1.7692019570      0.6592248286      0.0075495224
C      -0.4912740088      1.3226477965     -0.7126195686
C      -0.0307063283      2.7765347394     -0.0379076161
C      -0.3813138296     -1.2532745428      0.4258546819
H      -1.2742937668      1.9156994370     -1.2058398297
H       0.3208001438      2.2828100437      0.2695152895
H      -0.0918662691      3.2664858792     -0.6818969638
H       1.2132034290     -1.3531900289     -1.5250315036
H       0.8146407015     -2.1631782523      2.1849649895
H      -2.0615133626     -0.9374706837      1.3098910088
12
Frame=138  time=69.500fs  energy=-306.19358012Ha  molecule=COOCCCHHHHHH
C      -0.2468889940      0.1318599760      0.1066282201
O       1.0124188958     -0.1901297877      0.1031374743
O       1.7665395443      0.6569434811      0.0077217549
C      -0.4894134152      1.3224132553     -0.7173263680
C      -0.0298050775      2.7797765034     -0.0379488465
C      -0.3785408972     -1.2528879113      0.4285637204
H      -1.2699362877      1.9201969239     -1.2126662934
H       0.3128157946      2.2764060809      0.2654503455
H      -0.0840756724      3.2628952778     -0.6867448518
H       1.2272854832     -1.3474012304     -1.5351354269
H       0.8358628431     -2.1718197457      2.1931303600
H      -2.0639185340     -0.9337547845      1.3273483680
12
Frame=139  time=70.000fs  energy=-306.19358012Ha  molecule=COOCCCHHHHHH
C      -0.2492186399      0.1328431449      0.1076945142
O       1.0103414389     -0.1908424960      0.1037089064
O       1.7638780309      0.6546629042      0.0078939293
C      -0.4875534502      1.3221787933     -0.7220315777
C      -0.0289041311      2.7830171725     -0.0379900630
C      -0.3757689013     -1.2525014103      0.4312718438
H      -1.2655802805      1.9246928918     -1.2194904514
H       0.3048341423      2.2700042811      0.2613867746
H      -0.0762877070      3.2593058892     -0.6915911024
H       1.2413627809     -1.3416143872     -1.5452359375
H       0.8570778167     -2.1804583203      2.2012929725
H      -2.0663228929     -0.9300401405      1.3447998308
12
Frame=140  time=70.500fs  energy=-306.19358012Ha  molecule=COOCCCHHHHHH
C      -0.2515475004      0.1338259824      0.1087604487
O       1.0082646825     -0.1915549640      0.1042801459
O       1.7612174148      0.6523830961      0.0080660456
C      -0.4856941121      1.3219444104     -0.7267352010
C      -0.0280034885      2.7862567489     -0.0380312656
C      -0.3729978399     -1.2521150396      0.4339790543
H      -1.2612257419      1.9291873438     -1.2263123087
H       0.2968551810      2.2636046396      0.2573245736
H      -0.0685023674      3.2557177108     -0.6964357191
H       1.2554353325     -1.3358294950     -1.5553330427
H       0.8782856378     -2.1890939825      2.2094528330
H      -2.0687264413     -0.9263267489      1.3622454099
12
Frame=141  time=71.000fs  energy=-306.19358012Ha  molecule=COOCCCHHHHHH
C      -0.2538755771      0.1348084891      0.1098260246
O       1.0061886250     -0.1922671922      0.1048511932
O       1.7585576941      0.6501040552      0.0082381040
C      -0.4838353999      1.3217101063     -0.7314372415
C      -0.0271031490      2.7894952352     -0.0380724543
C      -0.3702277111     -1.2517287989      0.4366853536
H      -1.2568726687      1.9336802833     -1.2331318702
H       0.2888789048      2.2572071518      0.2532637398
H      -0.0607196478      3.2521307399     -0.7012787054
H       1.2695031483     -1.3300465496     -1.5654267500
H       0.8994863218     -2.1977267385      2.2176099474
H      -2.0711291808     -0.9226146069      1.3796851181
12
Frame=142  time=71.500fs  energy=-306.19358012Ha  molecule=COOCCCHHHHHH
C      -0.2562028718      0.1357906657      0.1108912424
O       1.0041132649     -0.1929791811      0.1054220486
O       1.7558988668      0.6478257800      0.0084101046
C      -0.4819773119      1.3214758810     -0.7361377024
C      -0.0262031119      2.7927326336     -0.0381136292
C      -0.3674585129     -1.2513426880      0.4393907439
H      -1.2525210578      1.9381717136     -1.2399491409
H       0.2809053080      2.2508118130      0.2492042700
H      -0.0529395425      3.2485449739     -0.7061200649
H       1.2835662385     -1.3242655467     -1.5755170666
H       0.9206798841     -2.2063565946      2.2257643218
H      -2.0735311132     -0.9189037119      1.3971189679
12
Frame=143  time=72.000fs  energy=-306.19358012Ha  molecule=COOCCCHHHHHH
C      -0.2585293862      0.1367725131      0.1119561031
O       1.0020386006     -0.1936909314      0.1059927127
O       1.7532409311      0.6455482686      0.0085820475
C      -0.4801198471      1.3212417342     -0.7408365872
C      -0.0253033766      2.7959689465     -0.0381547902
C      -0.3646902431     -1.2509567066      0.4420952271
H      -1.2481709060      1.9426616379     -1.2467641257
H       0.2729343848      2.2444186186      0.2451461614
H      -0.0451620459      3.2449604102     -0.7109598010
H       1.2976246133     -1.3184864823     -1.5856039999
H       0.9418663401     -2.2149835571      2.2339159620
H      -2.0759322402     -0.9151940611      1.4145469722
12
Frame=144  time=72.500fs  energy=-306.19358012Ha  molecule=COOCCCHHHHHH
C      -0.2608551219      0.1377540318      0.1130206075
O       0.9999646307     -0.1944024434      0.1065631857
O       1.7505838849      0.6432715195      0.0087539329
C      -0.4782630038      1.3210076657     -0.7455338994
C      -0.0244039424      2.7992041763     -0.0381959375
C      -0.3619228999     -1.2505708543      0.4447988051
H      -1.2438222101      1.9471500594     -1.2535768297
H       0.2649661293      2.2380275640      0.2410894111
H      -0.0373871523      3.2413770462     -0.7157979174
H       1.3116782829     -1.3127093520     -1.5956875573
H       0.9630457054     -2.2236076322      2.2420648739
H      -2.0783325636     -0.9114856520      1.4319691435
12
Frame=145  time=73.000fs  energy=-306.19358012Ha  molecule=COOCCCHHHHHH
C      -0.2631800806      0.1387352226      0.1140847562
O       0.9978913536     -0.1951137177      0.1071334682
O       1.7479277264      0.6409955310      0.0089257608
C      -0.4764067809      1.3207736755     -0.7502296424
C      -0.0235048087      2.8024383252     -0.0382370711
C      -0.3591564812     -1.2501851309      0.4475014799
H      -1.2394749671      1.9516369815     -1.2603872577
H       0.2570005359      2.2316386444      0.2370340159
H      -0.0296148562      3.2377948794     -0.7206344175
H       1.3257272575     -1.3069341517     -1.6057677460
H       0.9842179951     -2.2322288263      2.2502110635
H      -2.0807320851     -0.9077784817      1.4493854945
12
Frame=146  time=73.500fs  energy=-306.19358012Ha  molecule=COOCCCHHHHHH
C      -0.2655042641      0.1397160863      0.1151485500
O       0.9958187680     -0.1958247548      0.1077035604
O       1.7452724536      0.6387203014      0.0090975315
C      -0.4745511770      1.3205397633     -0.7549238195
C      -0.0226059748      2.8056713957     -0.0382781909
C      -0.3563909849     -1.2497995362      0.4502032534
H      -1.2351291736      1.9561224074     -1.2671954147
H       0.2490375986      2.2252518553      0.2329799731
H      -0.0218451518      3.2342139071     -0.7254693047
H       1.3397715474     -1.3011608773     -1.6158445733
H       1.0053832247     -2.2408471456      2.2583545367
H      -2.0831308065     -0.9040725476      1.4667960378
12
Frame=147  time=74.000fs  energy=-306.19358012Ha  molecule=COOCCCHHHHHH
C      -0.2678276739      0.1406966234      0.1162119897
O       0.9937468721     -0.1965355553      0.1082734630
O       1.7426180646      0.6364458292      0.0092692450
C      -0.4726961907      1.3203059289     -0.7596164341
C      -0.0217074401      2.8089033900     -0.0383192971
C      -0.3536264092     -1.2494140698      0.4529041277
H      -1.2307848267      1.9606063402     -1.2740013056
H       0.2410773119      2.2188671920      0.2289272797
H      -0.0140780335      3.2306341267     -0.7303025827
H       1.3538111626     -1.2953895244     -1.6259180465
H       1.0265414094     -2.2494625962      2.2664952993
H      -2.0855287295     -0.9003678471      1.4842007860
12
Frame=148  time=74.500fs  energy=-306.19358012Ha  molecule=COOCCCHHHHHH
C      -0.2701503119      0.1416768348      0.1172750762
O       0.9916756647     -0.1972461196      0.1088431762
O       1.7399645575      0.6341721126      0.0094409014
C      -0.4708418207      1.3200721722     -0.7643074896
C      -0.0208092039      2.8121343106     -0.0383603895
C      -0.3508627519     -1.2490287315      0.4556041046
H      -1.2264419232      1.9650887834     -1.2808049353
H       0.2331196698      2.2124846500      0.2248759327
H      -0.0063134958      3.2270555356     -0.7351342549
H       1.3678461132     -1.2896200891     -1.6359881730
H       1.0476925645     -2.2580751844      2.2746333572
H      -2.0879258557     -0.8966643774      1.5015997516
12
Frame=149  time=75.000fs  energy=-306.19358012Ha  molecule=COOCCCHHHHHH
C      -0.2724721795      0.1426567211      0.1183378101
O       0.9896051441     -0.1979564483      0.1094127004
O       1.7373119304      0.6318991501      0.0096125009
C      -0.4689880657      1.3198384931     -0.7689969895
C      -0.0199112657      2.8153641596     -0.0384014684
C      -0.3481000112     -1.2486435210      0.4583031862
H      -1.2221004598      1.9695697400     -1.2876063087
H       0.2251646667      2.2061042246      0.2208259293
H       0.0014484670      3.2234781313     -0.7399643247
H       1.3818764095     -1.2838525670     -1.6460549599
H       1.0688367053     -2.2666849165      2.2827687163
H      -2.0903221870     -0.8929621358      1.5189929473
12
Frame=150  time=75.500fs  energy=-306.19358012Ha  molecule=COOCCCHHHHHH
C      -0.2747932786      0.1436362830      0.1194001922
O       0.9875353089     -0.1986665418      0.1099820362
O       1.7346601813      0.6296269399      0.0097840436
C      -0.4671349243      1.3196048913     -0.7736849371
C      -0.0190136246      2.8185929396     -0.0384425337
C      -0.3453381850     -1.2482584379      0.4610013742
H      -1.2177604336      1.9740492134     -1.2944054308
H       0.2172122969      2.1997259112      0.2167772666
H       0.0092078604      3.2199019112     -0.7447927957
H       1.3959020615     -1.2780869542     -1.6561184145
H       1.0899738470     -2.2752917985      2.2909013824
H      -2.0927177251     -0.8892611198      1.5363803854
12
Frame=151  time=76.000fs  energy=-306.19358012Ha  molecule=COOCCCHHHHHH
C      -0.2771136108      0.1446155213      0.1204622232
O       0.9854661576     -0.1993764007      0.1105511838
O       1.7320093084      0.6273554805      0.0099555296
C      -0.4652823952      1.3193713667     -0.7783713357
C      -0.0181162801      2.8218206527     -0.0384835854
C      -0.3425772713     -1.2478734822      0.4636986708
H      -1.2134218414      1.9785272067     -1.3012023063
H       0.2092625547      2.1933497053      0.2127299415
H       0.0169646900      3.2163268728     -0.7496196714
H       1.4099230793     -1.2723232463     -1.6661785440
H       1.1111040048     -2.2838958368      2.2990313614
H      -2.0951124717     -0.8855613266      1.5537620786
12
Frame=152  time=76.500fs  energy=-306.19358012Ha  molecule=COOCCCHHHHHH
C      -0.2794331777      0.1455944367      0.1215239041
O       0.9833976887     -0.2000860255      0.1111201437
O       1.7293593098      0.6250847703      0.0101269591
C      -0.4634304771      1.3191379191     -0.7830561887
C      -0.0172192316      2.8250473013     -0.0385246235
C      -0.3398172682     -1.2474886533      0.4663950778
H      -1.2090846800      1.9830037231     -1.3079969402
H       0.2013154343      2.1869756023      0.2086839513
H       0.0247189614      3.2127530133     -0.7544449551
H       1.4239394729     -1.2665614393     -1.6762353557
H       1.1322271937     -2.2924970374      2.3071586591
H      -2.0975064284     -0.8818627537      1.5711380393
12
Frame=153  time=77.000fs  energy=-306.19358012Ha  molecule=COOCCCHHHHHH
C      -0.2817519810      0.1465730298      0.1225852354
O       0.9813299007     -0.2007954167      0.1116889163
O       1.7267101835      0.6228148075      0.0102983321
C      -0.4615791686      1.3189045483     -0.7877394995
C      -0.0163224784      2.8282728877     -0.0385656482
C      -0.3370581736     -1.2471039512      0.4690905972
H      -1.2047489464      1.9874787659     -1.3147893374
H       0.1933709300      2.1806035976      0.2046392929
H       0.0324706801      3.2091803304     -0.7592686503
H       1.4379512523     -1.2608015291     -1.6862888567
H       1.1533434291     -2.3010954065      2.3152832814
H      -2.0998995971     -0.8781653983      1.5885082798
12
Frame=154  time=77.500fs  energy=-306.19358012Ha  molecule=COOCCCHHHHHH
C      -0.2840700224      0.1475513013      0.1236462180
O       0.9792627922     -0.2015045748      0.1122575020
O       1.7240619278      0.6205455907      0.0104696489
C      -0.4597284685      1.3186712543     -0.7924212714
C      -0.0154260199      2.8314974142     -0.0386066593
C      -0.3342999857     -1.2467193754      0.4717852309
H      -1.2004146375      1.9919523383     -1.3215795026
H       0.1854290362      2.1742336867      0.2005959636
H       0.0402198517      3.2056088214     -0.7640907606
H       1.4519584277     -1.2550435115     -1.6963390543
H       1.1744527258     -2.3096909504      2.3234052340
H      -2.1022919795     -0.8744692578      1.6058728128
12
Frame=155  time=78.000fs  energy=-306.19358012Ha  molecule=COOCCCHHHHHH
C      -0.2863873035      0.1485292520      0.1247068526
O       0.9771963617     -0.2022135003      0.1128259012
O       1.7214145405      0.6182771181      0.0106409094
C      -0.4578783753      1.3184380367     -0.7971015078
C      -0.0145298553      2.8347208832     -0.0386476570
C      -0.3315427024     -1.2463349258      0.4744789807
H      -1.1960817502      1.9964244434     -1.3283674409
H       0.1774897472      2.1678658650      0.1965539605
H       0.0479664817      3.2020384838     -0.7689112892
H       1.4659610090     -1.2492873824     -1.7063859556
H       1.1955550992     -2.3182836750      2.3315245228
H      -2.1046835771     -0.8707743295      1.6232316504
12
Frame=156  time=78.500fs  energy=-306.19358012Ha  molecule=COOCCCHHHHHH
C      -0.2887038260      0.1495068825      0.1257671399
O       0.9751306076     -0.2029221937      0.1133941144
O       1.7187680200      0.6160093881      0.0108121139
C      -0.4560288878      1.3182048955     -0.8017802119
C      -0.0136339842      2.8379432968     -0.0386886413
C      -0.3287863218     -1.2459506021      0.4771718487
H      -1.1917502813      2.0008950844     -1.3351531569
H       0.1695530574      2.1615001280      0.1925132806
H       0.0557105757      3.1984693151     -0.7737302398
H       1.4799590061     -1.2435331378     -1.7164295678
H       1.2166505641     -2.3268735866      2.3396411535
H      -2.1070743918     -0.8670806109      1.6405848052
12
Frame=157  time=79.000fs  energy=-306.19358012Ha  molecule=COOCCCHHHHHH
C      -0.2910195915      0.1504841935      0.1268270808
O       0.9730655286     -0.2036306555      0.1139621419
O       1.7161223643      0.6137423992      0.0109832624
C      -0.4541800047      1.3179718305     -0.8064573872
C      -0.0127384058      2.8411646575     -0.0387296122
C      -0.3260308418     -1.2455664039      0.4798638367
H      -1.1874202279      2.0053642646     -1.3419366555
H       0.1616189610      2.1551364711      0.1884739211
H       0.0634521391      3.1949013126     -0.7785476156
H       1.4939524291     -1.2377807735     -1.7264698980
H       1.2377391356     -2.3354606913      2.3477551319
H      -2.1094644253     -0.8633880993      1.6579322895
12
Frame=158  time=79.500fs  energy=-306.19358012Ha  molecule=COOCCCHHHHHH
C      -0.2933346017      0.1514611858      0.1278866760
O       0.9710011232     -0.2043388863      0.1145299841
O       1.7134775716      0.6114761497      0.0111543551
C      -0.4523317246      1.3177388415     -0.8111330370
C      -0.0118431195      2.8443849674     -0.0387705698
C      -0.3232762607     -1.2451823311      0.4825549467
H      -1.1830915867      2.0098319870     -1.3487179415
H       0.1536874525      2.1487748898      0.1844358791
H       0.0711911774      3.1913344740     -0.7833634202
H       1.5079412879     -1.2320302854     -1.7365069533
H       1.2588208286     -2.3440449951      2.3558664637
H      -2.1118536792     -0.8596967921      1.6752741156
12
Frame=159  time=80.000fs  energy=-306.19358012Ha  molecule=COOCCCHHHHHH
C      -0.2956488582      0.1524378600      0.1289459262
O       0.9689373898     -0.2050468865      0.1150976414
O       1.7108336398      0.6092106380      0.0113253921
C      -0.4504840463      1.3175059284     -0.8158071645
C      -0.0109481247      2.8476042289     -0.0388115140
C      -0.3205225763     -1.2447983833      0.4852451806
H      -1.1787643549      2.0142982550     -1.3554970198
H       0.1457585262      2.1424153797      0.1803991517
H       0.0789276962      3.1877687965     -0.7881776569
H       1.5219255924     -1.2262816695     -1.7465407410
H       1.2798956582     -2.3526265041      2.3639751549
H      -2.1142421553     -0.8560066866      1.6926102958
12
Frame=160  time=80.500fs  energy=-306.19358012Ha  molecule=COOCCCHHHHHH
C      -0.2979623627      0.1534142169      0.1300048322
O       0.9668743271     -0.2057546566      0.1156651143
O       1.7081905673      0.6069458625      0.0114963735
C      -0.4486369683      1.3172730909     -0.8204797732
C      -0.0100534207      2.8508224443     -0.0388524448
C      -0.3177697868     -1.2444145603      0.4879345402
H      -1.1744385292      2.0187630715     -1.3622738952
H       0.1378321765      2.1360579361      0.1763637361
H       0.0866617009      3.1842042778     -0.7929903292
H       1.5359053526     -1.2205349217     -1.7565712680
H       1.3009636393     -2.3612052245      2.3720812110
H      -2.1166298552     -0.8523177803      1.7099408424
12
Frame=161  time=81.000fs  energy=-306.19358012Ha  molecule=COOCCCHHHHHH
C      -0.3002751168      0.1543902570      0.1310633947
O       0.9648119336     -0.2064621971      0.1162324031
O       1.7055483521      0.6046818216      0.0116672995
C      -0.4467904895      1.3170403290     -0.8251508662
C      -0.0091590070      2.8540396158     -0.0388933625
C      -0.3150178901     -1.2440308617      0.4906230276
H      -1.1701141066      2.0232264399     -1.3690485724
H       0.1299083978      2.1297025547      0.1723296295
H       0.0943931970      3.1806409153     -0.7978014404
H       1.5498805782     -1.2147900378     -1.7665985415
H       1.3220247868     -2.3697811623      2.3801846378
H      -2.1190167806     -0.8486300705      1.7272657676
12
Frame=162  time=81.500fs  energy=-306.19358012Ha  molecule=COOCCCHHHHHH
C      -0.3025871220      0.1553659811      0.1321216145
O       0.9627502077     -0.2071695086      0.1167995082
O       1.7029069923      0.6024185137      0.0118381701
C      -0.4449446085      1.3168076424     -0.8298204469
C      -0.0082648828      2.8572557458     -0.0389342668
C      -0.3122668844     -1.2436472874      0.4933106445
H      -1.1657910842      2.0276883631     -1.3758210562
H       0.1219871845      2.1233492308      0.1682968289
H       0.1021221900      3.1770787064     -0.8026109940
H       1.5638512793     -1.2090470140     -1.7766225686
H       1.3430791155     -2.3783543236      2.3882854410
H      -2.1214029332     -0.8449435547      1.7445850837
12
Frame=163  time=82.000fs  energy=-306.19358012Ha  molecule=COOCCCHHHHHH
C      -0.3048983802      0.1563413900      0.1331794924
O       0.9606891482     -0.2078765915      0.1173664301
O       1.7002664861      0.6001559372      0.0120089855
C      -0.4430993241      1.3165750311     -0.8344885185
C      -0.0073710475      2.8604708364     -0.0389751580
C      -0.3095167678     -1.2432638371      0.4959973928
H      -1.1614694587      2.0321488445     -1.3825913515
H       0.1140685310      2.1169979601      0.1642653316
H       0.1098486853      3.1735176487     -0.8074189934
H       1.5778174655     -1.2033058460     -1.7866433564
H       1.3641266403     -2.3869247143      2.3963836264
H      -2.1237883147     -0.8412582302      1.7618988029
12
Frame=164  time=82.500fs  energy=-306.19358012Ha  molecule=COOCCCHHHHHH
C      -0.3072088928      0.1573164841      0.1342370290
O       0.9586287534     -0.2085834463      0.1179331691
O       1.6976268316      0.5978940906      0.0121797458
C      -0.4412546348      1.3163424947     -0.8391550845
C      -0.0064775006      2.8636848899     -0.0390160360
C      -0.3067675382     -1.2428805104      0.4986832745
H      -1.1571492272      2.0366078871     -1.3893594629
H       0.1061524317      2.1106487381      0.1602351346
H       0.1175726883      3.1699577397     -0.8122254418
H       1.5917791469     -1.1975665300     -1.7966609118
H       1.3851673760     -2.3954923406      2.4044791997
H      -2.1261729268     -0.8375740944      1.7792069374
12
Frame=165  time=83.000fs  energy=-306.19358012Ha  molecule=COOCCCHHHHHH
C      -0.3095186615      0.1582912644      0.1352942251
O       0.9565690221     -0.2092900735      0.1184997256
O       1.6949880269      0.5956329721      0.0123504511
C      -0.4394105395      1.3161100332     -0.8438201480
C      -0.0055842413      2.8668979087     -0.0390569008
C      -0.3040191937     -1.2424973072      0.5013682915
H      -1.1528303867      2.0410654941     -1.3961253953
H       0.0982388812      2.1043015603      0.1562062353
H       0.1252942044      3.1663989768     -0.8170303428
H       1.6057363331     -1.1918290617     -1.8066752420
H       1.4062013374     -2.4040572085      2.4125721665
H      -2.1285567711     -0.8338911448      1.7965094994
12
Frame=166  time=83.500fs  energy=-306.19358012Ha  molecule=COOCCCHHHHHH
C      -0.3118276879      0.1592657314      0.1363510815
O       0.9545099526     -0.2099964737      0.1190661001
O       1.6923500703      0.5933725804      0.0125211016
C      -0.4375670368      1.3158776465     -0.8484837123
C      -0.0046912691      2.8701098949     -0.0390977524
C      -0.3012717325     -1.2421142270      0.5040524456
H      -1.1485129341      2.0455216685     -1.4028891533
H       0.0903278737      2.0979564222      0.1521786306
H       0.1330132392      3.1628413575     -0.8218336997
H       1.6196890340     -1.1860934373     -1.8166863540
H       1.4272285393     -2.4126193239      2.4206625325
H      -2.1309398494     -0.8302093787      1.8138065009
12
Frame=167  time=84.000fs  energy=-306.19358012Ha  molecule=COOCCCHHHHHH
C      -0.3141359737      0.1602398858      0.1374075988
O       0.9524515437     -0.2107026472      0.1196322929
O       1.6897129599      0.5911129136      0.0126916973
C      -0.4357241254      1.3156453342     -0.8531457807
C      -0.0037985834      2.8733208508     -0.0391385910
C      -0.2985251525     -1.2417312698      0.5067357388
H      -1.1441968664      2.0499764136     -1.4096507417
H       0.0824194038      2.0916133194      0.1481523179
H       0.1407297980      3.1592848794     -0.8266355158
H       1.6336372593     -1.1803596527     -1.8266942547
H       1.4482489964     -2.4211786929      2.4287503034
H      -2.1333221632     -0.8265287936      1.8310979542
12
Frame=168  time=84.500fs  energy=-306.19358012Ha  molecule=COOCCCHHHHHH
C      -0.3164435204      0.1612137283      0.1384637779
O       0.9503937937     -0.2114085947      0.1201983044
O       1.6870766938      0.5888539704      0.0128622384
C      -0.4338818040      1.3154130964     -0.8578063564
C      -0.0029061835      2.8765307787     -0.0391794165
C      -0.2957794520     -1.2413484352      0.5094181728
H      -1.1398821805      2.0544297324     -1.4164101653
H       0.0745134660      2.0852722475      0.1441272943
H       0.1484438861      3.1557295400     -0.8314357945
H       1.6475810189     -1.1746277038     -1.8366989512
H       1.4692627234     -2.4297353214      2.4368354848
H      -2.1357037144     -0.8228493869      1.8483838713
12
Frame=169  time=85.000fs  energy=-306.19358012Ha  molecule=COOCCCHHHHHH
C      -0.3187503298      0.1621872596      0.1395196195
O       0.9483367014     -0.2121143166      0.1207641351
O       1.6844412701      0.5865957490      0.0130327250
C      -0.4320400714      1.3151809328     -0.8624654428
C      -0.0020140687      2.8797396807     -0.0392202289
C      -0.2930346288     -1.2409657229      0.5120997496
H      -1.1355688735      2.0588816280     -1.4231674288
H       0.0666100547      2.0789332020      0.1401035570
H       0.1561555091      3.1521753368     -0.8362345392
H       1.6615203224     -1.1688975868     -1.8467004505
H       1.4902697349     -2.4382892155      2.4449180824
H      -2.1380845044     -0.8191711561      1.8656642643
12
Frame=170  time=85.500fs  energy=-306.19358012Ha  molecule=COOCCCHHHHHH
C      -0.3210564032      0.1631604804      0.1405751243
O       0.9462802652     -0.2128198133      0.1213297852
O       1.6818066871      0.5843382480      0.0132031572
C      -0.4301989263      1.3149488432     -0.8671230430
C      -0.0011222385      2.8829475592     -0.0392610284
C      -0.2902906813     -1.2405831327      0.5147804710
H      -1.1312569424      2.0633321036     -1.4299225369
H       0.0587091644      2.0725961786      0.1360811032
H       0.1638646722      3.1486222673     -0.8410317532
H       1.6754551796     -1.1631692975     -1.8566987595
H       1.5112700457     -2.4468403810      2.4529981019
H      -2.1404645350     -0.8154940985      1.8829391452
12
Frame=171  time=86.000fs  energy=-306.19358012Ha  molecule=COOCCCHHHHHH
C      -0.3233617425      0.1641333913      0.1416302930
O       0.9442244838     -0.2135250854      0.1218952553
O       1.6791729429      0.5820814657      0.0133735352
C      -0.4283583674      1.3147168275     -0.8717791603
C      -0.0002306923      2.8861544164     -0.0393018148
C      -0.2875476073     -1.2402006644      0.5174603389
H      -1.1269463841      2.0677811622     -1.4366754942
H       0.0508107897      2.0662611727      0.1320599300
H       0.1715713808      3.1450703290     -0.8458274398
H       1.6893856002     -1.1574428320     -1.8666938852
H       1.5322636704     -2.4553888241      2.4610755488
H      -2.1428438078     -0.8118182117      1.9002085261
12
Frame=172  time=86.500fs  energy=-306.19358012Ha  molecule=COOCCCHHHHHH
C      -0.3256663492      0.1651059931      0.1426851264
O       0.9421693557     -0.2142301334      0.1224605456
O       1.6765400357      0.5798254006      0.0135438590
C      -0.4265183934      1.3144848855     -0.8764337980
C       0.0006605707      2.8893602544     -0.0393425883
C      -0.2848054051     -1.2398183175      0.5201393552
H      -1.1226371956      2.0722288069     -1.4434263055
H       0.0429149249      2.0599281800      0.1280400348
H       0.1792756404      3.1415195195     -0.8506216024
H       1.7033115938     -1.1517181863     -1.8766858346
H       1.5532506234     -2.4639345505      2.4691504288
H      -2.1452223246     -0.8081434930      1.9174724189
12
Frame=173  time=87.000fs  energy=-306.19358012Ha  molecule=COOCCCHHHHHH
C      -0.3279702248      0.1660782863      0.1437396253
O       0.9401148794     -0.2149349578      0.1230256567
O       1.6739079636      0.5775700511      0.0137141288
C      -0.4246790030      1.3142530172     -0.8810869592
C       0.0015515509      2.8925650756     -0.0393833488
C      -0.2820640726     -1.2394360920      0.5228175217
H      -1.1183293740      2.0766750409     -1.4501749755
H       0.0350215647      2.0535971962      0.1240214146
H       0.1869774561      3.1379698364     -0.8554142443
H       1.7172331701     -1.1459953564     -1.8866746146
H       1.5742309195     -2.4724775662      2.4772227475
H      -2.1476000868     -0.8044699399      1.9347308357
12
Frame=174  time=87.500fs  energy=-306.19358012Ha  molecule=COOCCCHHHHHH
C      -0.3302733711      0.1670502717      0.1447937902
O       0.9380610537     -0.2156395590      0.1235905888
O       1.6712767249      0.5753154156      0.0138843447
C      -0.4228401950      1.3140212222     -0.8857386472
C       0.0024422490      2.8957688821     -0.0394240964
C      -0.2793236081     -1.2390539874      0.5254948403
H      -1.1140229163      2.0811198672     -1.4569215088
H       0.0271307035      2.0472682168      0.1200040667
H       0.1946768335      3.1344212770     -0.8602053689
H       1.7311503388     -1.1402743384     -1.8966602320
H       1.5952045732     -2.4810178772      2.4852925105
H      -2.1499770963     -0.8007975499      1.9519837884
12
Frame=175  time=88.000fs  energy=-306.19358012Ha  molecule=COOCCCHHHHHH
C      -0.3325757895      0.1680219499      0.1458476221
O       0.9360078769     -0.2163439376      0.1241553424
O       1.6686463176      0.5730614927      0.0140545068
C      -0.4210019681      1.3137895005     -0.8903888652
C       0.0033326657      2.8989716762     -0.0394648312
C      -0.2765840097     -1.2386720036      0.5281713129
H      -1.1097178195      2.0855632888     -1.4636659102
H       0.0192423360      2.0409412374      0.1159879884
H       0.2023737777      3.1308738391     -0.8649949794
H       1.7450631096     -1.1345551284     -1.9066426939
H       1.6161715989     -2.4895554893      2.4933597232
H      -2.1523533546     -0.7971263204      1.9692312890
12
Frame=176  time=88.500fs  energy=-306.19358012Ha  molecule=COOCCCHHHHHH
C      -0.3348774816      0.1689933217      0.1469011215
O       0.9339553478     -0.2170480940      0.1247199179
O       1.6660167401      0.5708082807      0.0142246152
C      -0.4191643209      1.3135578518     -0.8950376164
C       0.0042228015      2.9021734600     -0.0395055531
C      -0.2738452753     -1.2382901403      0.5308469412
H      -1.1054140806      2.0900053089     -1.4704081842
H       0.0113564567      2.0346162536      0.1119731768
H       0.2100682942      3.1273275200     -0.8697830791
H       1.7589714919     -1.1288377223     -1.9166220071
H       1.6371320111     -2.4980904085      2.5014243915
H      -2.1547288634     -0.7934562489      1.9864733493
12
Frame=177  time=89.000fs  energy=-306.19358012Ha  molecule=COOCCCHHHHHH
C      -0.3371784492      0.1699643876      0.1479542893
O       0.9319034648     -0.2177520287      0.1252843156
O       1.6633879904      0.5685557781      0.0143946701
C      -0.4173272524      1.3133262761     -0.8996849040
C       0.0051126570      2.9053742358     -0.0395462622
C      -0.2711074032     -1.2379083972      0.5335217271
H      -1.1011116967      2.0944459306     -1.4771483355
H       0.0034730600      2.0282932612      0.1079596293
H       0.2177603881      3.1237823175     -0.8745696714
H       1.7728754954     -1.1231221162     -1.9265981785
H       1.6580858243     -2.5066226406      2.5094865207
H      -2.1571036243     -0.7897873329      2.0037099813
12
Frame=178  time=89.500fs  energy=-306.19358012Ha  molecule=COOCCCHHHHHH
C      -0.3394786936      0.1709351484      0.1490071261
O       0.9298522267     -0.2184557421      0.1258485359
O       1.6607600668      0.5663039833      0.0145646715
C      -0.4154907611      1.3130947732     -0.9043307313
C       0.0060022329      2.9085740058     -0.0395869585
C      -0.2683703915     -1.2375267741      0.5361956725
H      -1.0968106647      2.0988851567     -1.4838863688
H      -0.0044078593      2.0219722557      0.1039473429
H       0.2254500649      3.1202382290     -0.8793547595
H       1.7867751296     -1.1174083062     -1.9365712150
H       1.6790330530     -2.5151521915      2.5175461164
H      -2.1594776389     -0.7861195697      2.0209411967
12
Frame=179  time=90.000fs  energy=-306.19358012Ha  molecule=COOCCCHHHHHH
C      -0.3417782166      0.1719056047      0.1500596326
O       0.9278016319     -0.2191592349      0.1264125793
O       1.6581329674      0.5640528948      0.0147346196
C      -0.4136548458      1.3128633429     -0.9089751014
C       0.0068915298      2.9117727721     -0.0396276420
C      -0.2656342382     -1.2371452707      0.5388687792
H      -1.0925109818      2.1033229905     -1.4906222887
H      -0.0122863068      2.0156532329      0.0999363151
H       0.2331373298      3.1166952522     -0.8841383468
H       1.8006704042     -1.1116962883     -1.9465411233
H       1.6999737114     -2.5236790671      2.5256031842
H      -2.1618509089     -0.7824529570      2.0381670076
12
Frame=180  time=90.500fs  energy=-306.19358012Ha  molecule=COOCCCHHHHHH
C      -0.3440770197      0.1728757572      0.1511118097
O       0.9257516791     -0.2198625074      0.1269764461
O       1.6555066906      0.5618025110      0.0149045145
C      -0.4118195053      1.3126319850     -0.9136180175
C       0.0077805483      2.9149705371     -0.0396683128
C      -0.2628989415     -1.2367638867      0.5415410491
H      -1.0882126450      2.1077594350     -1.4973560997
H      -0.0201622877      2.0093361883      0.0959265429
H       0.2408221881      3.1131533845     -0.8889204365
H       1.8145613287     -1.1059860588     -1.9565079105
H       1.7209078141     -2.5322032733      2.5336577296
H      -2.1642234360     -0.7787874922      2.0553874256
12
Frame=181  time=91.000fs  energy=-306.19358012Ha  molecule=COOCCCHHHHHH
C      -0.3463751045      0.1738456065      0.1521636580
O       0.9237023669     -0.2205655602      0.1275401368
O       1.6528812343      0.5595528305      0.0150743563
C      -0.4099847384      1.3124006994     -0.9182594828
C       0.0086692890      2.9181673028     -0.0397089709
C      -0.2601644995     -1.2363826218      0.5442124839
H      -1.0839156513      2.1121944932     -1.5040878066
H      -0.0280358076      2.0030211176      0.0919180237
H       0.2485046450      3.1096126236     -0.8937010319
H       1.8284479125     -1.1002776135     -1.9664715832
H       1.7418353753     -2.5407248157      2.5417097582
H      -2.1665952216     -0.7751231728      2.0726024626
12
Frame=182  time=91.500fs  energy=-306.19358012Ha  molecule=COOCCCHHHHHH
C      -0.3486724725      0.1748151533      0.1532151782
O       0.9216536939     -0.2212683937      0.1281036516
O       1.6502565969      0.5573038515      0.0152441452
C      -0.4081505436      1.3121694860     -0.9228995004
C       0.0095577525      2.9213630715     -0.0397496163
C      -0.2574309104     -1.2360014759      0.5468830855
H      -1.0796199978      2.1166281681     -1.5108174140
H      -0.0359068718      1.9967080166      0.0879107548
H       0.2561847058      3.1060729671     -0.8984801363
H       1.8423301652     -1.0945709486     -1.9764321483
H       1.7627564093     -2.5492437004      2.5497592753
H      -2.1689662676     -0.7714599962      2.0898121303
12
Frame=183  time=92.000fs  energy=-306.19358012Ha  molecule=COOCCCHHHHHH
C      -0.3509691253      0.1757843983      0.1542663711
O       0.9196056586     -0.2219710083      0.1286669909
O       1.6476327766      0.5550555728      0.0154138812
C      -0.4063169199      1.3119383446     -0.9275380736
C       0.0104459395      2.9245578452     -0.0397902491
C      -0.2546981723     -1.2356204487      0.5495528558
H      -1.0753256816      2.1210604627     -1.5175449263
H      -0.0437754857      1.9903968809      0.0839047333
H       0.2638623757      3.1025344124     -0.9032577529
H       1.8562080963     -1.0888660603     -1.9863896126
H       1.7836709304     -2.5577599331      2.5578062866
H      -2.1713365754     -0.7677979600      2.1070164406
12
Frame=184  time=92.500fs  energy=-306.19358012Ha  molecule=COOCCCHHHHHH
C      -0.3532650645      0.1767533422      0.1553172374
O       0.9175582596     -0.2226734047      0.1292301553
O       1.6450097716      0.5528079926      0.0155835644
C      -0.4044838659      1.3117072749     -0.9321752054
C       0.0113338504      2.9277516263     -0.0398308692
C      -0.2519662833     -1.2352395398      0.5522217965
H      -1.0710326998      2.1254913802     -1.5242703483
H      -0.0516416546      1.9840877062      0.0798999566
H       0.2715376600      3.0989969573     -0.9080338850
H       1.8700817152     -1.0831629446     -1.9963439830
H       1.8045789530     -2.5662735196      2.5658507975
H      -2.1737061466     -0.7641370617      2.1242154051
12
Frame=185  time=93.000fs  energy=-306.19358012Ha  molecule=COOCCCHHHHHH
C      -0.3555602916      0.1777219855      0.1563677777
O       0.9155114957     -0.2233755832      0.1297931449
O       1.6423875801      0.5505611094      0.0157531950
C      -0.4026513804      1.3114762769     -0.9368108992
C       0.0122214860      2.9309444169     -0.0398714767
C      -0.2492352416     -1.2348587491      0.5548899094
H      -1.0667410493      2.1299209235     -1.5309936845
H      -0.0595053840      1.9777804882      0.0758964219
H       0.2792105640      3.0954605992     -0.9128085358
H       1.8839510313     -1.0774615977     -2.0062952661
H       1.8254804912     -2.5747844657      2.5738928135
H      -2.1760749830     -0.7604772988      2.1414090355
12
Frame=186  time=93.500fs  energy=-306.19358012Ha  molecule=COOCCCHHHHHH
C      -0.3578548082      0.1786903290      0.1574179929
O       0.9134653653     -0.2240775444      0.1303559603
O       1.6397662002      0.5483149218      0.0159227731
C      -0.4008194621      1.3112453505     -0.9414451579
C       0.0131088468      2.9341362192     -0.0399120717
C      -0.2465050453     -1.2344780763      0.5575571965
H      -1.0624507273      2.1343490955     -1.5377149394
H      -0.0673666791      1.9714752227      0.0718941265
H       0.2868810927      3.0919253359     -0.9175817086
H       1.8978160542     -1.0717620157     -2.0162434687
H       1.8463755592     -2.5832927773      2.5819323401
H      -2.1784430862     -0.7568186687      2.1585973436
12
Frame=187  time=94.000fs  energy=-306.19358012Ha  molecule=COOCCCHHHHHH
C      -0.3601486159      0.1796583733      0.1584678835
O       0.9114198672     -0.2247792887      0.1309186018
O       1.6371456303      0.5460694282      0.0160922988
C      -0.3989881099      1.3110144954     -0.9460779847
C       0.0139959334      2.9373270353     -0.0399526541
C      -0.2437756925     -1.2340975210      0.5602236594
H      -1.0581617310      2.1387758994     -1.5444341176
H      -0.0752255452      1.9651719052      0.0678930678
H       0.2945492515      3.0883911648     -0.9223534067
H       1.9116767931     -1.0660641946     -2.0261885976
H       1.8672641713     -2.5917984600      2.5899693827
H      -2.1808104576     -0.7531611691      2.1757803410
12
Frame=188  time=94.500fs  energy=-306.19358012Ha  molecule=COOCCCHHHHHH
C      -0.3624417162      0.1806261191      0.1595174504
O       0.9093749998     -0.2254808166      0.1314810698
O       1.6345258686      0.5438246271      0.0162617723
C      -0.3971573225      1.3107837114     -0.9507093829
C       0.0148827464      2.9405168673     -0.0399932240
C      -0.2410471814     -1.2337170831      0.5628893000
H      -1.0538740573      2.1432013381     -1.5511512238
H      -0.0830819878      1.9588705317      0.0638932429
H       0.3022150455      3.0848580837     -0.9271236331
H       1.9255332576     -1.0603681307     -2.0361306596
H       1.8881463415     -2.6003015196      2.5980039467
H      -2.1831770990     -0.7495047974      2.1929580394
12
Frame=189  time=95.000fs  energy=-306.19358012Ha  molecule=COOCCCHHHHHH
C      -0.3647341107      0.1815935670      0.1605666942
O       0.9073307619     -0.2261821285      0.1320433647
O       1.6319069132      0.5415805170      0.0164311935
C      -0.3953270985      1.3105529986     -0.9553393554
C       0.0157692865      2.9437057175     -0.0400337814
C      -0.2383195102     -1.2333367624      0.5655541201
H      -1.0495877034      2.1476254147     -1.5578662623
H      -0.0909360121      1.9525710978      0.0598946492
H       0.3098784799      3.0813260901     -0.9318923913
H       1.9393854569     -1.0546738201     -2.0460696613
H       1.9090220840     -2.6088019619      2.6060360377
H      -2.1855430119     -0.7458495512      2.2101304502
12
Frame=190  time=95.500fs  energy=-306.19358012Ha  molecule=COOCCCHHHHHH
C      -0.3670258009      0.1825607176      0.1616156157
O       0.9052871520     -0.2268832250      0.1326054868
O       1.6292887625      0.5393370963      0.0166005627
C      -0.3934974369      1.3103223565     -0.9599679055
C       0.0166555542      2.9468935880     -0.0400743264
C      -0.2355926770     -1.2329565585      0.5682181215
H      -1.0453026663      2.1520481320     -1.5645792378
H      -0.0987876234      1.9462735992      0.0558972840
H       0.3175395599      3.0777951816     -0.9366596844
H       1.9532334004     -1.0489812590     -2.0560056094
H       1.9298914129     -2.6172997927      2.6140656609
H      -2.1879081979     -0.7421954279      2.2272975853
12
Frame=191  time=96.000fs  energy=-306.19358012Ha  molecule=COOCCCHHHHHH
C      -0.3693167883      0.1835275717      0.1626642155
O       0.9032441688     -0.2275841064      0.1331674365
O       1.6266714146      0.5370943635      0.0167698800
C      -0.3916683363      1.3100917853     -0.9645950363
C       0.0175415502      2.9500804810     -0.0401148589
C      -0.2328666800     -1.2325764711      0.5708813059
H      -1.0410189433      2.1564694931     -1.5712901548
H      -0.1066368271      1.9399780318      0.0519011445
H       0.3251982906      3.0742653558     -0.9414255156
H       1.9670770975     -1.0432904434     -2.0659385107
H       1.9507543422     -2.6257950176      2.6220928219
H      -2.1902726586     -0.7385424252      2.2444594561
12
Frame=192  time=96.500fs  energy=-306.19358012Ha  molecule=COOCCCHHHHHH
C      -0.3716070746      0.1844941299      0.1637124944
O       0.9012018109     -0.2282847734      0.1337292143
O       1.6240548678      0.5348523172      0.0169391455
C      -0.3898397956      1.3098612846     -0.9692207509
C       0.0184272750      2.9532663985     -0.0401553790
C      -0.2301415173     -1.2321965001      0.5735436753
H      -1.0367365314      2.1608895010     -1.5779990177
H      -0.1144836283      1.9336843913      0.0479062282
H       0.3328546772      3.0707366104     -0.9461898881
H       1.9809165574     -1.0376013697     -2.0758683719
H       1.9716108861     -2.6342876423      2.6301175260
H      -2.1926363957     -0.7348905406      2.2616160741
12
Frame=193  time=97.000fs  energy=-306.19358012Ha  molecule=COOCCCHHHHHH
C      -0.3738966612      0.1854603928      0.1647604530
O       0.8991600769     -0.2289852263      0.1342908204
O       1.6214391204      0.5326109558      0.0171083592
C      -0.3880118134      1.3096308543     -0.9738450523
C       0.0193127291      2.9564513428     -0.0401958867
C      -0.2274171871     -1.2318166452      0.5762052313
H      -1.0324554277      2.1653081586     -1.5847058312
H      -0.1223280324      1.9273926733      0.0439125322
H       0.3405087249      3.0672089430     -0.9509528052
H       1.9947517895     -1.0319140339     -2.0857951996
H       1.9924610584     -2.6427776727      2.6381397786
H      -2.1949994106     -0.7312397716      2.2787674510
12
Frame=194  time=97.500fs  energy=-306.19358012Ha  molecule=COOCCCHHHHHH
C      -0.3761855496      0.1864263610      0.1658080921
O       0.8971189654     -0.2296854657      0.1348522553
O       1.6188241705      0.5303702779      0.0172775214
C      -0.3861843887      1.3094004942     -0.9784679437
C       0.0201979133      2.9596353159     -0.0402363821
C      -0.2246936877     -1.2314369061      0.5788659758
H      -1.0281756294      2.1697254689     -1.5914105997
H      -0.1301700447      1.9211028739      0.0399200540
H       0.3481604387      3.0636823513     -0.9557142700
H       2.0085828031     -1.0262284322     -2.0957190004
H       2.0133048733     -2.6512651143      2.6461595852
H      -2.1973617050     -0.7275901157      2.2959135982
12
Frame=195  time=98.000fs  energy=-306.19358012Ha  molecule=COOCCCHHHHHH
C      -0.3784737415      0.1873920353      0.1668554123
O       0.8950784752     -0.2303854919      0.1354135193
O       1.6162100164      0.5281302818      0.0174466320
C      -0.3843575201      1.3091702043     -0.9830894282
C       0.0210828282      2.9628183200     -0.0402768652
C      -0.2219710171     -1.2310572825      0.5815259105
H      -1.0238971336      2.1741414348     -1.5981133276
H      -0.1380096703      1.9148149886      0.0359287909
H       0.3558098238      3.0601568328     -0.9604742857
H       2.0224096074     -1.0205445609     -2.1056397811
H       2.0341423446     -2.6597499729      2.6541769510
H      -2.1997232806     -0.7239415706      2.3130545271
12
Frame=196  time=98.500fs  energy=-306.19358012Ha  molecule=COOCCCHHHHHH
C      -0.3807612383      0.1883574162      0.1679024144
O       0.8930386047     -0.2310853055      0.1359746128
O       1.6135966564      0.5258909662      0.0176156913
C      -0.3825312064      1.3089399843     -0.9877095089
C       0.0219674742      2.9660003573     -0.0403173360
C      -0.2192491735     -1.2306777743      0.5841850373
H      -1.0196199375      2.1785560594     -1.6048140196
H      -0.1458469146      1.9085290133      0.0319387401
H       0.3634568854      3.0566323852     -0.9652328555
H       2.0362322116     -1.0148624162     -2.1155575482
H       2.0549734864     -2.6682322541      2.6621918815
H      -2.2020841387     -0.7202941338      2.3301902494
12
Frame=197  time=99.000fs  energy=-306.19358012Ha  molecule=COOCCCHHHHHH
C      -0.3830480415      0.1893225045      0.1689490991
O       0.8909993528     -0.2317849069      0.1365355362
O       1.6109840888      0.5236523295      0.0177846994
C      -0.3807054464      1.3087098342     -0.9923281888
C       0.0228518520      2.9691814298     -0.0403577944
C      -0.2165281551     -1.2302983812      0.5868433578
H      -1.0153440381      2.1829693455     -1.6115126800
H      -0.1536817827      1.9022449439      0.0279498991
H       0.3711016285      3.0531090062     -0.9699899825
H       2.0500506251     -1.0091819941     -2.1254723085
H       2.0757983124     -2.6767119636      2.6702043819
H      -2.2044442811     -0.7166478028      2.3473207763
12
Frame=198  time=99.500fs  energy=-306.19358012Ha  molecule=COOCCCHHHHHH
C      -0.3853341528      0.1902873007      0.1699954671
O       0.8889607179     -0.2324842966      0.1370962899
O       1.6083723117      0.5214143702      0.0179536563
C      -0.3788802390      1.3084797537     -0.9969454711
C       0.0237359621      2.9723615397     -0.0403982407
C      -0.2138079602     -1.2299191028      0.5895008739
H      -1.0110694326      2.1873812960     -1.6182093133
H      -0.1615142799      1.8959627761      0.0239622651
H       0.3787440582      3.0495866934     -0.9747456700
H       2.0638648569     -1.0035032910     -2.1353840684
H       2.0966168366     -2.6851891071      2.6782144577
H      -2.2068037092     -0.7130025752      2.3644461194
12
Frame=199  time=100.000fs  energy=-306.19358012Ha  molecule=COOCCCHHHHHH
C      -0.3876195736      0.1912518055      0.1710415190
O       0.8869226987     -0.2331834751      0.1376568742
O       1.6057613235      0.5191770869      0.0181225622
C      -0.3770555828      1.3082497426     -1.0015613588
C       0.0246198053      2.9755406891     -0.0404386747
C      -0.2110885868     -1.2295399390      0.5921575873
H      -1.0067961183      2.1917919141     -1.6249039240
H      -0.1693444114      1.8896825057      0.0199758356
H       0.3863841796      3.0460654444     -0.9794999211
H       2.0776749163     -0.9978263031     -2.1452928346
H       2.1174290729     -2.6936636902      2.6862221142
H      -2.2091624248     -0.7093584486      2.3815662900
12
Frame=200  time=100.500fs  energy=-306.19358012Ha  molecule=COOCCCHHHHHH
C      -0.3899043053      0.1922160196      0.1720872555
O       0.8848852940     -0.2338824428      0.1382172895
O       1.6031511224      0.5169404781      0.0182914171
C      -0.3752314767      1.3080198009     -1.0061758550
C       0.0255033820      2.9787188801     -0.0404790966
C      -0.2083700333     -1.2291608895      0.5948134998
H      -1.0025240921      2.1962012024     -1.6315965165
H      -0.1771721825      1.8834041286      0.0159906078
H       0.3940219978      3.0425452570     -0.9842527390
H       2.0914808126     -0.9921510266     -2.1551986136
H       2.1382350350     -2.7021357185      2.6942273566
H      -2.2115204292     -0.7057154206      2.3986812995
12
Frame=201  time=101.000fs  energy=-306.19358012Ha  molecule=COOCCCHHHHHH
C      -0.3921883497      0.1931799435      0.1731326774
O       0.8828485023     -0.2345812001      0.1387775362
O       1.6005417067      0.5147045422      0.0184602213
C      -0.3734079194      1.3077899284     -1.0107889627
C       0.0263866928      2.9818961148     -0.0405195063
C      -0.2056522977     -1.2287819541      0.5974686132
H      -0.9982533514      2.2006091641     -1.6382870952
H      -0.1849975982      1.8771276406      0.0120065791
H       0.4016575178      3.0390261288     -0.9890041268
H       2.1052825547     -0.9864774578     -2.1651014121
H       2.1590347369     -2.7106051976      2.7022301904
H      -2.2138777242     -0.7020734888      2.4157911592
12
Frame=202  time=101.500fs  energy=-306.19358012Ha  molecule=COOCCCHHHHHH
C      -0.3944717081      0.1941435779      0.1741777854
O       0.8808123223     -0.2352797477      0.1393376146
O       1.5979330746      0.5124692778      0.0186289747
C      -0.3715849098      1.3075601250     -1.0154006850
C       0.0272697384      2.9850723953     -0.0405599038
C      -0.2029353783     -1.2284031325      0.6001229292
H      -0.9939838933      2.2050158020     -1.6449756647
H      -0.1928206637      1.8708530376      0.0080237469
H       0.4092907448      3.0355080575     -0.9937540877
H       2.1190801519     -0.9808055928     -2.1750012366
H       2.1798281921     -2.7190721332      2.7102306207
H      -2.2162343112     -0.6984326507      2.4328958805
12
Frame=203  time=102.000fs  energy=-306.19358012Ha  molecule=COOCCCHHHHHH
C      -0.3967543820      0.1951069235      0.1752225800
O       0.8787767526     -0.2359780858      0.1398975252
O       1.5953252245      0.5102346834      0.0187976776
C      -0.3697624466      1.3073303904     -1.0200110249
C       0.0281525192      2.9882477237     -0.0406002892
C      -0.2002192734     -1.2280244244      0.6027764496
H      -0.9897157150      2.2094211189     -1.6516622292
H      -0.2006413844      1.8645803154      0.0040421086
H       0.4169216837      3.0319910407     -0.9985026247
H       2.1328736133     -0.9751354280     -2.1848980937
H       2.2006154145     -2.7275365308      2.7182286529
H      -2.2185901919     -0.6947929039      2.4499954747
12
Frame=204  time=102.500fs  energy=-306.19358012Ha  molecule=COOCCCHHHHHH
C      -0.3990363731      0.1960699809      0.1762670621
O       0.8767417919     -0.2366762150      0.1404572682
O       1.5927181546      0.5080007576      0.0189663300
C      -0.3679405287      1.3071007245     -1.0246199855
C       0.0290350360      2.9914221021     -0.0406406626
C      -0.1975039810     -1.2276458296      0.6054291761
H      -0.9854488136      2.2138251179     -1.6583467933
H      -0.2084597652      1.8583094698      0.0000616615
H       0.4245503396      3.0284750761     -1.0032497411
H       2.1466629480     -0.9694669595     -2.1947919898
H       2.2213964179     -2.7359983961      2.7262242922
H      -2.2209453677     -0.6911542461      2.4670899530
12
Frame=205  time=103.000fs  energy=-306.19358012Ha  molecule=COOCCCHHHHHH
C      -0.4013176827      0.1970327507      0.1773112323
O       0.8747074389     -0.2373741357      0.1410168441
O       1.5901118632      0.5057674988      0.0191349320
C      -0.3661191548      1.3068711272     -1.0292275699
C       0.0299172892      2.9945955327     -0.0406810239
C      -0.1947894994     -1.2272673479      0.6080811105
H      -0.9811831863      2.2182278019     -1.6650293613
H      -0.2162758114      1.8520404968     -0.0039175971
H       0.4321767175      3.0249601614     -1.0079954400
H       2.1604481650     -0.9638001837     -2.2046829315
H       2.2421712158     -2.7444577345      2.7342175440
H      -2.2232998402     -0.6875166748      2.4841793268
12
Frame=206  time=103.500fs  energy=-306.19358012Ha  molecule=COOCCCHHHHHH
C      -0.4035983124      0.1979952335      0.1783550913
O       0.8726736922     -0.2380718485      0.1415762532
O       1.5875063486      0.5035349057      0.0193034838
C      -0.3642983237      1.3066415984     -1.0338337810
C       0.0307992795      2.9977680174     -0.0407213732
C      -0.1920758269     -1.2268889789      0.6107322544
H      -0.9769188304      2.2226291736     -1.6717099376
H      -0.2240895281      1.8457733922     -0.0078956696
H       0.4398008224      3.0214462943     -1.0127397245
H       2.1742292735     -0.9581350969     -2.2145709253
H       2.2629398220     -2.7529145518      2.7422084135
H      -2.2256536110     -0.6838801876      2.5012636072
12
Frame=207  time=104.000fs  energy=-306.19358012Ha  molecule=COOCCCHHHHHH
C      -0.4058782636      0.1989574301      0.1793986398
O       0.8706405504     -0.2387693537      0.1421354959
O       1.5849016090      0.5013029767      0.0194719854
C      -0.3624780343      1.3064121378     -1.0384386219
C       0.0316810074      3.0009395584     -0.0407617104
C      -0.1893629616     -1.2265107226      0.6133826098
H      -0.9726557430      2.2270292361     -1.6783885267
H      -0.2319009204      1.8395081518     -0.0118725588
H       0.4474226593      3.0179334724     -1.0174825976
H       2.1880062825     -0.9524716952     -2.2244559777
H       2.2837022502     -2.7613688533      2.7501969059
H      -2.2280066816     -0.6802447822      2.5183428056
12
Frame=208  time=104.500fs  energy=-306.19358012Ha  molecule=COOCCCHHHHHH
C      -0.4081575380      0.1999193409      0.1804418785
O       0.8686080124     -0.2394666518      0.1426945725
O       1.5822976428      0.4990717103      0.0196404370
C      -0.3606582854      1.3061827454     -1.0430420955
C       0.0325624735      3.0041101577     -0.0408020357
C      -0.1866509017     -1.2261325785      0.6160321782
H      -0.9683939213      2.2314279921     -1.6850651328
H      -0.2397099935      1.8332447717     -0.0158482672
H       0.4550422333      3.0144216936     -1.0222240626
H       2.2017792010     -0.9468099751     -2.2343380951
H       2.3044585138     -2.7698206448      2.7581830265
H      -2.2303590536     -0.6766104562      2.5354169330
12
Frame=209  time=105.000fs  energy=-306.19358012Ha  molecule=COOCCCHHHHHH
C      -0.4104361369      0.2008809667      0.1814848079
O       0.8665760766     -0.2401637432      0.1432534835
O       1.5796944483      0.4968411052      0.0198088387
C      -0.3588390757      1.3059534209     -1.0476442050
C       0.0334436784      3.0072798175     -0.0408423491
C      -0.1839396456     -1.2257545465      0.6186809615
H      -0.9641333626      2.2358254447     -1.6917397604
H      -0.2475167525      1.8269832476     -0.0198227974
H       0.4626595493      3.0109109554     -1.0269641225
H       2.2155480381     -0.9411499327     -2.2442172841
H       2.3252086265     -2.7782699316      2.7661667805
H      -2.2327107285     -0.6729772071      2.5524860007
12
Frame=210  time=105.500fs  energy=-306.19358012Ha  molecule=COOCCCHHHHHH
C      -0.4127140618      0.2018423081      0.1825274290
O       0.8645447419     -0.2408606285      0.1438122292
O       1.5770920237      0.4946111598      0.0199771906
C      -0.3570204041      1.3057241643     -1.0522449533
C       0.0343246227      3.0104485398     -0.0408826505
C      -0.1812291913     -1.2253766263      0.6213289613
H      -0.9598740640      2.2402215966     -1.6984124138
H      -0.2553212024      1.8207235756     -0.0237961521
H       0.4702746124      3.0074012556     -1.0317027804
H       2.2293128027     -0.9354915645     -2.2540935511
H       2.3459526019     -2.7867167194      2.7741481731
H      -2.2350617078     -0.6693450327      2.5695500198
12
Frame=211  time=106.000fs  energy=-306.19358012Ha  molecule=COOCCCHHHHHH
C      -0.4149913143      0.2028033657      0.1835697422
O       0.8625140068     -0.2415573080      0.1443708099
O       1.5744903674      0.4923818727      0.0201454928
C      -0.3552022694      1.3054949753     -1.0568443435
C       0.0352053069      3.0136163266     -0.0409229400
C      -0.1785195373     -1.2249988177      0.6239761794
H      -0.9556160228      2.2446164507     -1.7050830974
H      -0.2631233484      1.8144657514     -0.0277683339
H       0.4778874273      3.0038925919     -1.0364400394
H       2.2430735039     -0.9298348666     -2.2639669026
H       2.3666904536     -2.7951610136      2.7821272095
H      -2.2374119931     -0.6657139305      2.5866090015
12
Frame=212  time=106.500fs  energy=-306.19358012Ha  molecule=COOCCCHHHHHH
C      -0.4172678958      0.2037641401      0.1846117483
O       0.8604838700     -0.2422537823      0.1449292261
O       1.5718894776      0.4901532425      0.0203137454
C      -0.3533846704      1.3052658539     -1.0614423784
C       0.0360857316      3.0167831801     -0.0409632176
C      -0.1758106816     -1.2246211203      0.6266226176
H      -0.9513592363      2.2490100099     -1.7117518155
H      -0.2709231955      1.8082097711     -0.0317393452
H       0.4854979993      3.0003849620     -1.0411759027
H       2.2568301505     -0.9241798354     -2.2738373449
H       2.3874221949     -2.8036028197      2.7901038950
H      -2.2397615859     -0.6620838983      2.6036629568
12
Frame=213  time=107.000fs  energy=-306.19358012Ha  molecule=COOCCCHHHHHH
C      -0.4195438078      0.2047246320      0.1856534480
O       0.8584543303     -0.2429500518      0.1454874780
O       1.5692893527      0.4879252677      0.0204819485
C      -0.3515676059      1.3050367999     -1.0660390611
C       0.0369658974      3.0199491022     -0.0410034835
C      -0.1731026225     -1.2242435341      0.6292682774
H      -0.9471037015      2.2534022770     -1.7184185724
H      -0.2787207488      1.8019556305     -0.0357091887
H       0.4931063330      2.9968783637     -1.0459103731
H       2.2705827515     -0.9185264673     -2.2837048845
H       2.4081478394     -2.8120421433      2.7980782346
H      -2.2421104877     -0.6584549335      2.6207118969
12
Frame=214  time=107.500fs  energy=-306.19358012Ha  molecule=COOCCCHHHHHH
C      -0.4218190518      0.2056848419      0.1866948419
O       0.8564253863     -0.2436461168      0.1460455660
O       1.5666899910      0.4856979468      0.0206501022
C      -0.3497510747      1.3048078131     -1.0706343947
C       0.0378458049      3.0231140951     -0.0410437374
C      -0.1703953583     -1.2238660587      0.6319131607
H      -0.9428494159      2.2577932549     -1.7250833726
H      -0.2865160134      1.7957033257     -0.0396778671
H       0.5007124336      2.9933727945     -1.0506434540
H       2.2843313159     -0.9128747585     -2.2935695278
H       2.4288674005     -2.8204789898      2.8060502337
H      -2.2444587001     -0.6548270339      2.6377558328
12
Frame=215  time=108.000fs  energy=-306.19358012Ha  molecule=COOCCCHHHHHH
C      -0.4240936292      0.2066447706      0.1877359307
O       0.8543970367     -0.2443419780      0.1466034906
O       1.5640913908      0.4834712784      0.0208182067
C      -0.3479350757      1.3045788933     -1.0752283820
C       0.0387254546      3.0262781608     -0.0410839796
C      -0.1676888872     -1.2234886939      0.6345572692
H      -0.9385963765      2.2621829464     -1.7317462202
H      -0.2943089944      1.7894528525     -0.0436453827
H       0.5083163060      2.9898682524     -1.0553751482
H       2.2980758526     -0.9072247055     -2.3034312812
H       2.4495808917     -2.8289133646      2.8140198973
H      -2.2468062245     -0.6512001971      2.6547947756
12
Frame=216  time=108.500fs  energy=-306.19358012Ha  molecule=COOCCCHHHHHH
C      -0.4263675416      0.2076044185      0.1887767152
O       0.8523692801     -0.2450376357      0.1471612520
O       1.5614935504      0.4812452611      0.0209862621
C      -0.3461196077      1.3043500405     -1.0798210260
C       0.0396048471      3.0294413013     -0.0411242101
C      -0.1649832075     -1.2231114394      0.6372006045
H      -0.9343445808      2.2665713544     -1.7384071197
H      -0.3020996967      1.7832042069     -0.0476117383
H       0.5159179550      2.9863647350     -1.0601054589
H       2.3118163705     -0.9015763045     -2.3132901510
H       2.4702883264     -2.8373452733      2.8219872306
H      -2.2491530626     -0.6475744208      2.6718287363
12
Frame=217  time=109.000fs  energy=-306.19358012Ha  molecule=COOCCCHHHHHH
C      -0.4286407903      0.2085637864      0.1898171959
O       0.8503421154     -0.2457330904      0.1477188507
O       1.5588964682      0.4790198934      0.0211542684
C      -0.3443046696      1.3041212545     -1.0844123298
C       0.0404839829      3.0326035188     -0.0411644287
C      -0.1622783173     -1.2227342950      0.6398431685
H      -0.9300940258      2.2709584818     -1.7450660753
H      -0.3098881254      1.7769573848     -0.0515769364
H       0.5235173856      2.9828622400     -1.0648343892
H       2.3255528784     -0.8959295519     -2.3231461437
H       2.4909897180     -2.8457747212      2.8299522387
H      -2.2514992157     -0.6439497026      2.6888577259
12
Frame=218  time=109.500fs  energy=-306.19358012Ha  molecule=COOCCCHHHHHH
C      -0.4309133769      0.2095228749      0.1908573735
O       0.8483155411     -0.2464283425      0.1482762870
O       1.5563001424      0.4767951739      0.0213222257
C      -0.3424902600      1.3038925352     -1.0890022962
C       0.0413628627      3.0357648151     -0.0412046357
C      -0.1595742151     -1.2223572604      0.6424849627
H      -0.9258447090      2.2753443312     -1.7517230913
H      -0.3176742855      1.7707123824     -0.0555409795
H       0.5311146026      2.9793607652     -1.0695619420
H       2.3392853851     -0.8902844440     -2.3329992656
H       2.5116850797     -2.8542017139      2.8379149269
H      -2.2538446855     -0.6403260403      2.7058817554
12
Frame=219  time=110.000fs  energy=-306.19358012Ha  molecule=COOCCCHHHHHH
C      -0.4331853028      0.2104816846      0.1918972487
O       0.8462895559     -0.2471233925      0.1488335611
O       1.5537045714      0.4745711012      0.0214901342
C      -0.3406763780      1.3036638823     -1.0935909282
C       0.0422414869      3.0389251924     -0.0412448310
C      -0.1568708989     -1.2219803355      0.6451259889
H      -0.9215966274      2.2797289057     -1.7583781720
H      -0.3254581821      1.7644691954     -0.0595038702
H       0.5387096111      2.9758603084     -1.0742881205
H       2.3530138997     -0.8846409773     -2.3428495230
H       2.5323744250     -2.8626262567      2.8458753001
H      -2.2561894734     -0.6367034313      2.7229008357
12
Frame=220  time=110.500fs  energy=-306.19358012Ha  molecule=COOCCCHHHHHH
C      -0.4354565696      0.2114402160      0.1929368222
O       0.8442641586     -0.2478182408      0.1493906736
O       1.5511097536      0.4723476738      0.0216579940
C      -0.3388630222      1.3034352958     -1.0981782288
C       0.0431198563      3.0420846527     -0.0412850146
C      -0.1541683672     -1.2216035200      0.6477662488
H      -0.9173497785      2.2841122079     -1.7650313216
H      -0.3332398201      1.7582278200     -0.0634656110
H       0.5463024157      2.9723608672     -1.0790129276
H       2.3667384307     -0.8789991481     -2.3526969223
H       2.5530577671     -2.8710483550      2.8538333636
H      -2.2585335810     -0.6330818735      2.7399149777
12
Frame=221  time=111.000fs  energy=-306.19358012Ha  molecule=COOCCCHHHHHH
C      -0.4377271785      0.2123984699      0.1939760947
O       0.8422393479     -0.2485128879      0.1499476248
O       1.5485156872      0.4701248903      0.0218258052
C      -0.3370501916      1.3032067754     -1.1027642010
C       0.0439979712      3.0452431980     -0.0413251866
C      -0.1514666181     -1.2212268135      0.6504057441
H      -0.9131041595      2.2884942407     -1.7716825445
H      -0.3410192045      1.7519882520     -0.0674262045
H       0.5538930215      2.9688624395     -1.0837363664
H       2.3804589872     -0.8733589528     -2.3625414698
H       2.5737351193     -2.8794680143      2.8617891225
H      -2.2608770097     -0.6294613645      2.7569241925
12
Frame=222  time=111.500fs  energy=-306.19358012Ha  molecule=COOCCCHHHHHH
C      -0.4399971312      0.2133564467      0.1950150667
O       0.8402151224     -0.2492073342      0.1505044150
O       1.5459223706      0.4679027493      0.0219935679
C      -0.3352378850      1.3029783211     -1.1073488475
C       0.0448758324      3.0484008304     -0.0413653470
C      -0.1487656499     -1.2208502160      0.6530444764
H      -0.9088597677      2.2928750069     -1.7783318450
H      -0.3487963404      1.7457504876     -0.0713856533
H       0.5614814333      2.9653650230     -1.0884584399
H       2.3941755778     -0.8677203877     -2.3723831718
H       2.5944064948     -2.8878852399      2.8697425817
H      -2.2632197610     -0.6258419020      2.7739284909
12
Frame=223  time=112.000fs  energy=-306.19358012Ha  molecule=COOCCCHHHHHH
C      -0.4422664290      0.2143141472      0.1960537390
O       0.8381914809     -0.2499015802      0.1510610445
O       1.5433298021      0.4656812494      0.0221612822
C      -0.3334261012      1.3027499328     -1.1119321715
C       0.0457534402      3.0515575518     -0.0414054957
C      -0.1460654610     -1.2204737271      0.6556824475
H      -0.9046166003      2.2972545093     -1.7849792271
H      -0.3565712326      1.7395145227     -0.0753439597
H       0.5690676559      2.9618686154     -1.0931791512
H       2.4078882113     -0.8620834492     -2.3822220346
H       2.6150719069     -2.8963000373      2.8776937465
H      -2.2655618365     -0.6222234837      2.7909278837
12
Frame=224  time=112.500fs  energy=-306.19358012Ha  molecule=COOCCCHHHHHH
C      -0.4445350734      0.2152715720      0.1970921123
O       0.8361684220     -0.2505956263      0.1516175138
O       1.5407379801      0.4634603891      0.0223289482
C      -0.3316148391      1.3025216102     -1.1165141758
C       0.0466307954      3.0547133643     -0.0414456330
C      -0.1433660495     -1.2200973466      0.6583196590
H      -0.9003746546      2.3016327507     -1.7916246953
H      -0.3643438862      1.7332803533     -0.0793011265
H       0.5766516942      2.9583732146     -1.0978985032
H       2.4215968966     -0.8564481339     -2.3920580644
H       2.6357313687     -2.9047124118      2.8856426219
H      -2.2679032377     -0.6186061072      2.8079223819
12
Frame=225  time=113.000fs  energy=-306.19358012Ha  molecule=COOCCCHHHHHH
C      -0.4468030658      0.2162287216      0.1981301871
O       0.8341459446     -0.2512894729      0.1521738231
O       1.5381469030      0.4612401670      0.0224965660
C      -0.3298040975      1.3022933532     -1.1210948633
C       0.0475078985      3.0578682699     -0.0414857587
C      -0.1406674137     -1.2197210742      0.6609561127
H      -0.8961339280      2.3060097339     -1.7982682537
H      -0.3721143061      1.7270479755     -0.0832571560
H       0.5842335530      2.9548788183     -1.1026164990
H       2.4353016422     -0.8508144380     -2.4018912676
H       2.6563848934     -2.9131223688      2.8935892130
H      -2.2702439659     -0.6149897703      2.8249119962
12
Frame=226  time=113.500fs  energy=-306.19358012Ha  molecule=COOCCCHHHHHH
C      -0.4490704077      0.2171855967      0.1991679642
O       0.8321240472     -0.2519831205      0.1527299729
O       1.5355565690      0.4590205817      0.0226641357
C      -0.3279938753      1.3020651616     -1.1256742369
C       0.0483847500      3.0610222706     -0.0415258728
C      -0.1379695520     -1.2193449098      0.6635918102
H      -0.8918944178      2.3103854617     -1.8049099066
H      -0.3798824973      1.7208173853     -0.0872120509
H       0.5918132371      2.9513854242     -1.1073331416
H       2.4490024570     -0.8451823580     -2.4117216504
H       2.6770324942     -2.9215299135      2.9015335248
H      -2.2725840228     -0.6113744706      2.8418967374
12
Frame=227  time=114.000fs  energy=-306.19358012Ha  molecule=COOCCCHHHHHH
C      -0.4513371005      0.2181421978      0.2002054442
O       0.8301027287     -0.2526765695      0.1532859635
O       1.5329669766      0.4568016319      0.0228316575
C      -0.3261841713      1.3018370354     -1.1302522996
C       0.0492613505      3.0641753683     -0.0415659755
C      -0.1352724626     -1.2189688531      0.6662267531
H      -0.8876561212      2.3147599368     -1.8115496582
H      -0.3876484646      1.7145885787     -0.0911658136
H       0.5993907514      2.9478930302     -1.1120484339
H       2.4626993496     -0.8395518903     -2.4215492190
H       2.6976741842     -2.9299350515      2.9094755624
H      -2.2749234098     -0.6077602059      2.8588766164
12
Frame=228  time=114.500fs  energy=-306.19358012Ha  molecule=COOCCCHHHHHH
C      -0.4536031457      0.2190985257      0.2012426278
O       0.8280819877     -0.2533698204      0.1538417952
O       1.5303781241      0.4545833160      0.0229991314
C      -0.3243749844      1.3016089744     -1.1348290543
C       0.0501377005      3.0673275652     -0.0416060668
C      -0.1325761439     -1.2185929038      0.6688609432
H      -0.8834190355      2.3191331621     -1.8181875126
H      -0.3954122131      1.7083615518     -0.0951184466
H       0.6069661007      2.9444016341     -1.1167623789
H       2.4763923288     -0.8339230313     -2.4313739797
H       2.7183099765     -2.9383377879      2.9174153307
H      -2.2772621284     -0.6041469738      2.8758516440
12
Frame=229  time=115.000fs  energy=-306.19358012Ha  molecule=COOCCCHHHHHH
C      -0.4558685447      0.2200545808      0.2022795156
O       0.8260618229     -0.2540628737      0.1543974684
O       1.5277900098      0.4523656328      0.0231665576
C      -0.3225663133      1.3013809784     -1.1394045038
C       0.0510138006      3.0704788632     -0.0416461466
C      -0.1298805940     -1.2182170617      0.6714943821
H      -0.8791831582      2.3235051402     -1.8248234742
H      -0.4031737476      1.7021363007     -0.0990699524
H       0.6145392897      2.9409112336     -1.1214749797
H       2.4900814031     -0.8282957775     -2.4411959386
H       2.7389398841     -2.9467381281      2.9253528349
H      -2.2796001800     -0.6005347722      2.8928218308
12
Frame=230  time=115.500fs  energy=-306.19358012Ha  molecule=COOCCCHHHHHH
C      -0.4581332990      0.2210103638      0.2033161083
O       0.8240422331     -0.2547557296      0.1549529835
O       1.5252026322      0.4501485807      0.0233339360
C      -0.3207581571      1.3011530473     -1.1439786511
C       0.0518896513      3.0736292643     -0.0416862150
C      -0.1271858113     -1.2178413266      0.6741270714
H      -0.8749484864      2.3278758740     -1.8314575470
H      -0.4109330730      1.6959128214     -0.1030203336
H       0.6221103232      2.9374218265     -1.1261862392
H       2.5037665814     -0.8226701253     -2.4510151021
H       2.7595639200     -2.9551360774      2.9332880800
H      -2.2819375663     -0.5969235986      2.9097871875
12
Frame=231  time=116.000fs  energy=-306.19358012Ha  molecule=COOCCCHHHHHH
C      -0.4603974098      0.2219658753      0.2043524065
O       0.8220232170     -0.2554483887      0.1555083408
O       1.5226159895      0.4479321584      0.0235012670
C      -0.3189505145      1.3009251810     -1.1485514990
C       0.0527652533      3.0767787704     -0.0417262720
C      -0.1244917941     -1.2174656983      0.6767590130
H      -0.8707150176      2.3322453662     -1.8380897353
H      -0.4186901943      1.6896911100     -0.1069695926
H       0.6296792060      2.9339334106     -1.1308961604
H       2.5174478721     -0.8170460711     -2.4608314763
H       2.7801820974     -2.9635316412      2.9412210708
H      -2.2842742885     -0.5933134508      2.9267477250
12
Frame=232  time=116.500fs  energy=-306.19358012Ha  molecule=COOCCCHHHHHH
C      -0.4626608788      0.2229211159      0.2053884110
O       0.8200047733     -0.2561408515      0.1560635406
O       1.5200300802      0.4457163645      0.0236685505
C      -0.3171433844      1.3006973792     -1.1531230504
C       0.0536406070      3.0799273836     -0.0417663177
C      -0.1217985408     -1.2170901764      0.6793902083
H      -0.8664827490      2.3366136196     -1.8447200433
H      -0.4264451162      1.6834711625     -0.1109177319
H       0.6372459430      2.9304459838     -1.1356047462
H       2.5311252839     -0.8114236115     -2.4706450673
H       2.8007944291     -2.9719248247      2.9491518126
H      -2.2866103482     -0.5897043266      2.9437034539
12
Frame=233  time=117.000fs  energy=-306.19358012Ha  molecule=COOCCCHHHHHH
C      -0.4649237073      0.2238760862      0.2064241222
O       0.8179869008     -0.2568331183      0.1566185833
O       1.5174449027      0.4435011976      0.0238357867
C      -0.3153367656      1.3004696420     -1.1576933082
C       0.0545157130      3.0830751058     -0.0418063520
C      -0.1191060495     -1.2167147608      0.6820206590
H      -0.8622516781      2.3409806369     -1.8513484751
H      -0.4341978438      1.6772529751     -0.1148647540
H       0.6448105388      2.9269595438     -1.1403119997
H       2.5447988254     -0.8058027429     -2.4804558815
H       2.8214009282     -2.9803156331      2.9570803102
H      -2.2889457469     -0.5860962237      2.9606543848
12
Frame=234  time=117.500fs  energy=-306.19358012Ha  molecule=COOCCCHHHHHH
C      -0.4671858967      0.2248307868      0.2074595410
O       0.8159695982     -0.2575251896      0.1571734692
O       1.5148604552      0.4412866564      0.0240029756
C      -0.3135306571      1.3002419690     -1.1622622753
C       0.0553905718      3.0862219390     -0.0418463750
C      -0.1164143187     -1.2163394512      0.6846503669
H      -0.8580218021      2.3453464209     -1.8579750349
H      -0.4419483818      1.6710365439     -0.1188106614
H       0.6523729981      2.9234740885     -1.1450179237
H       2.5584685052     -0.8001834618     -2.4902639248
H       2.8420016075     -2.9887040718      2.9650065686
H      -2.2912804860     -0.5824891398      2.9776005284
12
Frame=235  time=118.000fs  energy=-306.19358012Ha  molecule=COOCCCHHHHHH
C      -0.4694474484      0.2257852183      0.2084946679
O       0.8139528642     -0.2582170658      0.1577281988
O       1.5122767363      0.4390727393      0.0241701174
C      -0.3117250577      1.3000143602     -1.1668299545
C       0.0562651840      3.0893678853     -0.0418863867
C      -0.1137233465     -1.2159642474      0.6872793335
H      -0.8537931183      2.3497109743     -1.8645997268
H      -0.4496967351      1.6648218649     -0.1227554566
H       0.6599333258      2.9199896156     -1.1497225212
H       2.5721343319     -0.7945657645     -2.5000692034
H       2.8625964800     -2.9970901460      2.9729305928
H      -2.2936145671     -0.5788830726      2.9945418953
12
Frame=236  time=118.500fs  energy=-306.19358012Ha  molecule=COOCCCHHHHHH
C      -0.4717083639      0.2267393812      0.2095295036
O       0.8119366976     -0.2589087474      0.1582827722
O       1.5096937442      0.4368594451      0.0243372122
C      -0.3099199663      1.2997868155     -1.1713963487
C       0.0571395502      3.0925129464     -0.0419263872
C      -0.1110331315     -1.2155891492      0.6899075605
H      -0.8495656243      2.3540742997     -1.8712225550
H      -0.4574429086      1.6586089343     -0.1266991419
H       0.6674915266      2.9165061230     -1.1544257952
H       2.5857963139     -0.7889496477     -2.5098717236
H       2.8831855586     -3.0054738610      2.9808523877
H      -2.2959479914     -0.5752780199      3.0114784961
12
Frame=237  time=119.000fs  energy=-306.19358012Ha  molecule=COOCCCHHHHHH
C      -0.4739686446      0.2276932763      0.2105640487
O       0.8099210971     -0.2596002348      0.1588371900
O       1.5071114774      0.4346467724      0.0245042601
C      -0.3081153817      1.2995593346     -1.1759614607
C       0.0580136709      3.0956571245     -0.0419663765
C      -0.1083436718     -1.2152141562      0.6925350496
H      -0.8453393172      2.3584364001     -1.8778435236
H      -0.4651869071      1.6523977481     -0.1306417200
H       0.6750476051      2.9130236085     -1.1591277486
H       2.5994544600     -0.7833351078     -2.5196714914
H       2.9037688561     -3.0138552219      2.9887719584
H      -2.2982807606     -0.5716739794      3.0284103413
12
Frame=238  time=119.500fs  energy=-306.19358012Ha  molecule=COOCCCHHHHHH
C      -0.4762282919      0.2286469040      0.2115983039
O       0.8079060614     -0.2602915284      0.1593914524
O       1.5045299342      0.4324347197      0.0246712611
C      -0.3063113028      1.2993319175     -1.1805252933
C       0.0588875467      3.0988004215     -0.0420063545
C      -0.1056549658     -1.2148392684      0.6951618023
H      -0.8411141946      2.3627972780     -1.8844626368
H      -0.4729287355      1.6461883026     -0.1345831931
H       0.6826015662      2.9095420699     -1.1638283844
H       2.6131087784     -0.7777221413     -2.5294685129
H       2.9243463853     -3.0222342341      2.9966893096
H      -2.3006128761     -0.5680709490      3.0453374417
12
Frame=239  time=120.000fs  energy=-306.19358012Ha  molecule=COOCCCHHHHHH
C      -0.4784873071      0.2296002651      0.2126322698
O       0.8058915893     -0.2609826286      0.1599455597
O       1.5019491131      0.4302232857      0.0248382155
C      -0.3045077285      1.2991045640     -1.1850878495
C       0.0597611780      3.1019428393     -0.0420463214
C      -0.1029670118     -1.2144644854      0.6977878203
H      -0.8368902536      2.3671569362     -1.8910798986
H      -0.4806683984      1.6399805938     -0.1385235639
H       0.6901534144      2.9060615051     -1.1685277053
H       2.6267592779     -0.7721107448     -2.5392627942
H       2.9449181591     -3.0306109027      3.0046044464
H      -2.3029443393     -0.5644689262      3.0622598075
12
Frame=240  time=120.500fs  energy=-306.19358012Ha  molecule=COOCCCHHHHHH
C      -0.4807456918      0.2305533599      0.2136659471
O       0.8038776796     -0.2616735359      0.1604995124
O       1.4993690124      0.4280124691      0.0250051232
C      -0.3027046576      1.2988772739     -1.1896491321
C       0.0606345654      3.1050843799     -0.0420862771
C      -0.1002798082     -1.2140898071      0.7004131053
H      -0.8326674918      2.3715153774     -1.8976953132
H      -0.4884059009      1.6337746180     -0.1424628347
H       0.6977031545      2.9025819120     -1.1732257145
H       2.6404059667     -0.7665009146     -2.5490543415
H       2.9654841903     -3.0389852330      3.0125173737
H      -2.3052751516     -0.5608679090      3.0791774495
12
Frame=241  time=121.000fs  energy=-306.19358012Ha  molecule=COOCCCHHHHHH
C      -0.4830034472      0.2315061893      0.2146993364
O       0.8018643309     -0.2623642507      0.1610533108
O       1.4967896306      0.4258022684      0.0251719845
C      -0.3009020892      1.2986500472     -1.1942091438
C       0.0615077095      3.1082250453     -0.0421262217
C      -0.0975933532     -1.2137152331      0.7030376588
H      -0.8284459065      2.3758726042     -1.9043088847
H      -0.4961412476      1.6275703711     -0.1464010080
H       0.7052507912      2.8991032882     -1.1779224147
H       2.6540488535     -0.7608926474     -2.5588431607
H       2.9860444916     -3.0473572300      3.0204280964
H      -2.3076053146     -0.5572678951      3.0960903781
12
Frame=242  time=121.500fs  energy=-306.19358012Ha  molecule=COOCCCHHHHHH
C      -0.4852605748      0.2324587537      0.2157324384
O       0.7998515422     -0.2630547735      0.1616069551
O       1.4942109660      0.4235926822      0.0253387993
C      -0.2991000219      1.2984228837     -1.1987678876
C       0.0623806108      3.1113648373     -0.0421661551
C      -0.0949076453     -1.2133407633      0.7056614826
H      -0.8242254951      2.3802286195     -1.9109206172
H      -0.5038744433      1.6213678495     -0.1503380862
H       0.7127963292      2.8956256318     -1.1826178090
H       2.6676879466     -0.7552859397     -2.5686292579
H       3.0065990758     -3.0557268991      3.0283366194
H      -2.3099348296     -0.5536688822      3.1129986038
12
Frame=243  time=122.000fs  energy=-306.19358012Ha  molecule=COOCCCHHHHHH
C      -0.4875170760      0.2334110537      0.2167652536
O       0.7978393120     -0.2637451046      0.1621604458
O       1.4916330170      0.4213837094      0.0255055678
C      -0.2972984548      1.2981957832     -1.2033253661
C       0.0632532698      3.1145037580     -0.0422060775
C      -0.0922226827     -1.2129663974      0.7082845781
H      -0.8200062550      2.3845834259     -1.9175305147
H      -0.5116054929      1.6151670492     -0.1542740717
H       0.7203397730      2.8921489405     -1.1873119001
H       2.6813232545     -0.7496807880     -2.5784126393
H       3.0271479555     -3.0640942454      3.0362429475
H      -2.3122636981     -0.5500708682      3.1299021369
12
Frame=244  time=122.500fs  energy=-306.19358012Ha  molecule=COOCCCHHHHHH
C      -0.4897729522      0.2343630900      0.2177977828
O       0.7958276391     -0.2644352445      0.1627137832
O       1.4890557821      0.4191753483      0.0256722902
C      -0.2954973867      1.2979687456     -1.2078815824
C       0.0641256872      3.1176418092     -0.0422459888
C      -0.0895384638     -1.2125921352      0.7109069471
H      -0.8157881835      2.3889370260     -1.9241385814
H      -0.5193344011      1.6089679665     -0.1582089671
H       0.7278811275      2.8886732122     -1.1920046911
H       2.6949547857     -0.7440771889     -2.5881933108
H       3.0476911434     -3.0724592741      3.0441470857
H      -2.3145919215     -0.5464738507      3.1468009880
12
Frame=245  time=123.000fs  energy=-306.19358012Ha  molecule=COOCCCHHHHHH
C      -0.4920282048      0.2353148630      0.2188300265
O       0.7938165224     -0.2651251936      0.1632669677
O       1.4864792597      0.4169675978      0.0258389665
C      -0.2936968165      1.2977417708     -1.2124365390
C       0.0649978633      3.1207789929     -0.0422858891
C      -0.0868549869     -1.2122179765      0.7135285912
H      -0.8115712781      2.3932894226     -1.9307448214
H      -0.5270611727      1.6027705975     -0.1621427746
H       0.7354203971      2.8851984447     -1.1966961847
H       2.7085825484     -0.7384751389     -2.5979712785
H       3.0682286523     -3.0808219902      3.0520490388
H      -2.3169195014     -0.5428778276      3.1636951675
12
Frame=246  time=123.500fs  energy=-306.19358012Ha  molecule=COOCCCHHHHHH
C      -0.4942828351      0.2362663735      0.2198619854
O       0.7918059606     -0.2658149523      0.1638199995
O       1.4839034481      0.4147604564      0.0260055967
C      -0.2918967431      1.2975148586     -1.2169902389
C       0.0658697989      3.1239153110     -0.0423257784
C      -0.0841722505     -1.2118439210      0.7161495119
H      -0.8073555362      2.3976406184     -1.9373492386
H      -0.5347858123      1.5965749384     -0.1660754968
H       0.7429575866      2.8817246360     -1.2013863840
H       2.7222065511     -0.7328746345     -2.6077465483
H       3.0887604946     -3.0891823990      3.0599488117
H      -2.3192464390     -0.5392827967      3.1805846857
12
Frame=247  time=124.000fs  energy=-306.19358012Ha  molecule=COOCCCHHHHHH
C      -0.4965368446      0.2372176220      0.2208936602
O       0.7897959524     -0.2665045212      0.1643728790
O       1.4813283459      0.4125539227      0.0261721811
C      -0.2900971653      1.2972880089     -1.2215426849
C       0.0667414943      3.1270507655     -0.0423656567
C      -0.0814902528     -1.2114699685      0.7187697109
H      -0.8031409551      2.4019906159     -1.9439518371
H      -0.5425083249      1.5903809854     -0.1700071360
H       0.7504927006      2.8782517839     -1.2060752916
H       2.7358268022     -0.7272756723     -2.6175191263
H       3.1092866831     -3.0975405056      3.0678464092
H      -2.3215727358     -0.5356887558      3.1974695531
12
Frame=248  time=124.500fs  energy=-306.19358012Ha  molecule=COOCCCHHHHHH
C      -0.4987902345      0.2381686090      0.2219250514
O       0.7877864967     -0.2671939004      0.1649256065
O       1.4787539514      0.4103479956      0.0263387197
C      -0.2882980822      1.2970612215     -1.2260938797
C       0.0676129501      3.1301853582     -0.0424055241
C      -0.0788089922     -1.2110961188      0.7213891898
H      -0.7989275324      2.4063394180     -1.9505526210
H      -0.5502287150      1.5841887347     -0.1739376947
H       0.7580257436      2.8747798862     -1.2107629107
H       2.7494433099     -0.7216782489     -2.6272890185
H       3.1298072303     -3.1058963152      3.0757418363
H      -2.3238983933     -0.5320957026      3.2143497799
12
Frame=249  time=125.000fs  energy=-306.19358012Ha  molecule=COOCCCHHHHHH
C      -0.5010430064      0.2391193351      0.2229561597
O       0.7857775921     -0.2678830906      0.1654781825
O       1.4761802630      0.4081426734      0.0265052127
C      -0.2864994925      1.2968344963     -1.2306438261
C       0.0684841669      3.1333190912     -0.0424453805
C      -0.0761284670     -1.2107223717      0.7240079502
H      -0.7947152654      2.4106870271     -1.9571515944
H      -0.5579469875      1.5779981825     -0.1778671752
H       0.7655567204      2.8713089408     -1.2154492439
H       2.7630560827     -0.7160823608     -2.6370562309
H       3.1503221488     -3.1142498327      3.0836350976
H      -2.3262234129     -0.5285036350      3.2312253765
12
Frame=250  time=125.500fs  energy=-306.19358012Ha  molecule=COOCCCHHHHHH
C      -0.5032951616      0.2400698010      0.2239869857
O       0.7837692375     -0.2685720922      0.1660306072
O       1.4736072792      0.4059379551      0.0266716600
C      -0.2847013952      1.2966078332     -1.2351925269
C       0.0693551452      3.1364519662     -0.0424852260
C      -0.0734486757     -1.2103487268      0.7266259936
H      -0.7905041516      2.4150334461     -1.9637487612
H      -0.5656631470      1.5718093250     -0.1817955800
H       0.7730856355      2.8678389457     -1.2201342941
H       2.7766651289     -0.7104880047     -2.6468207693
H       3.1708314512     -3.1226010634      3.0915261980
H      -2.3285477960     -0.5249125508      3.2480963533
12
Frame=251  time=126.000fs  energy=-306.19358012Ha  molecule=COOCCCHHHHHH
C      -0.5055467014      0.2410200072      0.2250175301
O       0.7817614316     -0.2692609054      0.1665828809
O       1.4710349984      0.4037338391      0.0268380619
C      -0.2829037892      1.2963812321     -1.2397399849
C       0.0702258855      3.1395839853     -0.0425250606
C      -0.0707696166     -1.2099751841      0.7292433217
H      -0.7862941883      2.4193786775     -1.9703441254
H      -0.5733771982      1.5656221585     -0.1857229115
H       0.7806124935      2.8643698986     -1.2248180643
H       2.7902704567     -0.7048951771     -2.6565826398
H       3.1913351498     -3.1309500123      3.0994151424
H      -2.3308715440     -0.5213224477      3.2649627204
12
Frame=252  time=126.500fs  energy=-306.19358012Ha  molecule=COOCCCHHHHHH
C      -0.5077976272      0.2419699543      0.2260477934
O       0.7797541733     -0.2699495309      0.1671350040
O       1.4684634191      0.4015303241      0.0270044184
C      -0.2811066734      1.2961546927     -1.2442862028
C       0.0710963884      3.1427151503     -0.0425648843
C      -0.0680912880     -1.2096017432      0.7318599361
H      -0.7820853731      2.4237227240     -1.9769376912
H      -0.5810891459      1.5594366792     -0.1896491720
H       0.7881372990      2.8609017975     -1.2295005573
H       2.8038720744     -0.6993038747     -2.6663418484
H       3.2118332572     -3.1392966845      3.1073019356
H      -2.3331946583     -0.5177333236      3.2818244882
12
Frame=253  time=127.000fs  energy=-306.19358012Ha  molecule=COOCCCHHHHHH
C      -0.5100479405      0.2429196428      0.2270777764
O       0.7777474612     -0.2706379689      0.1676869769
O       1.4658925396      0.3993274089      0.0271707296
C      -0.2793100467      1.2959282150     -1.2488311835
C       0.0719666544      3.1458454631     -0.0426046972
C      -0.0654136884     -1.2092284039      0.7344758384
H      -0.7778777033      2.4280655882     -1.9835294625
H      -0.5887989947      1.5532528834     -0.1935743639
H       0.7956600565      2.8574346403     -1.2341817759
H       2.8174699904     -0.6937140939     -2.6760984009
H       3.2323257859     -3.1476410851      3.1151865822
H      -2.3355171404     -0.5141451764      3.2986816670
12
Frame=254  time=127.500fs  energy=-306.19358012Ha  molecule=COOCCCHHHHHH
C      -0.5122976425      0.2438690734      0.2281074795
O       0.7757412942     -0.2713262199      0.1682387999
O       1.4633223585      0.3971250920      0.0273369956
C      -0.2775139080      1.2957017988     -1.2533749296
C       0.0728366840      3.1489749256     -0.0426444993
C      -0.0627368161     -1.2088551660      0.7370910301
H      -0.7736711765      2.4324072728     -1.9901194433
H      -0.5965067492      1.5470707672     -0.1974984897
H       0.8031807707      2.8539684249     -1.2388617229
H       2.8310642127     -0.6881258315     -2.6858523032
H       3.2528127483     -3.1559832191      3.1230690872
H      -2.3378389917     -0.5105580038      3.3155342669
12
Frame=255  time=128.000fs  energy=-306.19358012Ha  molecule=COOCCCHHHHHH
C      -0.5145467346      0.2448182466      0.2291369036
O       0.7737356711     -0.2720142844      0.1687904732
O       1.4607528741      0.3949233721      0.0275032166
C      -0.2757182563      1.2954754440     -1.2579174439
C       0.0737064777      3.1521035398     -0.0426842906
C      -0.0600606694     -1.2084820294      0.7397055129
H      -0.7694657900      2.4367477804     -1.9967076376
H      -0.6042124143      1.5408903269     -0.2014215516
H       0.8106994460      2.8505031492     -1.2435404013
H       2.8446547498     -0.6825390841     -2.6956035613
H       3.2732941568     -3.1643230917      3.1309494554
H      -2.3401602134     -0.5069718036      3.3323822981
12
Frame=256  time=128.500fs  energy=-306.19358012Ha  molecule=COOCCCHHHHHH
C      -0.5167952181      0.2457671630      0.2301660491
O       0.7717305906     -0.2727021627      0.1693419973
O       1.4581840849      0.3927222480      0.0276693926
C      -0.2739230904      1.2952491504     -1.2624587292
C       0.0745760361      3.1552313075     -0.0427240711
C      -0.0573852468     -1.2081089937      0.7423192883
H      -0.7652615414      2.4410871136     -2.0032940493
H      -0.6119159945      1.5347115589     -0.2053435521
H       0.8182160870      2.8470388110     -1.2482178137
H       2.8582416098     -0.6769538482     -2.7053521811
H       3.2937700237     -3.1726607077      3.1388276913
H      -2.3424808072     -0.5033865737      3.3492257709
12
Frame=257  time=129.000fs  energy=-306.19358012Ha  molecule=COOCCCHHHHHH
C      -0.5190430946      0.2467158232      0.2311949167
O       0.7697260516     -0.2733898552      0.1698933724
O       1.4556159894      0.3905217183      0.0278355237
C      -0.2721284092      1.2950229180     -1.2669987882
C       0.0754453596      3.1583582305     -0.0427638409
C      -0.0547105467     -1.2077360587      0.7449323578
H      -0.7610584280      2.4454252750     -2.0098786825
H      -0.6196174945      1.5285344593     -0.2092644936
H       0.8257306984      2.8435754083     -1.2528939631
H       2.8718248008     -0.6713701205     -2.7150981685
H       3.3142403615     -3.1809960724      3.1467037999
H      -2.3448007743     -0.4998023120      3.3660646954
12
Frame=258  time=129.500fs  energy=-306.19358012Ha  molecule=COOCCCHHHHHH
C      -0.5212903652      0.2476642277      0.2322235070
O       0.7677220527     -0.2740773624      0.1704445990
O       1.4530485860      0.3883217815      0.0280016101
C      -0.2703342117      1.2947967465     -1.2715376236
C       0.0763144489      3.1614843109     -0.0428036000
C      -0.0520365674     -1.2073632242      0.7475447232
H      -0.7568564474      2.4497622673     -2.0164615412
H      -0.6273169189      1.5223590245     -0.2131843783
H       0.8332432845      2.8401129390     -1.2575688523
H       2.8854043312     -0.6657878976     -2.7248415292
H       3.3347051825     -3.1893291906      3.1545777858
H      -2.3471201162     -0.4962190162      3.3828990818
12
Frame=259  time=130.000fs  energy=-306.19358012Ha  molecule=COOCCCHHHHHH
C      -0.5235370313      0.2486123770      0.2332518207
O       0.7657185929     -0.2747646847      0.1709956773
O       1.4504818732      0.3861224366      0.0281676518
C      -0.2685404968      1.2945706358     -1.2760752382
C       0.0771833044      3.1646095504     -0.0428433484
C      -0.0493633074     -1.2069904900      0.7501563859
H      -0.7526555970      2.4540980930     -2.0230426292
H      -0.6350142724      1.5161852507     -0.2171032087
H       0.8407538499      2.8366514010     -1.2622424841
H       2.8989802090     -0.6602071762     -2.7345822693
H       3.3551644990     -3.1976600674      3.1624496539
H      -2.3494388342     -0.4926366843      3.3997289401
12
Frame=260  time=130.500fs  energy=-306.19358012Ha  molecule=COOCCCHHHHHH
C      -0.5257830943      0.2495602719      0.2342798583
O       0.7637156710     -0.2754518224      0.1715466076
O       1.4479158493      0.3839236820      0.0283336489
C      -0.2667472634      1.2943445858     -1.2806116347
C       0.0780519267      3.1677339510     -0.0428830861
C      -0.0466907649     -1.2066178559      0.7527673475
H      -0.7484558743      2.4584327549     -2.0296219505
H      -0.6427095595      1.5100131342     -0.2210209871
H       0.8482623991      2.8331907923     -1.2669148612
H       2.9125524424     -0.6546279530     -2.7443203945
H       3.3756183232     -3.2059887079      3.1703194088
H      -2.3517569298     -0.4890553140      3.4165542805
12
Frame=261  time=131.000fs  energy=-306.19358012Ha  molecule=COOCCCHHHHHH
C      -0.5280285556      0.2505079128      0.2353076205
O       0.7617132856     -0.2761387761      0.1720973904
O       1.4453505130      0.3817255165      0.0284996015
C      -0.2649545104      1.2941185964     -1.2851468158
C       0.0789203163      3.1708575145     -0.0429228132
C      -0.0440189385     -1.2062453216      0.7553776095
H      -0.7442572768      2.4627662553     -2.0361995091
H      -0.6504027849      1.5038426713     -0.2249377158
H       0.8557689367      2.8297311107     -1.2715859865
H       2.9261210396     -0.6490502245     -2.7540559106
H       3.3960666675     -3.2143151169      3.1781870552
H      -2.3540744043     -0.4854749032      3.4333751131
12
Frame=262  time=131.500fs  energy=-306.19358012Ha  molecule=COOCCCHHHHHH
C      -0.5302734165      0.2514553003      0.2363351079
O       0.7597114357     -0.2768255461      0.1726480259
O       1.4427858626      0.3795279388      0.0286655098
C      -0.2631622368      1.2938926675     -1.2896807842
C       0.0797884737      3.1739802427     -0.0429625296
C      -0.0413478265     -1.2058728869      0.7579871736
H      -0.7400598019      2.4670985971     -2.0427753090
H      -0.6580939532      1.4976738584     -0.2288533973
H       0.8632734670      2.8262723542     -1.2762558628
H       2.9396860086     -0.6434739874     -2.7637888236
H       3.4165095441     -3.2226392995      3.1860525979
H      -2.3563912592     -0.4818954498      3.4501914480
12
Frame=263  time=132.000fs  energy=-306.19358012Ha  molecule=COOCCCHHHHHH
C      -0.5325176783      0.2524024350      0.2373623211
O       0.7577101200     -0.2775121328      0.1731985144
O       1.4402218967      0.3773309475      0.0288313737
C      -0.2613704416      1.2936667988     -1.2942135427
C       0.0806563993      3.1771021376     -0.0430022355
C      -0.0386774274     -1.2055005516      0.7605960413
H      -0.7358634472      2.4714297826     -2.0493493539
H      -0.6657830690      1.4915066918     -0.2327680338
H       0.8707759947      2.8228145207     -1.2809244928
H       2.9532473576     -0.6378992385     -2.7735191392
H       3.4369469651     -3.2309612607      3.1939160415
H      -2.3587074957     -0.4783169517      3.4670032951
12
Frame=264  time=132.500fs  energy=-306.19358012Ha  molecule=COOCCCHHHHHH
C      -0.5347613423      0.2533493174      0.2383892606
O       0.7557093373     -0.2781985366      0.1737488563
O       1.4376586136      0.3751345414      0.0289971935
C      -0.2595791235      1.2934409903     -1.2987450939
C       0.0815240939      3.1802232011     -0.0430419307
C      -0.0360077395     -1.2051283155      0.7632042142
H      -0.7316682102      2.4757598146     -2.0559216480
H      -0.6734701369      1.4853411677     -0.2366816276
H       0.8782765241      2.8193576082     -1.2855918794
H       2.9668050946     -0.6323259744     -2.7832468632
H       3.4573789429     -3.2392810054      3.2017773907
H      -2.3610231154     -0.4747394066      3.4838106646
12
Frame=265  time=133.000fs  energy=-306.19358012Ha  molecule=COOCCCHHHHHH
C      -0.5370044099      0.2542959481      0.2394159272
O       0.7537090865     -0.2788847580      0.1742990519
O       1.4350960119      0.3729387191      0.0291629693
C      -0.2577882816      1.2932152418     -1.3032754405
C       0.0823915577      3.1833434348     -0.0430816154
C      -0.0333387612     -1.2047561783      0.7658116937
H      -0.7274740884      2.4800886956     -2.0624921950
H      -0.6811551614      1.4791772825     -0.2405941812
H       0.8857750597      2.8159016146     -1.2902580254
H       2.9803592278     -0.6267541917     -2.7929720014
H       3.4778054894     -3.2475985386      3.2096366503
H      -2.3633381195     -0.4711628125      3.5006135663
12
Frame=266  time=133.500fs  energy=-306.19358012Ha  molecule=COOCCCHHHHHH
C      -0.5392468825      0.2552423277      0.2404423215
O       0.7517093663     -0.2795707973      0.1748491016
O       1.4325340900      0.3707434794      0.0293287010
C      -0.2559979148      1.2929895532     -1.3078045853
C       0.0832587915      3.1864628408     -0.0431212896
C      -0.0306704910     -1.2043841398      0.7684184815
H      -0.7232810792      2.4844164282     -2.0690609989
H      -0.6888381471      1.4730150325     -0.2445056967
H       0.8932716061      2.8124465379     -1.2949229334
H       2.9939097652     -0.6211838872     -2.8026945596
H       3.4982266169     -3.2559138651      3.2174938249
H      -2.3656525095     -0.4675871673      3.5174120104
12
Frame=267  time=134.000fs  energy=-306.19358012Ha  molecule=COOCCCHHHHHH
C      -0.5414887613      0.2561884568      0.2414684439
O       0.7497101756     -0.2802566550      0.1753990056
O       1.4299728464      0.3685488209      0.0294943889
C      -0.2542080220      1.2927639243     -1.3123325309
C       0.0841257956      3.1895814209     -0.0431609533
C      -0.0280029273     -1.2040121999      0.7710245791
H      -0.7190891802      2.4887430149     -2.0756280635
H      -0.6965190986      1.4668544141     -0.2484161767
H       0.9007661676      2.8089923759     -1.2995866063
H       3.0074567147     -0.6156150575     -2.8124145435
H       3.5186423375     -3.2642269901      3.2253489191
H      -2.3679662867     -0.4640124688      3.5342060067
12
Frame=268  time=134.500fs  energy=-306.19358012Ha  molecule=COOCCCHHHHHH
C      -0.5437300477      0.2571343358      0.2424942953
O       0.7477115132     -0.2809423315      0.1759487643
O       1.4274122797      0.3663547424      0.0296600330
C      -0.2524186023      1.2925383551     -1.3168592800
C       0.0849925706      3.1926991769     -0.0432006065
C      -0.0253360685     -1.2036403582      0.7736299881
H      -0.7148983889      2.4930684584     -2.0821933928
H      -0.7041980204      1.4606954237     -0.2523256232
H       0.9082587486      2.8055391267     -1.3042490468
H       3.0210000845     -0.6100476994     -2.8221319589
H       3.5390526633     -3.2725379183      3.2332019376
H      -2.3702794524     -0.4604387149      3.5509955653
12
Frame=269  time=135.000fs  energy=-306.19358012Ha  molecule=COOCCCHHHHHH
C      -0.5459707431      0.2580799653      0.2435198760
O       0.7457133779     -0.2816278271      0.1764983781
O       1.4248523883      0.3641612424      0.0298256334
C      -0.2506296544      1.2923128453     -1.3213848352
C       0.0858591170      3.1958161107     -0.0432402493
C      -0.0226699130     -1.2032686146      0.7762347099
H      -0.7107087029      2.4973927611     -2.0887569907
H      -0.7118749171      1.4545380575     -0.2562340388
H       0.9157493537      2.8020867883     -1.3089102578
H       3.0345398826     -0.6044818095     -2.8318468116
H       3.5594576064     -3.2808466547      3.2410528851
H      -2.3725920081     -0.4568659034      3.5677806959
12
Frame=270  time=135.500fs  energy=-306.19358012Ha  molecule=COOCCCHHHHHH
C      -0.5482108486      0.2590253460      0.2445451869
O       0.7437157685     -0.2823131423      0.1770478471
O       1.4222931706      0.3619683199      0.0299911902
C      -0.2488411774      1.2920873950     -1.3259091994
C       0.0867254354      3.1989322241     -0.0432798816
C      -0.0200044592     -1.2028969689      0.7788387462
H      -0.7065201196      2.5017159256     -2.0953188610
H      -0.7195497932      1.4483823121     -0.2601414256
H       0.9232379871      2.7986353585     -1.3135702418
H       3.0480761169     -0.5989173846     -2.8415591073
H       3.5798571787     -3.2891532041      3.2489017662
H      -2.3749039552     -0.4532940324      3.5845614087
12
Frame=271  time=136.000fs  energy=-306.19358012Ha  molecule=COOCCCHHHHHH
C      -0.5504503657      0.2599704783      0.2455702284
O       0.7417186838     -0.2829982775      0.1775971718
O       1.4197346252      0.3597759733      0.0301567035
C      -0.2470531702      1.2918620038     -1.3304323750
C       0.0875915261      3.2020475189     -0.0433195035
C      -0.0173397056     -1.2025254207      0.7814420984
H      -0.7023326366      2.5060379545     -2.1018790075
H      -0.7272226532      1.4422281836     -0.2640477860
H       0.9307246535      2.7951848353     -1.3182290018
H       3.0616087954     -0.5933544215     -2.8512688517
H       3.6002513923     -3.2974575716      3.2567485854
H      -2.3772152949     -0.4497230997      3.6013377133
12
Frame=272  time=136.500fs  energy=-306.19358012Ha  molecule=COOCCCHHHHHH
C      -0.5526892957      0.2609153628      0.2465950012
O       0.7397221227     -0.2836832330      0.1781463526
O       1.4171767505      0.3575842016      0.0303221734
C      -0.2452656318      1.2916366717     -1.3349543648
C       0.0884573899      3.2051619970     -0.0433591150
C      -0.0146756507     -1.2021539700      0.7840447681
H      -0.6981462514      2.5103588502     -2.1084374343
H      -0.7348935016      1.4360756686     -0.2679531223
H       0.9382093570      2.7917352168     -1.3228865403
H       3.0751379260     -0.5877929167     -2.8609760505
H       3.6206402592     -3.3057597619      3.2645933475
H      -2.3795260287     -0.4461531031      3.6181096198
12
Frame=273  time=137.000fs  energy=-306.19358012Ha  molecule=COOCCCHHHHHH
C      -0.5549276399      0.2618600001      0.2476195058
O       0.7377260841     -0.2843680093      0.1786953896
O       1.4146195452      0.3553930033      0.0304876001
C      -0.2434785610      1.2914113986     -1.3394751714
C       0.0893230270      3.2082756601     -0.0433987161
C      -0.0120122928     -1.2017826165      0.7866467568
H      -0.6939609615      2.5146786155     -2.1149941450
H      -0.7425623429      1.4299247633     -0.2718574368
H       0.9456921022      2.7882865009     -1.3275428603
H       3.0886635168     -0.5822328671     -2.8706807095
H       3.6410237914     -3.3140597799      3.2724360570
H      -2.3818361579     -0.4425840406      3.6348771379
12
Frame=274  time=137.500fs  energy=-306.19358012Ha  molecule=COOCCCHHHHHH
C      -0.5571653996      0.2628043907      0.2486437429
O       0.7357305666     -0.2850526068      0.1792442832
O       1.4120630076      0.3532023772      0.0306529835
C      -0.2416919570      1.2911861843     -1.3439947975
C       0.0901884381      3.2113885102     -0.0434383069
C      -0.0093496303     -1.2014113599      0.7892480660
H      -0.6897767646      2.5189972526     -2.1215491435
H      -0.7502291817      1.4237754643     -0.2757607317
H       0.9531728934      2.7848386855     -1.3321979643
H       3.1021855756     -0.5766742694     -2.8803828342
H       3.6614020008     -3.3223576306      3.2802767185
H      -2.3841456838     -0.4390159102      3.6516402774
12
Frame=275  time=138.000fs  energy=-306.19358012Ha  molecule=COOCCCHHHHHH
C      -0.5594025760      0.2637485353      0.2496677131
O       0.7337355692     -0.2857370259      0.1797930338
O       1.4095071363      0.3510123220      0.0308183238
C      -0.2399058185      1.2909610287     -1.3485132457
C       0.0910536237      3.2145005491     -0.0434778874
C      -0.0066876618     -1.2010402001      0.7918486973
H      -0.6855936581      2.5233147643     -2.1281024337
H      -0.7578940224      1.4176277678     -0.2796630094
H       0.9606517350      2.7813917687     -1.3368518551
H       3.1157041104     -0.5711171204     -2.8900824304
H       3.6817748994     -3.3306533187      3.2881153367
H      -2.3864546078     -0.4354487096      3.6683990483
12
Frame=276  time=138.500fs  energy=-306.19358012Ha  molecule=COOCCCHHHHHH
C      -0.5616391706      0.2646924342      0.2506914169
O       0.7317410907     -0.2864212670      0.1803416417
O       1.4069519297      0.3488228364      0.0309836212
C      -0.2381201446      1.2907359317     -1.3530305186
C       0.0919185842      3.2176117785     -0.0435174576
C      -0.0040263857     -1.2006691369      0.7944486522
H      -0.6814116397      2.5276311530     -2.1346540194
H      -0.7655568694      1.4114816704     -0.2835642721
H       0.9681286314      2.7779457484     -1.3415045355
H       3.1292191290     -0.5655614168     -2.8997795038
H       3.7021424989     -3.3389468491      3.2959519160
H      -2.3887629313     -0.4318824369      3.6851534602
12
Frame=277  time=139.000fs  energy=-306.19358012Ha  molecule=COOCCCHHHHHH
C      -0.5638751846      0.2656360881      0.2517148550
O       0.7297471299     -0.2871053305      0.1808901071
O       1.4043973864      0.3466339192      0.0311488756
C      -0.2363349343      1.2905108931     -1.3575466190
C       0.0927833202      3.2207222003     -0.0435570175
C      -0.0013658004     -1.2002981699      0.7970479322
H      -0.6772307069      2.5319464213     -2.1412039044
H      -0.7732177273      1.4053371684     -0.2874645221
H       0.9756035868      2.7745006226     -1.3461560081
H       3.1427306394     -0.5600071554     -2.9094740600
H       3.7225048114     -3.3472382267      3.3037864610
H      -2.3910706555     -0.4283170899      3.7019035229
12
Frame=278  time=139.500fs  energy=-306.19358012Ha  molecule=COOCCCHHHHHH
C      -0.5661106194      0.2665794976      0.2527380280
O       0.7277536858     -0.2877892167      0.1814384305
O       1.4018435050      0.3444455691      0.0313140872
C      -0.2345501864      1.2902859128     -1.3620615493
C       0.0936478322      3.2238318163     -0.0435965672
C       0.0012940956     -1.1999272991      0.7996465387
H      -0.6730508572      2.5362605716     -2.1477520926
H      -0.7808766005      1.3991942582     -0.2913637616
H       0.9830766058      2.7710563894     -1.3508062756
H       3.1562386493     -0.5544543328     -2.9191661046
H       3.7428618486     -3.3555274562      3.3116189764
H      -2.3933777819     -0.4247526665      3.7186492462
12
Frame=279  time=140.000fs  energy=-306.19358012Ha  molecule=COOCCCHHHHHH
C      -0.5683454761      0.2675226631      0.2537609364
O       0.7257607570     -0.2884729262      0.1819866121
O       1.3992902839      0.3422577848      0.0314792561
C      -0.2327659000      1.2900609907     -1.3665753123
C       0.0945121207      3.2269406282     -0.0436361067
C       0.0039533039     -1.1995565241      0.8022444734
H      -0.6688720882      2.5405736064     -2.1542985876
H      -0.7885334935      1.3930529363     -0.2952619930
H       0.9905476926      2.7676130467     -1.3554553408
H       3.1697431667     -0.5489029460     -2.9288556433
H       3.7632136224     -3.3638145424      3.3194494667
H      -2.3956843118     -0.4211891648      3.7353906398
12
Frame=280  time=140.500fs  energy=-306.19358012Ha  molecule=COOCCCHHHHHH
C      -0.5705797561      0.2684655852      0.2547835809
O       0.7237683425     -0.2891564592      0.1825346522
O       1.3967377216      0.3400705650      0.0316443824
C      -0.2309820741      1.2898361266     -1.3710879106
C       0.0953761861      3.2300486380     -0.0436756359
C       0.0066118260     -1.1991858449      0.8048417378
H      -0.6646943975      2.5448855283     -2.1608433934
H      -0.7961884106      1.3869131992     -0.2991592185
H       0.9980168515      2.7641705925     -1.3601032063
H       3.1832441993     -0.5433529917     -2.9385426816
H       3.7835601446     -3.3720994903      3.3272779363
H      -2.3979902465     -0.4176265826      3.7521277135
12
Frame=281  time=141.000fs  energy=-306.19358012Ha  molecule=COOCCCHHHHHH
C      -0.5728134608      0.2694082645      0.2558059620
O       0.7217764411     -0.2898398161      0.1830825512
O       1.3941858166      0.3378839085      0.0318094661
C      -0.2291987075      1.2896113204     -1.3755993467
C       0.0962400290      3.2331558473     -0.0437151550
C       0.0092696634     -1.1988152611      0.8074383332
H      -0.6605177827      2.5491963398     -2.1673865138
H      -0.8038413564      1.3807750432     -0.3030554403
H       1.0054840868      2.7607290249     -1.3647498749
H       3.1967417550     -0.5378044667     -2.9482272253
H       3.8039014270     -3.3803823045      3.3351043899
H      -2.4002955874     -0.4140649179      3.7688604768
12
Frame=282  time=141.500fs  energy=-306.19358012Ha  molecule=COOCCCHHHHHH
C      -0.5750465914      0.2703507016      0.2568280803
O       0.7197850516     -0.2905229974      0.1836303094
O       1.3916345676      0.3356978140      0.0319745074
C      -0.2274157992      1.2893865720     -1.3801096234
C       0.0971036499      3.2362622581     -0.0437546639
C       0.0119268178     -1.1984447725      0.8100342613
H      -0.6563422413      2.5535060433     -2.1739279524
H      -0.8114923353      1.3746384648     -0.3069506608
H       1.0129494030      2.7572883418     -1.3693953492
H       3.2102358416     -0.5322573678     -2.9579092798
H       3.8242374813     -3.3886629900      3.3429288319
H      -2.4026003357     -0.4105041686      3.7855889395
12
Frame=283  time=142.000fs  energy=-306.19358012Ha  molecule=COOCCCHHHHHH
C      -0.5772791491      0.2712928968      0.2578499365
O       0.7177941730     -0.2912060035      0.1841779271
O       1.3890839729      0.3335122803      0.0321395064
C      -0.2256333483      1.2891618812     -1.3846187431
C       0.0979670493      3.2393678720     -0.0437941626
C       0.0145832906     -1.1980743790      0.8126295235
H      -0.6521677711      2.5578146413     -2.1804677131
H      -0.8191413516      1.3685034605     -0.3108448820
H       1.0204128042      2.7538485413     -1.3740396319
H       3.2237264668     -0.5267116917     -2.9675888509
H       3.8445683192     -3.3969415513      3.3507512669
H      -2.4049044929     -0.4069443326      3.8023131112
12
Frame=284  time=142.500fs  energy=-306.19358012Ha  molecule=COOCCCHHHHHH
C      -0.5795111353      0.2722348509      0.2588715311
O       0.7158038040     -0.2918888348      0.1847254046
O       1.3865340313      0.3313273060      0.0323044632
C      -0.2238513537      1.2889372480     -1.3891267084
C       0.0988302276      3.2424726909     -0.0438336513
C       0.0172390833     -1.1977040803      0.8152241213
H      -0.6479943695      2.5621221363     -2.1870057996
H      -0.8267884098      1.3623700267     -0.3147381064
H       1.0278742949      2.7504096213     -1.3786827257
H       3.2372136385     -0.5211674353     -2.9772659440
H       3.8648939525     -3.4052179934      3.3585716994
H      -2.4072080602     -0.4033854080      3.8190330016
12
Frame=285  time=143.000fs  energy=-306.19358012Ha  molecule=COOCCCHHHHHH
C      -0.5817425513      0.2731765644      0.2598928646
O       0.7138139435     -0.2925714916      0.1852727422
O       1.3839847410      0.3291428900      0.0324693778
C      -0.2220698144      1.2887126722     -1.3936335221
C       0.0996931854      3.2455767165     -0.0438731299
C       0.0198941974     -1.1973338762      0.8178180562
H      -0.6438220341      2.5664285308     -2.1935422157
H      -0.8344335142      1.3562381600     -0.3186303361
H       1.0353338792      2.7469715800     -1.3833246332
H       3.2506973643     -0.5156245954     -2.9869405647
H       3.8852143928     -3.4134923209      3.3663901338
H      -2.4095110390     -0.3998273926      3.8357486202
12
Frame=286  time=143.500fs  energy=-306.19358012Ha  molecule=COOCCCHHHHHH
C      -0.5839733983      0.2741180377      0.2609139377
O       0.7118245904     -0.2932539743      0.1858199403
O       1.3814361009      0.3269590310      0.0326342503
C      -0.2202887294      1.2884881536     -1.3981391866
C       0.1005559232      3.2486799507     -0.0439125984
C       0.0225486346     -1.1969637665      0.8204113298
H      -0.6396507626      2.5707338273     -2.2000769652
H      -0.8420766693      1.3501078568     -0.3225215733
H       1.0427915614      2.7435344153     -1.3879653571
H       3.2641776521     -0.5100831688     -2.9966127186
H       3.9055296518     -3.4217645386      3.3742065747
H      -2.4118134305     -0.3962702845      3.8524599767
12
Frame=287  time=144.000fs  energy=-306.19358012Ha  molecule=COOCCCHHHHHH
C      -0.5862036776      0.2750592714      0.2619347510
O       0.7098357435     -0.2939362833      0.1863669991
O       1.3788881092      0.3247757277      0.0327990809
C      -0.2185080975      1.2882636921     -1.4026437045
C       0.1014184414      3.2517823952     -0.0439520568
C       0.0252023963     -1.1965937509      0.8230039434
H      -0.6354805525      2.5750380282     -2.2066100518
H      -0.8497178795      1.3439791136     -0.3264118203
H       1.0502473459      2.7400981252     -1.3926049001
H       3.2776545096     -0.5045431523     -3.0062824111
H       3.9258397411     -3.4300346513      3.3820210266
H      -2.4141152362     -0.3927140815      3.8691670806
12
Frame=288  time=144.500fs  energy=-306.19358012Ha  molecule=COOCCCHHHHHH
C      -0.5884333905      0.2760002661      0.2629553051
O       0.7078474018     -0.2946184191      0.1869139190
O       1.3763407647      0.3225929789      0.0329638697
C      -0.2167279179      1.2880392877     -1.4071470784
C       0.1022807406      3.2548840518     -0.0439915053
C       0.0278554841     -1.1962238294      0.8255958985
H      -0.6313114016      2.5793411360     -2.2131414791
H      -0.8573571490      1.3378519268     -0.3303010794
H       1.0577012369      2.7366627079     -1.3972432648
H       3.2911279443     -0.4990045428     -3.0159496480
H       3.9461446724     -3.4383026637      3.3898334938
H      -2.4164164573     -0.3891587817      3.8858699415
12
Frame=289  time=145.000fs  energy=-306.19358012Ha  molecule=COOCCCHHHHHH
C      -0.5906625382      0.2769410223      0.2639756005
O       0.7058595640     -0.2953003820      0.1874607002
O       1.3737940658      0.3204107833      0.0331286166
C      -0.2149481895      1.2878149401     -1.4116493109
C       0.1031428212      3.2579849223     -0.0440309437
C       0.0305078994     -1.1958540016      0.8281871968
H      -0.6271433074      2.5836431531     -2.2196712511
H      -0.8649944823      1.3317262931     -0.3341893527
H       1.0651532386      2.7332281612     -1.4018804539
H       3.3045979641     -0.4934673371     -3.0256144345
H       3.9664444572     -3.4465685804      3.3976439809
H      -2.4187170951     -0.3856043830      3.9025685689
12
Frame=290  time=145.500fs  energy=-306.19358012Ha  molecule=COOCCCHHHHHH
C      -0.5928911221      0.2778815405      0.2649956378
O       0.7038722290     -0.2959821723      0.1880073432
O       1.3712480111      0.3182291397      0.0332933219
C      -0.2131689113      1.2875906493     -1.4161504046
C       0.1040046838      3.2610850083     -0.0440703722
C       0.0331596437     -1.1954842673      0.8307778395
H      -0.6229762675      2.5879440820     -2.2261993713
H      -0.8726298837      1.3256022088     -0.3380766424
H       1.0726033554      2.7297944834     -1.4065164699
H       3.3180645767     -0.4879315321     -3.0352767764
H       3.9867391071     -3.4548324063      3.4054524923
H      -2.4210171509     -0.3820508834      3.9192629724
12
Frame=291  time=146.000fs  energy=-306.19358012Ha  molecule=COOCCCHHHHHH
C      -0.5951191434      0.2788218213      0.2660154176
O       0.7018853957     -0.2966637906      0.1885538481
O       1.3687025992      0.3160480469      0.0334579856
C      -0.2113900823      1.2873664151     -1.4206503620
C       0.1048663288      3.2641843118     -0.0441097907
C       0.0358107187     -1.1951146264      0.8333678283
H      -0.6188102795      2.5922439252     -2.2327258435
H      -0.8802633576      1.3194796706     -0.3419629508
H       1.0800515913      2.7263616724     -1.4111513157
H       3.3315277896     -0.4823971246     -3.0449366789
H       4.0070286337     -3.4630941460      3.4132590325
H      -2.4233166262     -0.3784982809      3.9359531613
12
Frame=292  time=146.500fs  energy=-306.19358012Ha  molecule=COOCCCHHHHHH
C      -0.5973466033      0.2797618652      0.2670349404
O       0.6998990630     -0.2973452371      0.1891002154
O       1.3661578285      0.3138675036      0.0336226079
C      -0.2096117014      1.2871422374     -1.4251491856
C       0.1057277567      3.2672828344     -0.0441491993
C       0.0384611257     -1.1947450786      0.8359571645
H      -0.6146453412      2.5965426850     -2.2392506713
H      -0.8878949082      1.3133586749     -0.3458482800
H       1.0874979507      2.7229297263     -1.4157849936
H       3.3449876105     -0.4768641115     -3.0545941478
H       4.0273130484     -3.4713538042      3.4210636059
H      -2.4256155220     -0.3749465734      3.9526391453
12
Frame=293  time=147.000fs  energy=-306.19358012Ha  molecule=COOCCCHHHHHH
C      -0.5995735032      0.2807016727      0.2680542069
O       0.6979132298     -0.2980265123      0.1896464452
O       1.3636136978      0.3116875086      0.0337871887
C      -0.2078337677      1.2869181161     -1.4296468780
C       0.1065889680      3.2703805779     -0.0441885980
C       0.0411108662     -1.1943756238      0.8385458496
H      -0.6104814501      2.6008403639     -2.2457738586
H      -0.8955245400      1.3072392182     -0.3497326324
H       1.0949424378      2.7194986431     -1.4204175065
H       3.3584440471     -0.4713324895     -3.0642491883
H       4.0475923628     -3.4796113855      3.4288662168
H      -2.4279138399     -0.3713957590      3.9693209337
12
Frame=294  time=147.500fs  energy=-306.19358012Ha  molecule=COOCCCHHHHHH
C      -0.6017998442      0.2816412444      0.2690732177
O       0.6959278949     -0.2987076165      0.1901925380
O       1.3610702054      0.3095080606      0.0339517282
C      -0.2060562801      1.2866940510     -1.4341434418
C       0.1074499631      3.2734775441     -0.0442279867
C       0.0437599419     -1.1940062616      0.8411338852
H      -0.6063186038      2.6051369644     -2.2522954090
H      -0.9031522571      1.3011212972     -0.3536160100
H       1.1023850568      2.7160684209     -1.4250488570
H       3.3718971069     -0.4658022557     -3.0739018060
H       4.0678665884     -3.4878668947      3.4366668698
H      -2.4302115810     -0.3678458356      3.9859985360
12
Frame=295  time=148.000fs  energy=-306.19358012Ha  molecule=COOCCCHHHHHH
C      -0.6040256277      0.2825805808      0.2700919732
O       0.6939430571     -0.2993885502      0.1907384941
O       1.3585273500      0.3073291584      0.0341162266
C      -0.2042792377      1.2864700421     -1.4386388795
C       0.1083107427      3.2765737346     -0.0442673657
C       0.0464083541     -1.1936369920      0.8437212726
H      -0.6021568001      2.6094324889     -2.2588153261
H      -0.9107780641      1.2950049083     -0.3574984150
H       1.1098258119      2.7126390577     -1.4296790475
H       3.3853467976     -0.4602734069     -3.0835520064
H       4.0881357365     -3.4961203365      3.4444655692
H      -2.4325087466     -0.3642968013      4.0026719616
12
Frame=296  time=148.500fs  energy=-306.19358012Ha  molecule=COOCCCHHHHHH
C      -0.6062508549      0.2835196824      0.2711104741
O       0.6919587155     -0.3000693136      0.1912843137
O       1.3559851302      0.3051508008      0.0342806838
C      -0.2025026394      1.2862460891     -1.4431331936
C       0.1091713071      3.2796691514     -0.0443067347
C       0.0490561044     -1.1932678146      0.8463080133
H      -0.5979960366      2.6137269397     -2.2653336136
H      -0.9184019650      1.2888900482     -0.3613798497
H       1.1172647072      2.7092105517     -1.4343080808
H       3.3987931267     -0.4547459399     -3.0931997948
H       4.1083998186     -3.5043717154      3.4522623194
H      -2.4348053382     -0.3607486539      4.0193412199
12
Frame=297  time=149.000fs  energy=-306.19358012Ha  molecule=COOCCCHHHHHH
C      -0.6084755271      0.2844585497      0.2721287210
O       0.6899748688     -0.3007499073      0.1918299971
O       1.3534435445      0.3029729866      0.0344451000
C      -0.2007264843      1.2860221919     -1.4476263867
C       0.1100316569      3.2827637960     -0.0443460940
C       0.0517031943     -1.1928987294      0.8488941088
H      -0.5938363110      2.6180203194     -2.2718502753
H      -0.9260239643      1.2827767133     -0.3652603162
H       1.1247017470      2.7057829008     -1.4389359595
H       3.4122361018     -0.4492198516     -3.1028451767
H       4.1286588461     -3.5126210361      3.4600571249
H      -2.4371013568     -0.3572013917      4.0360063203
12
Frame=298  time=149.500fs  energy=-306.19358012Ha  molecule=COOCCCHHHHHH
C      -0.6106996454      0.2853971834      0.2731467144
O       0.6879915160     -0.3014303315      0.1923755447
O       1.3509025915      0.3007957145      0.0346094752
C      -0.1989507713      1.2857983506     -1.4521184613
C       0.1108917925      3.2858576702     -0.0443854435
C       0.0543496252     -1.1925297360      0.8514795605
H      -0.5896776208      2.6223126303     -2.2783653147
H      -0.9336440662      1.2766649002     -0.3691398167
H       1.1321369355      2.7023561033     -1.4435626861
H       3.4256757304     -0.4436951390     -3.1124881575
H       4.1489128304     -3.5208683032      3.4678499899
H      -2.4393968039     -0.3536550124      4.0526672722
12
Frame=299  time=150.000fs  energy=-306.19358012Ha  molecule=COOCCCHHHHHH
C      -0.6129232112      0.2863355838      0.2741644548
O       0.6860086559     -0.3021105867      0.1929209568
O       1.3483622698      0.2986189833      0.0347738097
C      -0.1971754995      1.2855745648     -1.4566094198
C       0.1117517143      3.2889507758     -0.0444247832
C       0.0569953986     -1.1921608343      0.8540643699
H      -0.5855199638      2.6266038748     -2.2848787355
H      -0.9412622750      1.2705546056     -0.3730183535
H       1.1395702768      2.6989301570     -1.4481882633
H       3.4391120202     -0.4381717990     -3.1221287426
H       4.1691617829     -3.5291135214      3.4756409189
H      -2.4416916808     -0.3501095142      4.0693240849
12
Frame=300  time=150.500fs  energy=-306.19358012Ha  molecule=COOCCCHHHHHH
C      -0.6151462257      0.2872737516      0.2751819430
O       0.6840262874     -0.3027906732      0.1934662336
O       1.3458225779      0.2964427918      0.0349381033
C      -0.1954006679      1.2853508345     -1.4610992649
C       0.1126114230      3.2920431145     -0.0444641131
C       0.0596405160     -1.1917920240      0.8566485384
H      -0.5813633377      2.6308940553     -2.2913905414
H      -0.9488785949      1.2644458259     -0.3768959285
H       1.1470017751      2.6955050602     -1.4528126936
H       3.4525449786     -0.4326498284     -3.1317669375
H       4.1894057148     -3.5373566953      3.4834299162
H      -2.4439859886     -0.3465648951      4.0859767676
12
Frame=301  time=151.000fs  energy=-306.19358012Ha  molecule=COOCCCHHHHHH
C      -0.6173686901      0.2882116873      0.2761991794
O       0.6820444095     -0.3034705914      0.1940113755
O       1.3432835144      0.2942671388      0.0351023564
C      -0.1936262754      1.2851271596     -1.4655879989
C       0.1134709190      3.2951346880     -0.0445034333
C       0.0622849790     -1.1914233050      0.8592320675
H      -0.5772077401      2.6351831743     -2.2979007360
H      -0.9564930302      1.2583385578     -0.3807725441
H       1.1544314345      2.6920808110     -1.4574359796
H       3.4659746131     -0.4271292242     -3.1414027474
H       4.2096446376     -3.5455978295      3.4912169862
H      -2.4462797287     -0.3430211531      4.1026253298
12
Frame=302  time=151.500fs  energy=-306.19358012Ha  molecule=COOCCCHHHHHH
C      -0.6195906056      0.2891493913      0.2772161645
O       0.6800630210     -0.3041503418      0.1945563828
O       1.3407450780      0.2920920231      0.0352665688
C      -0.1918523211      1.2849035399     -1.4700756246
C       0.1143302027      3.2982254981     -0.0445427438
C       0.0649287888     -1.1910546771      0.8618149586
H      -0.5730531687      2.6394712340     -2.3044093230
H      -0.9641055851      1.2522327978     -0.3846482024
H       1.1618592592      2.6886574073     -1.4620581239
H       3.4794009311     -0.4216099832     -3.1510361779
H       4.2298785624     -3.5538369286      3.4990021332
H      -2.4485729024     -0.3394782862      4.1192697807
12
Frame=303  time=152.000fs  energy=-306.19358012Ha  molecule=COOCCCHHHHHH
C      -0.6218119736      0.2900868642      0.2782328990
O       0.6780821208     -0.3048299246      0.1951012558
O       1.3382072671      0.2899174434      0.0354307408
C      -0.1900788040      1.2846799753     -1.4745621442
C       0.1151892746      3.3013155465     -0.0445820446
C       0.0675719471     -1.1906861400      0.8643972131
H      -0.5688996212      2.6437582370     -2.3109163059
H      -0.9717162640      1.2461285427     -0.3885229055
H       1.1692852533      2.6852348473     -1.4666791291
H       3.4928239403     -0.4160921025     -3.1606672341
H       4.2501075006     -3.5620739972      3.5067853615
H      -2.4508655110     -0.3359362924      4.1359101295
12
Frame=304  time=152.500fs  energy=-306.19358012Ha  molecule=COOCCCHHHHHH
C      -0.6240327953      0.2910241066      0.2792493835
O       0.6761017078     -0.3055093402      0.1956459948
O       1.3356700804      0.2877433986      0.0355948724
C      -0.1883057230      1.2844564657     -1.4790475603
C       0.1160481353      3.3044048348     -0.0446213357
C       0.0702144554     -1.1903176936      0.8669788326
H      -0.5647470953      2.6480441856     -2.3174216883
H      -0.9793250709      1.2400257889     -0.3923966557
H       1.1767094209      2.6818131291     -1.4712989977
H       3.5062436480     -0.4105755789     -3.1702959216
H       4.2703314633     -3.5703090398      3.5145666756
H      -2.4531575556     -0.3323951698      4.1525463856
12
Frame=305  time=153.000fs  energy=-306.19358012Ha  molecule=COOCCCHHHHHH
C      -0.6262530718      0.2919611189      0.2802656185
O       0.6741217809     -0.3061885891      0.1961906000
O       1.3331335166      0.2855698874      0.0357589638
C      -0.1865330774      1.2842330109     -1.4835318755
C       0.1169067851      3.3074933648     -0.0446606172
C       0.0728563149     -1.1899493376      0.8695598183
H      -0.5605955886      2.6523290822     -2.3239254740
H      -0.9869320102      1.2339245331     -0.3962694549
H       1.1841317662      2.6783922508     -1.4759177323
H       3.5196600617     -0.4050604095     -3.1799222456
H       4.2905504618     -3.5785420610      3.5223460796
H      -2.4554490377     -0.3288549164      4.1691785581
12
Frame=306  time=153.500fs  energy=-306.19358012Ha  molecule=COOCCCHHHHHH
C      -0.6284728044      0.2928979016      0.2812816045
O       0.6721423390     -0.3068676716      0.1967350719
O       1.3305975741      0.2833969087      0.0359230149
C      -0.1847608659      1.2840096110     -1.4880150921
C       0.1177652246      3.3105811383     -0.0446998891
C       0.0754975273     -1.1895810718      0.8721401718
H      -0.5564450990      2.6566129290     -2.3304276664
H      -0.9945370861      1.2278247719     -0.4001413055
H       1.1915522932      2.6749722106     -1.4805353355
H       3.5330731888     -0.3995465910     -3.1895462114
H       4.3107645074     -3.5867730654      3.5301235779
H      -2.4577399584     -0.3253155303      4.1858066563
12
Frame=307  time=154.000fs  energy=-306.19358012Ha  molecule=COOCCCHHHHHH
C      -0.6306919943      0.2938344554      0.2822973421
O       0.6701633811     -0.3075465881      0.1972794106
O       1.3280622515      0.2812244612      0.0360870259
C      -0.1829890877      1.2837862656     -1.4924972127
C       0.1186234542      3.3136681568     -0.0447391513
C       0.0781380940     -1.1892128961      0.8747198944
H      -0.5522956240      2.6608957286     -2.3369282692
H      -1.0021403027      1.2217265019     -0.4040122095
H       1.1989710061      2.6715530064     -1.4851518098
H       3.5464830368     -0.3940341206     -3.1991678245
H       4.3309736111     -3.5950020575      3.5378991748
H      -2.4600303190     -0.3217770094      4.2024306894
12
Frame=308  time=154.500fs  energy=-306.19358012Ha  molecule=COOCCCHHHHHH
C      -0.6329106428      0.2947707806      0.2833128319
O       0.6681849060     -0.3082253389      0.1978236165
O       1.3255275476      0.2790525437      0.0362509969
C      -0.1812177418      1.2835629747     -1.4969782398
C       0.1194814745      3.3167544222     -0.0447784040
C       0.0807780165     -1.1888448101      0.8772989877
H      -0.5481471615      2.6651774833     -2.3434272860
H      -1.0097416642      1.2156297198     -0.4078821690
H       1.2063879090      2.6681346365     -1.4897671578
H       3.5598896129     -0.3885229951     -3.2087870900
H       4.3511777842     -3.6032290418      3.5456728746
H      -2.4623201209     -0.3182393519      4.2190506664
12
Frame=309  time=155.000fs  energy=-306.19358012Ha  molecule=COOCCCHHHHHH
C      -0.6351287511      0.2957068778      0.2843280744
O       0.6662069126     -0.3089039245      0.1983676899
O       1.3229934608      0.2768811551      0.0364149280
C      -0.1794468272      1.2833397382     -1.5014581757
C       0.1203392858      3.3198399361     -0.0448176472
C       0.0834172961     -1.1884768139      0.8798774529
H      -0.5439997090      2.6694581954     -2.3499247203
H      -1.0173411748      1.2095344222     -0.4117511863
H       1.2138030059      2.6647170989     -1.4943813819
H       3.5732929247     -0.3830132115     -3.2184040133
H       4.3713770376     -3.6114540230      3.5534446815
H      -2.4646093652     -0.3147025558      4.2356665966
12
Frame=310  time=155.500fs  energy=-306.19358012Ha  molecule=COOCCCHHHHHH
C      -0.6373463203      0.2966427476      0.2853430703
O       0.6642293999     -0.3095823452      0.1989116311
O       1.3204599898      0.2747102942      0.0365788193
C      -0.1776763430      1.2831165559     -1.5059370231
C       0.1211968886      3.3229247002     -0.0448568808
C       0.0860559344     -1.1881089070      0.8824552916
H      -0.5398532644      2.6737378673     -2.3564205758
H      -1.0249388388      1.2034406058     -0.4156192634
H       1.2212163010      2.6613003917     -1.4989944848
H       3.5866929794     -0.3775047668     -3.2280185997
H       4.3915713827     -3.6196770055      3.5612145999
H      -2.4668980532     -0.3111666191      4.2522784891
12
Frame=311  time=156.000fs  energy=-306.19358012Ha  molecule=COOCCCHHHHHH
C      -0.6395633518      0.2975783904      0.2863578199
O       0.6622523668     -0.3102606013      0.1994554404
O       1.3179271332      0.2725399597      0.0367426708
C      -0.1759062881      1.2828934278     -1.5104147842
C       0.1220542835      3.3260087162     -0.0448961048
C       0.0886939328     -1.1877410894      0.8850325051
H      -0.5357078254      2.6780165013     -2.3629148559
H      -1.0325346603      1.1973482673     -0.4194864024
H       1.2286277982      2.6578845132     -1.5036064690
H       3.6000897845     -0.3719976580     -3.2376308544
H       4.4117608304     -3.6278979939      3.5689826340
H      -2.4691861861     -0.3076315400      4.2688863531
12
Frame=312  time=156.500fs  energy=-306.19358012Ha  molecule=COOCCCHHHHHH
C      -0.6417798467      0.2985138068      0.2873723240
O       0.6602758121     -0.3109386933      0.1999991181
O       1.3153948896      0.2703701504      0.0369064826
C      -0.1741366616      1.2826703536     -1.5148914617
C       0.1229114709      3.3290919859     -0.0449353194
C       0.0913312928     -1.1873733607      0.8876090949
H      -0.5315633896      2.6822940997     -2.3694075642
H      -1.0401286433      1.1912574032     -0.4233526055
H       1.2360375017      2.6544694614     -1.5082173369
H       3.6134833473     -0.3664918820     -3.2472407828
H       4.4319453918     -3.6361169925      3.5767487881
H      -2.4714737653     -0.3040973164      4.2854901976
12
Frame=313  time=157.000fs  energy=-306.19358012Ha  molecule=COOCCCHHHHHH
C      -0.6439958063      0.2994489972      0.2883865831
O       0.6582997349     -0.3116166215      0.2005426644
O       1.3128632576      0.2682008653      0.0370702549
C      -0.1723674625      1.2824473333     -1.5193670578
C       0.1237684512      3.3321745108     -0.0449745245
C       0.0939680157     -1.1870057210      0.8901850623
H      -0.5274199549      2.6865706650     -2.3758987044
H      -1.0477207922      1.1851680102     -0.4272178747
H       1.2434454155      2.6510552344     -1.5128270912
H       3.6268736750     -0.3609874358     -3.2568483900
H       4.4521250779     -3.6443340060      3.5845130663
H      -2.4737607920     -0.3005639464      4.3020900316
12
Frame=314  time=157.500fs  energy=-306.19358012Ha  molecule=COOCCCHHHHHH
C      -0.6462112317      0.3003839622      0.2894005977
O       0.6563241340     -0.3122943863      0.2010860798
O       1.3103322359      0.2660321030      0.0372339877
C      -0.1705986899      1.2822243668     -1.5238415752
C       0.1246252250      3.3352562926     -0.0450137202
C       0.0966041031     -1.1866381698      0.8927604089
H      -0.5232775189      2.6908461995     -2.3823882798
H      -1.0553111110      1.1790800851     -0.4310822123
H       1.2508515436      2.6476418304     -1.5174357343
H       3.6402607751     -0.3554843165     -3.2664536813
H       4.4722998998     -3.6525490388      3.5922754731
H      -2.4760472673     -0.2970314281      4.3186858644
12
Frame=315  time=158.000fs  energy=-306.19358012Ha  molecule=COOCCCHHHHHH
C      -0.6484261241      0.3013187023      0.2904143683
O       0.6543490083     -0.3129719881      0.2016293644
O       1.3078018231      0.2638638625      0.0373976811
C      -0.1688303427      1.2820014540     -1.5283150161
C       0.1254817926      3.3383373331     -0.0450529064
C       0.0992395563     -1.1862707070      0.8953351358
H      -0.5191360795      2.6951207054     -2.3888762942
H      -1.0628996039      1.1729936245     -0.4349456202
H       1.2582558901      2.6442292476     -1.5220432688
H       3.6536446547     -0.3499825210     -3.2760566620
H       4.4924698684     -3.6607620954      3.6000360125
H      -2.4783331927     -0.2934997597      4.3352777048
12
Frame=316  time=158.500fs  energy=-306.19358012Ha  molecule=COOCCCHHHHHH
C      -0.6506404848      0.3022532180      0.2914278956
O       0.6523743568     -0.3136494271      0.2021725186
O       1.3052720177      0.2616961425      0.0375613353
C      -0.1670624202      1.2817785946     -1.5327873831
C       0.1263381546      3.3414176340     -0.0450920833
C       0.1018743768     -1.1859033325      0.8979092447
H      -0.5149956343      2.6993941851     -2.3953627509
H      -1.0704862750      1.1669086251     -0.4388081007
H       1.2656584591      2.6408174840     -1.5266496971
H       3.6670253212     -0.3444820463     -3.2856573373
H       4.5126349947     -3.6689731803      3.6077946887
H      -2.4806185692     -0.2899689390      4.3518655620
12
Frame=317  time=159.000fs  energy=-306.19358012Ha  molecule=COOCCCHHHHHH
C      -0.6528543150      0.3031875098      0.2924411800
O       0.6504001784     -0.3143267039      0.2027155426
O       1.3027428184      0.2595289418      0.0377249502
C      -0.1652949211      1.2815557887     -1.5372586785
C       0.1271943115      3.3444971968     -0.0451312507
C       0.1045085660     -1.1855360459      0.9004827368
H      -0.5108561811      2.7036666409     -2.4018476535
H      -1.0780711284      1.1608250836     -0.4426696557
H       1.2730592544      2.6374065379     -1.5312550217
H       3.6804027819     -0.3389828895     -3.2952557124
H       4.5327952897     -3.6771822978      3.6155515061
H      -2.4829033982     -0.2864389644      4.3684494449
12
Frame=318  time=159.500fs  energy=-306.19358012Ha  molecule=COOCCCHHHHHH
C      -0.6550676159      0.3041215782      0.2934542221
O       0.6484264721     -0.3150038187      0.2032584368
O       1.3002142239      0.2573622594      0.0378885259
C      -0.1635278447      1.2813330360     -1.5417289049
C       0.1280502636      3.3475760233     -0.0451704088
C       0.1071421254     -1.1851688472      0.9030556136
H      -0.5067177176      2.7079380752     -2.4083310056
H      -1.0856541683      1.1547429967     -0.4465302874
H       1.2804582802      2.6339964073     -1.5358592452
H       3.6937770439     -0.3334850476     -3.3048517924
H       4.5529507642     -3.6853894526      3.6233064688
H      -2.4851876809     -0.2829098337      4.3850293625
12
Frame=319  time=160.000fs  energy=-306.19358012Ha  molecule=COOCCCHHHHHH
C      -0.6572803886      0.3050554237      0.2944670225
O       0.6464532367     -0.3156807720      0.2038012015
O       1.2976862328      0.2551960940      0.0380520627
C      -0.1617611900      1.2811103364     -1.5461980645
C       0.1289060115      3.3506541151     -0.0452095575
C       0.1097750564     -1.1848017361      0.9056278765
H      -0.5025802417      2.7122084902     -2.4148128106
H      -1.0932353986      1.1486623611     -0.4503899979
H       1.2878555404      2.6305870904     -1.5404623701
H       3.7071481146     -0.3279885176     -3.3144455826
H       4.5731014293     -3.6935946489      3.6310595810
H      -2.4874714185     -0.2793815452      4.4016053238
12
Frame=320  time=160.500fs  energy=-306.19358012Ha  molecule=COOCCCHHHHHH
C      -0.6594926343      0.3059890468      0.2954795818
O       0.6444804712     -0.3163575640      0.2043438369
O       1.2951588436      0.2530304444      0.0382155605
C      -0.1599949560      1.2808876899     -1.5506661599
C       0.1297615556      3.3537314740     -0.0452486969
C       0.1124073604     -1.1844347125      0.9081995268
H      -0.4984437511      2.7164778883     -2.4212930721
H      -1.1008148236      1.1425831735     -0.4542487893
H       1.2952510391      2.6271785855     -1.5450643987
H       3.7205160011     -0.3224932965     -3.3240370882
H       4.5932472957     -3.7017978913      3.6388108469
H      -2.4897546123     -0.2758540969      4.4181773377
12
Frame=321  time=161.000fs  energy=-306.19358012Ha  molecule=COOCCCHHHHHH
C      -0.6617043543      0.3069224481      0.2964919004
O       0.6425081746     -0.3170341952      0.2048863434
O       1.2926320552      0.2508653095      0.0383790195
C      -0.1582291417      1.2806650964     -1.5551331934
C       0.1306168963      3.3568081014     -0.0452878270
C       0.1150390387     -1.1840677761      0.9107705660
H      -0.4943082435      2.7207462717     -2.4277717935
H      -1.1083924473      1.1365054307     -0.4581066636
H       1.3026447801      2.6237708906     -1.5496653337
H       3.7338807107     -0.3169993814     -3.3336263143
H       4.6133883743     -3.7099991841      3.6465602707
H      -2.4920372634     -0.2723274870      4.4347454132
12
Frame=322  time=161.500fs  energy=-306.19358012Ha  molecule=COOCCCHHHHHH
C      -0.6639155498      0.3078556279      0.2975039789
O       0.6405363457     -0.3177106660      0.2054287212
O       1.2901058660      0.2487006881      0.0385424397
C      -0.1564637462      1.2804425556     -1.5595991675
C       0.1314720342      3.3598839992     -0.0453269479
C       0.1176700930     -1.1837009266      0.9133409953
H      -0.4901737168      2.7250136428     -2.4342489783
H      -1.1159682738      1.1304291294     -0.4619636229
H       1.3100367676      2.6203640039     -1.5542651774
H       3.7472422505     -0.3115067692     -3.3432132660
H       4.6335246760     -3.7181985318      3.6543078565
H      -2.4943193732     -0.2688017134      4.4513095592
12
Frame=323  time=162.000fs  energy=-306.19358012Ha  molecule=COOCCCHHHHHH
C      -0.6661262218      0.3087885869      0.2985158178
O       0.6385649836     -0.3183869766      0.2059709706
O       1.2875802747      0.2465365790      0.0387058212
C      -0.1546987686      1.2802200674     -1.5640640845
C       0.1323269697      3.3629591689     -0.0453660594
C       0.1203005244     -1.1833341641      0.9159108163
H      -0.4860401687      2.7292800038     -2.4407246299
H      -1.1235423071      1.1243542663     -0.4658196692
H       1.3174270055      2.6169579236     -1.5588639324
H       3.7606006277     -0.3060154572     -3.3527979486
H       4.6536562116     -3.7263959387      3.6620536085
H      -2.4966009428     -0.2652767744      4.4678697846
12
Frame=324  time=162.500fs  energy=-306.19358012Ha  molecule=COOCCCHHHHHH
C      -0.6683363717      0.3097213255      0.2995274177
O       0.6365940871     -0.3190631274      0.2065130919
O       1.2850552800      0.2443729812      0.0388691641
C      -0.1529342079      1.2799976319     -1.5685279468
C       0.1331817033      3.3660336122     -0.0454051618
C       0.1229303346     -1.1829674881      0.9184800302
H      -0.4819075969      2.7335453570     -2.4471987520
H      -1.1311145513      1.1182808381     -0.4696748048
H       1.3248154976      2.6135526478     -1.5634616011
H       3.7739558495     -0.3005254423     -3.3623803672
H       4.6737829918     -3.7345914094      3.6697975308
H      -2.4988819735     -0.2617526680      4.4844260982
12
Frame=325  time=163.000fs  energy=-306.19358012Ha  molecule=COOCCCHHHHHH
C      -0.6705460006      0.3106538443      0.3005387792
O       0.6346236552     -0.3197391189      0.2070550854
O       1.2825308806      0.2422098934      0.0390324685
C      -0.1511700632      1.2797752488     -1.5729907568
C       0.1340362354      3.3691073308     -0.0454442549
C       0.1255595248     -1.1826008986      0.9210486385
H      -0.4777759994      2.7378097048     -2.4536713479
H      -1.1386850105      1.1122088417     -0.4735290315
H       1.3322022481      2.6101481748     -1.5680581860
H       3.7873079229     -0.2950367215     -3.3719605269
H       4.6939050275     -3.7427849480      3.6775396277
H      -2.5011624664     -0.2582293924      4.5009785089
12
Frame=326  time=163.500fs  energy=-306.19358012Ha  molecule=COOCCCHHHHHH
C      -0.6727551096      0.3115861436      0.3015499027
O       0.6326536869     -0.3204149513      0.2075969514
O       1.2800070750      0.2400473144      0.0391957345
C      -0.1494063335      1.2795529179     -1.5774525169
C       0.1348905664      3.3721803263     -0.0454833388
C       0.1281880964     -1.1822343954      0.9236166425
H      -0.4736453739      2.7420730493     -2.4601424210
H      -1.1462536887      1.1061382738     -0.4773823515
H       1.3395872607      2.6067445027     -1.5726536895
H       3.8006568553     -0.2895492920     -3.3815384328
H       4.7140223293     -3.7509765591      3.6852799032
H      -2.5034424229     -0.2547069456      4.5175270256
12
Frame=327  time=164.000fs  energy=-306.19358012Ha  molecule=COOCCCHHHHHH
C      -0.6749637000      0.3125182241      0.3025607889
O       0.6306841811     -0.3210906251      0.2081386902
O       1.2774838619      0.2378852432      0.0393589621
C      -0.1476430179      1.2793306393     -1.5819132295
C       0.1357446968      3.3752526003     -0.0455224135
C       0.1308160509     -1.1818679781      0.9261840435
H      -0.4695157181      2.7463353929     -2.4666119749
H      -1.1538205900      1.1000691310     -0.4812347669
H       1.3469705395      2.6033416297     -1.5772481140
H       3.8140026536     -0.2840631509     -3.3911140900
H       4.7341349080     -3.7591662470      3.6930183614
H      -2.5057218440     -0.2511853258      4.5340716571
12
Frame=328  time=164.500fs  energy=-306.19358012Ha  molecule=COOCCCHHHHHH
C      -0.6771717729      0.3134500861      0.3035714382
O       0.6287151367     -0.3217661405      0.2086803021
O       1.2749612401      0.2357236786      0.0395221515
C      -0.1458801154      1.2791084128     -1.5863728970
C       0.1365986272      3.3783241544     -0.0455614791
C       0.1334433897     -1.1815016468      0.9287508431
H      -0.4653870299      2.7505967379     -2.4730800130
H      -1.1613857183      1.0940014103     -0.4850862796
H       1.3543520885      2.5999395541     -1.5818414621
H       3.8273453250     -0.2785782951     -3.4006875036
H       4.7542427744     -3.7673540160      3.7007550065
H      -2.5080007311     -0.2476645312      4.5506124121
12
Frame=329  time=165.000fs  energy=-306.19358012Ha  molecule=COOCCCHHHHHH
C      -0.6793793295      0.3143817303      0.3045818511
O       0.6267465527     -0.3224414980      0.2092217873
O       1.2724392081      0.2335626194      0.0396853028
C      -0.1441176251      1.2788862382     -1.5908315217
C       0.1374523578      3.3813949904     -0.0456005356
C       0.1360701142     -1.1811354011      0.9313170424
H      -0.4612593071      2.7548570864     -2.4795465387
H      -1.1689490777      1.0879351084     -0.4889368917
H       1.3617319114      2.5965382739     -1.5864337362
H       3.8406848765     -0.2730947219     -3.4102586787
H       4.7743459390     -3.7755398706      3.7084898425
H      -2.5102790854     -0.2441445598      4.5671492995
12
Frame=330  time=165.500fs  energy=-306.19358012Ha  molecule=COOCCCHHHHHH
C      -0.6815863710      0.3153131571      0.3055920283
O       0.6247784282     -0.3231166979      0.2097631462
O       1.2699177646      0.2314020645      0.0398484160
C      -0.1423555462      1.2786641155     -1.5952891059
C       0.1383058893      3.3844651097     -0.0456395829
C       0.1386962257     -1.1807692408      0.9338826430
H      -0.4571325475      2.7591164408     -2.4860115554
H      -1.1765106722      1.0818702220     -0.4927866053
H       1.3691100123      2.5931377874     -1.5910249386
H       3.8540213153     -0.2676124282     -3.4198276204
H       4.7944444125     -3.7837238149      3.7162228737
H      -2.5125569080     -0.2406254098      4.5836823280
12
Frame=331  time=166.000fs  energy=-306.19358012Ha  molecule=COOCCCHHHHHH
C      -0.6837928985      0.3162443670      0.3066019703
O       0.6228107619     -0.3237917406      0.2103043790
O       1.2673969083      0.2292420127      0.0400114912
C      -0.1405938775      1.2784420445     -1.5997456521
C       0.1391592219      3.3875345142     -0.0456786211
C       0.1413217257     -1.1804031659      0.9364476461
H      -0.4530067489      2.7633748033     -2.4924750666
H      -1.1840705058      1.0758067480     -0.4966354224
H       1.3764863949      2.5897380927     -1.5956150719
H       3.8673546483     -0.2621314112     -3.4293943337
H       4.8145382057     -3.7919058534      3.7239541040
H      -2.5148342001     -0.2371070793      4.6002115064
12
Frame=332  time=166.500fs  energy=-306.19358012Ha  molecule=COOCCCHHHHHH
C      -0.6859989133      0.3171753605      0.3076116775
O       0.6208435529     -0.3244666264      0.2108454860
O       1.2648766378      0.2270824629      0.0401745285
C      -0.1388326183      1.2782200251     -1.6042011626
C       0.1400123563      3.3906032053     -0.0457176503
C       0.1439466155     -1.1800371760      0.9390120530
H      -0.4488819092      2.7676321761     -2.4989370757
H      -1.1916285825      1.0697446832     -0.5004833451
H       1.3838610633      2.5863391882     -1.6002041385
H       3.8806848827     -0.2566516680     -3.4389588238
H       4.8346273290     -3.8000859905      3.7316835376
H      -2.5171109630     -0.2335895664      4.6167368434
12
Frame=333  time=167.000fs  energy=-306.19358012Ha  molecule=COOCCCHHHHHH
C      -0.6882044164      0.3181061380      0.3086211506
O       0.6188768002     -0.3251413557      0.2113864675
O       1.2623569519      0.2249234140      0.0403375280
C      -0.1370717675      1.2779980572     -1.6086556397
C       0.1408652928      3.3936711846     -0.0457566704
C       0.1465708965     -1.1796712709      0.9415758652
H      -0.4447580261      2.7718885615     -2.5053975861
H      -1.1991849062      1.0636840243     -0.5043303753
H       1.3912340214      2.5829410720     -1.6047921407
H       3.8940120254     -0.2511731957     -3.4485210955
H       4.8547117931     -3.8082642303      3.7394111786
H      -2.5193871978     -0.2300728694      4.6332583478
12
Frame=334  time=167.500fs  energy=-306.19358012Ha  molecule=COOCCCHHHHHH
C      -0.6904094090      0.3190367001      0.3096303900
O       0.6169105027     -0.3258159288      0.2119273238
O       1.2598378492      0.2227648647      0.0405004897
C      -0.1353113243      1.2777761407     -1.6131090859
C       0.1417180319      3.3967384539     -0.0457956815
C       0.1491945701     -1.1793054506      0.9441390840
H      -0.4406350975      2.7761439618     -2.5118566011
H      -1.2067394811      1.0576247682     -0.5081765150
H       1.3986052729      2.5795437423     -1.6093790809
H       3.9073360835     -0.2456959914     -3.4580811541
H       4.8747916086     -3.8164405772      3.7471370309
H      -2.5216629058     -0.2265569863      4.6497760281
12
Frame=335  time=168.000fs  energy=-306.19358012Ha  molecule=COOCCCHHHHHH
C      -0.6926138923      0.3199670473      0.3106393963
O       0.6149446594     -0.3264903460      0.2124680552
O       1.2573193283      0.2206068141      0.0406634139
C      -0.1335512878      1.2775542754     -1.6175615033
C       0.1425705740      3.3998050147     -0.0458346836
C       0.1518176377     -1.1789397148      0.9467017108
H      -0.4365131213      2.7803983792     -2.5183141242
H      -1.2142923109      1.0515669116     -0.5120217664
H       1.4059748218      2.5761471973     -1.6139649617
H       3.9206570640     -0.2402200523     -3.4676390044
H       4.8948667860     -3.8246150356      3.7548610987
H      -2.5239380882     -0.2230419153      4.6662898932
12
Frame=336  time=168.500fs  energy=-306.19358012Ha  molecule=COOCCCHHHHHH
C      -0.6948178674      0.3208971800      0.3116481700
O       0.6129792692     -0.3271646078      0.2130086619
O       1.2548013880      0.2184492610      0.0408263004
C      -0.1317916569      1.2773324613     -1.6220128945
C       0.1434229195      3.4028708686     -0.0458736767
C       0.1544401006     -1.1785740633      0.9492637468
H      -0.4323920952      2.7846518158     -2.5247701588
H      -1.2218433997      1.0455104515     -0.5158661314
H       1.4133426719      2.5727514352     -1.6185497854
H       3.9339749738     -0.2347453754     -3.4771946515
H       4.9149373358     -3.8327876096      3.7625833860
H      -2.5262127461     -0.2195276546      4.6827999516
12
Frame=337  time=169.000fs  energy=-306.19358012Ha  molecule=COOCCCHHHHHH
C      -0.6970213355      0.3218270987      0.3126567117
O       0.6110143312     -0.3278387146      0.2135491443
O       1.2522840269      0.2162922041      0.0409891495
C      -0.1300324309      1.2771106982     -1.6264632616
C       0.1442750691      3.4059360173     -0.0459126608
C       0.1570619603     -1.1782084959      0.9518251935
H      -0.4282720171      2.7889042740     -2.5312247083
H      -1.2293927515      1.0394553846     -0.5197096121
H       1.4207088271      2.5693564543     -1.6231335544
H       3.9472898200     -0.2292719579     -3.4867481004
H       4.9350032686     -3.8409583036      3.7703038968
H      -2.5284868807     -0.2160142024      4.6993062121
12
Frame=338  time=169.500fs  energy=-306.19358012Ha  molecule=COOCCCHHHHHH
C      -0.6992242978      0.3227568040      0.3136650218
O       0.6090498442     -0.3285126665      0.2140895026
O       1.2497672437      0.2141356425      0.0411519612
C      -0.1282736087      1.2768889860     -1.6309126070
C       0.1451270229      3.4090004622     -0.0459516359
C       0.1596832180     -1.1778430124      0.9543860521
H      -0.4241528848      2.7931557559     -2.5376777759
H      -1.2369403701      1.0334017078     -0.5235522104
H       1.4280732912      2.5659622528     -1.6277162711
H       3.9606016094     -0.2237997970     -3.4962993561
H       4.9550645948     -3.8491271218      3.7780226353
H      -2.5307604933     -0.2125015567      4.7158086831
12
Frame=339  time=170.000fs  energy=-306.19358012Ha  molecule=COOCCCHHHHHH
C      -0.7014267554      0.3236862963      0.3146731009
O       0.6070858073     -0.3291864641      0.2146297371
O       1.2472510371      0.2119795749      0.0413147356
C      -0.1265151894      1.2766673246     -1.6353609331
C       0.1459787816      3.4120642051     -0.0459906022
C       0.1623038752     -1.1774776126      0.9569463240
H      -0.4200346963      2.7974062639     -2.5441293651
H      -1.2444862596      1.0273494179     -0.5273939283
H       1.4354360682      2.5625688290     -1.6322979378
H       3.9739103491     -0.2183288898     -3.5058484236
H       4.9751213248     -3.8572940686      3.7857396053
H      -2.5330335850     -0.2089897157      4.7323073734
12
Frame=340  time=170.500fs  energy=-306.19358012Ha  molecule=COOCCCHHHHHH
C      -0.7036287094      0.3246155760      0.3156809495
O       0.6051222195     -0.3298601076      0.2151698481
O       1.2447354058      0.2098240003      0.0414774728
C      -0.1247571722      1.2764457139     -1.6398082421
C       0.1468303456      3.4151272475     -0.0460295595
C       0.1649239333     -1.1771122964      0.9595060106
H      -0.4159174493      2.8016558000     -2.5505794793
H      -1.2520304238      1.0212985117     -0.5312347679
H       1.4427971617      2.5591761809     -1.6368785571
H       3.9872160459     -0.2128592334     -3.5153953079
H       4.9951734692     -3.8654591480      3.7934548110
H      -2.5353061569     -0.2054786777      4.7488022915
12
Frame=341  time=171.000fs  energy=-306.19358012Ha  molecule=COOCCCHHHHHH
C      -0.7058301610      0.3255446437      0.3166885682
O       0.6031590797     -0.3305335974      0.2157098358
O       1.2422203485      0.2076689175      0.0416401729
C      -0.1229995561      1.2762241538     -1.6442545365
C       0.1476817153      3.4181895911     -0.0460685079
C       0.1675433935     -1.1767470636      0.9620651131
H      -0.4118011418      2.8059043665     -2.5570281218
H      -1.2595728667      1.0152489862     -0.5350747312
H       1.4501565757      2.5557843070     -1.6414581312
H       4.0005187068     -0.2073908250     -3.5249400138
H       5.0152210384     -3.8736223645      3.8011682563
H      -2.5375782103     -0.2019684409      4.7652934460
12
Frame=342  time=171.500fs  energy=-306.19358012Ha  molecule=COOCCCHHHHHH
C      -0.7080311113      0.3264734999      0.3176959574
O       0.6011963869     -0.3312069338      0.2162497006
O       1.2397058639      0.2055143254      0.0418028359
C      -0.1212423403      1.2760026441     -1.6486998183
C       0.1485328911      3.4212512373     -0.0461074475
C       0.1701622573     -1.1763819139      0.9646236329
H      -0.4076857715      2.8101519655     -2.5634752958
H      -1.2671135921      1.0092008382     -0.5389138200
H       1.4575143139      2.5523932054     -1.6460366625
H       4.0138183386     -0.2019236618     -3.5344825464
H       5.0352640427     -3.8817837222      3.8088799453
H      -2.5398497464     -0.1984590032      4.7817808454
12
Frame=343  time=172.000fs  energy=-306.19358012Ha  molecule=COOCCCHHHHHH
C      -0.7102315615      0.3274021450      0.3187031178
O       0.5992341401     -0.3318801172      0.2167894427
O       1.2371919507      0.2033602230      0.0419654620
C      -0.1194855237      1.2757811847     -1.6531440901
C       0.1493838734      3.4243121878     -0.0461463782
C       0.1727805259     -1.1760168472      0.9671815713
H      -0.4035713364      2.8143985994     -2.5699210049
H      -1.2746526040      1.0031540645     -0.5427520365
H       1.4648703802      2.5490028744     -1.6506141534
H       4.0271149484     -0.1964577409     -3.5440229106
H       5.0553024925     -3.8899432254      3.8165898819
H      -2.5421207663     -0.1949503631      4.7982644983
12
Frame=344  time=172.500fs  energy=-306.19358012Ha  molecule=COOCCCHHHHHH
C      -0.7124315127      0.3283305795      0.3197100497
O       0.5972723382     -0.3325531480      0.2173290624
O       1.2346786075      0.2012066090      0.0421280511
C      -0.1177291055      1.2755597756     -1.6575873540
C       0.1502346628      3.4273724442     -0.0461853001
C       0.1753982009     -1.1756518633      0.9697389296
H      -0.3994578344      2.8186442703     -2.5763652523
H      -1.2821899063      0.9971086620     -0.5465893826
H       1.4722247783      2.5456133122     -1.6551906062
H       4.0404085428     -0.1909930595     -3.5535611114
H       5.0753363982     -3.8981008782      3.8242980701
H      -2.5443912712     -0.1914425186      4.8147444132
12
Frame=345  time=173.000fs  energy=-306.19358012Ha  molecule=COOCCCHHHHHH
C      -0.7146309660      0.3292588039      0.3207167537
O       0.5953109804     -0.3332260265      0.2178685600
O       1.2321658331      0.1990534824      0.0422906035
C      -0.1159730848      1.2753384166     -1.6620296124
C       0.1510852597      3.4304320080     -0.0462242132
C       0.1780152834     -1.1752869619      0.9722957093
H      -0.3953452632      2.8228889804     -2.5828080413
H      -1.2897255029      0.9910646277     -0.5504258603
H       1.4795775121      2.5422245171     -1.6597660234
H       4.0536991288     -0.1855296148     -3.5630971536
H       5.0953657701     -3.9062566849      3.8320045139
H      -2.5466612623     -0.1879354680      4.8312205986
12
Frame=346  time=173.500fs  energy=-306.19358012Ha  molecule=COOCCCHHHHHH
C      -0.7168299227      0.3301868187      0.3217232304
O       0.5933500655     -0.3338987530      0.2184079358
O       1.2296536263      0.1969008421      0.0424531192
C      -0.1142174607      1.2751171075     -1.6664708675
C       0.1519356645      3.4334908809     -0.0462631175
C       0.1806317749     -1.1749221430      0.9748519114
H      -0.3912336208      2.8271327318     -2.5892493752
H      -1.2972593976      0.9850219583     -0.5542614716
H       1.4869285853      2.5388364873     -1.6643404073
H       4.0669867132     -0.1800674040     -3.5726310421
H       5.1153906185     -3.9144106496      3.8397092172
H      -2.5489307407     -0.1844292094      4.8476930630
12
Frame=347  time=174.000fs  energy=-306.19358012Ha  molecule=COOCCCHHHHHH
C      -0.7190283837      0.3311146243      0.3227294803
O       0.5913895925     -0.3345713278      0.2189471900
O       1.2271419856      0.1947486869      0.0426155982
C      -0.1124622323      1.2748958484     -1.6709111217
C       0.1527858776      3.4365490643     -0.0463020130
C       0.1832476767     -1.1745574063      0.9774075375
H      -0.3871229051      2.8313755268     -2.5956892574
H      -1.3047915943      0.9789806509     -0.5580962184
H       1.4942780018      2.5354492212     -1.6689137602
H       4.0802713029     -0.1746064242     -3.5821627819
H       5.1354109537     -3.9225627767      3.8474121841
H      -2.5511997076     -0.1809237410      4.8641618149
12
Frame=348  time=174.500fs  energy=-306.19358012Ha  molecule=COOCCCHHHHHH
C      -0.7212263502      0.3320422212      0.3237355038
O       0.5894295605     -0.3352437514      0.2194863229
O       1.2246309098      0.1925970158      0.0427780407
C      -0.1107073987      1.2746746390     -1.6753503772
C       0.1536358994      3.4396065599     -0.0463408998
C       0.1858629901     -1.1741927517      0.9799625887
H      -0.3830131140      2.8356173674     -2.6021276912
H      -1.3123220969      0.9729407022     -0.5619301026
H       1.5016257653      2.5320627168     -1.6734860844
H       4.0935529047     -0.1691466727     -3.5916923779
H       5.1554267860     -3.9307130702      3.8551134185
H      -2.5534681642     -0.1774190611      4.8806268626
12
Frame=349  time=175.000fs  energy=-306.19358012Ha  molecule=COOCCCHHHHHH
C      -0.7234238234      0.3329696099      0.3247413016
O       0.5874699684     -0.3359160241      0.2200253348
O       1.2221203977      0.1904458276      0.0429404467
C      -0.1089529589      1.2744534792     -1.6797886363
C       0.1544857305      3.4426633692     -0.0463797779
C       0.1884777165     -1.1738281788      0.9825170665
H      -0.3789042454      2.8398582560     -2.6085646798
H      -1.3198509092      0.9669021093     -0.5657631264
H       1.5089718795      2.5286769726     -1.6780573824
H       4.1068315253     -0.1636881467     -3.6012198348
H       5.1754381256     -3.9388615342      3.8628129242
H      -2.5557361117     -0.1739151678      4.8970882146
12
Frame=350  time=175.500fs  energy=-306.19358012Ha  molecule=COOCCCHHHHHH
C      -0.7256208043      0.3338967909      0.3257468740
O       0.5855108153     -0.3365881462      0.2205642259
O       1.2196104479      0.1882951213      0.0431028164
C      -0.1071989121      1.2742323690     -1.6842259012
C       0.1553353712      3.4457194938     -0.0464186472
C       0.1910918572     -1.1734636877      0.9850709721
H      -0.3747962971      2.8440981947     -2.6150002266
H      -1.3273780352      0.9608648689     -0.5695952915
H       1.5163163482      2.5252919868     -1.6826276565
H       4.1201071716     -0.1582308434     -3.6107451577
H       5.1954449828     -3.9470081731      3.8705107053
H      -2.5580035511     -0.1704120594      4.9135458794
12
Frame=351  time=176.000fs  energy=-306.19358012Ha  molecule=COOCCCHHHHHH
C      -0.7278172942      0.3348237646      0.3267522216
O       0.5835521001     -0.3372601181      0.2211029966
O       1.2171010591      0.1861448957      0.0432651497
C      -0.1054452575      1.2740113082     -1.6886621742
C       0.1561848220      3.4487749353     -0.0464575079
C       0.1937054136     -1.1730992780      0.9876243068
H      -0.3706892671      2.8483371855     -2.6214343348
H      -1.3349034785      0.9548289781     -0.5734266001
H       1.5236591751      2.5219077577     -1.6871969089
H       4.1333798503     -0.1527747600     -3.6202683513
H       5.2154473678     -3.9551529909      3.8782067657
H      -2.5602704836     -0.1669097341      4.9299998653
12
Frame=352  time=176.500fs  energy=-306.19358012Ha  molecule=COOCCCHHHHHH
C      -0.7300132941      0.3357505316      0.3277573450
O       0.5815938219     -0.3379319400      0.2216416471
O       1.2145922302      0.1839951499      0.0434274469
C      -0.1036919940      1.2737902968     -1.6930974576
C       0.1570340833      3.4518296952     -0.0464963599
C       0.1963183869     -1.1727349496      0.9901770718
H      -0.3665831533      2.8525752308     -2.6278670077
H      -1.3424272431      0.9487944338     -0.5772570539
H       1.5310003641      2.5185242835     -1.6917651420
H       4.1466495682     -0.1473198937     -3.6297894206
H       5.2354452906     -3.9632959918      3.8859011093
H      -2.5625369105     -0.1634081900      4.9464501807
12
Frame=353  time=177.000fs  energy=-306.19358012Ha  molecule=COOCCCHHHHHH
C      -0.7322088051      0.3366770922      0.3287622446
O       0.5796359796     -0.3386036124      0.2221801777
O       1.2120839597      0.1818458826      0.0435897079
C      -0.1019391208      1.2735693345     -1.6975317536
C       0.1578831556      3.4548837750     -0.0465352032
C       0.1989307786     -1.1723707024      0.9927292687
H      -0.3624779535      2.8568123326     -2.6342982485
H      -1.3499493328      0.9427612329     -0.5810866551
H       1.5383399187      2.5151415625     -1.6963323582
H       4.1599163320     -0.1418662417     -3.6393083702
H       5.2554387616     -3.9714371800      3.8935937399
H      -2.5648028328     -0.1599074255      4.9628968340
12
Frame=354  time=177.500fs  energy=-306.19358012Ha  molecule=COOCCCHHHHHH
C      -0.7344038283      0.3376034470      0.3297669210
O       0.5776785722     -0.3392751356      0.2227185887
O       1.2095762465      0.1796970927      0.0437519329
C      -0.1001866371      1.2733484213     -1.7019650645
C       0.1587320392      3.4579371763     -0.0465740379
C       0.2015425898     -1.1720065360      0.9952808985
H      -0.3583736658      2.8610484930     -2.6407280606
H      -1.3574697513      0.9367293723     -0.5849154054
H       1.5456778428      2.5117595930     -1.7008985597
H       4.1731801484     -0.1364138014     -3.6488252052
H       5.2754277909     -3.9795765594      3.9012846616
H      -2.5670682517     -0.1564074386      4.9793398335
12
Frame=355  time=178.000fs  energy=-306.19358012Ha  molecule=COOCCCHHHHHH
C      -0.7365983649      0.3385295964      0.3307713747
O       0.5757215988     -0.3399465098      0.2232568803
O       1.2070690893      0.1775487793      0.0439141219
C      -0.0984345418      1.2731275571     -1.7063973926
C       0.1595807346      3.4609899007     -0.0466128640
C       0.2041538221     -1.1716424504      0.9978319626
H      -0.3542702880      2.8652837143     -2.6471564472
H      -1.3649885026      0.9306988489     -0.5887433069
H       1.5530141401      2.5083783733     -1.7054637488
H       4.1864410242     -0.1309625698     -3.6583399302
H       5.2954123885     -3.9877141344      3.9089738782
H      -2.5693331684     -0.1529082278      4.9957791876
12
Frame=356  time=178.500fs  energy=-306.19358012Ha  molecule=COOCCCHHHHHH
C      -0.7387924160      0.3394555409      0.3317756061
O       0.5737650584     -0.3406177356      0.2237950528
O       1.2045624867      0.1754009412      0.0440762750
C      -0.0966828343      1.2729067418     -1.7108287400
C       0.1604292423      3.4640419497     -0.0466516815
C       0.2067644766     -1.1712784453      1.0003824622
H      -0.3501678181      2.8695179986     -2.6535834116
H      -1.3725055903      0.9246696599     -0.5925703615
H       1.5603488143      2.5049979017     -1.7100279279
H       4.1996989661     -0.1255125444     -3.6678525501
H       5.3153925646     -3.9958499089      3.9166613936
H      -2.5715975840     -0.1494097911      5.0122149044
12
Frame=357  time=179.000fs  energy=-306.19358012Ha  molecule=COOCCCHHHHHH
C      -0.7409859826      0.3403812810      0.3327796157
O       0.5718089500     -0.3412888131      0.2243331064
O       1.2020564376      0.1732535772      0.0442383923
C      -0.0949315134      1.2726859752     -1.7152591089
C       0.1612775626      3.4670933248     -0.0466904904
C       0.2093745547     -1.1709145206      1.0029323988
H      -0.3460662540      2.8737513480     -2.6600089569
H      -1.3800210184      0.9186418020     -0.5963965711
H       1.5676818690      2.5016181765     -1.7145910993
H       4.2129539808     -0.1200637222     -3.6773630697
H       5.3353683292     -4.0039838871      3.9243472116
H      -2.5738614996     -0.1459121268      5.0286469924
12
Frame=358  time=179.500fs  energy=-306.19358012Ha  molecule=COOCCCHHHHHH
C      -0.7431790660      0.3413068171      0.3337834042
O       0.5698532726     -0.3419597428      0.2248710415
O       1.1995509407      0.1711066865      0.0444004739
C      -0.0931805785      1.2724652573     -1.7196885017
C       0.1621256959      3.4701440276     -0.0467292908
C       0.2119840577     -1.1705506761      1.0054817735
H      -0.3419655935      2.8779837646     -2.6664330864
H      -1.3875347905      0.9126152722     -0.6002219377
H       1.5750133079      2.4982391959     -1.7191532653
H       4.2262060749     -0.1146161006     -3.6868714938
H       5.3553396924     -4.0121160732      3.9320313361
H      -2.5761249163     -0.1424152332      5.0450754599
12
Frame=359  time=180.000fs  energy=-306.19358012Ha  molecule=COOCCCHHHHHH
C      -0.7453716671      0.3422321497      0.3347869719
O       0.5678980252     -0.3426305250      0.2254088584
O       1.1970459947      0.1689602678      0.0445625199
C      -0.0914300286      1.2722445879     -1.7241169206
C       0.1629736428      3.4731940596     -0.0467680827
C       0.2145929869     -1.1701869116      1.0080305877
H      -0.3378658348      2.8822152506     -2.6728558034
H      -1.3950469105      0.9065900676     -0.6040464631
H       1.5823431348      2.4948609583     -1.7237144281
H       4.2394552551     -0.1091696769     -3.6963778272
H       5.3753066643     -4.0202464710      3.9397137711
H      -2.5783878354     -0.1389191086      5.0615003149
12
Frame=360  time=180.500fs  energy=-306.19358012Ha  molecule=COOCCCHHHHHH
C      -0.7475637870      0.3431572792      0.3357903195
O       0.5659432068     -0.3433011600      0.2259465572
O       1.1945415983      0.1668143201      0.0447245303
C      -0.0896798628      1.2720239669     -1.7285443678
C       0.1638214037      3.4762434223     -0.0468068660
C       0.2172013436     -1.1698232270      1.0105788425
H      -0.3337669757      2.8864458080     -2.6792771110
H      -1.4025573821      0.9005661851     -0.6078701494
H       1.5896713534      2.4914834621     -1.7282745901
H       4.2527015280     -0.1037244482     -3.7058820746
H       5.3952692549     -4.0283750849      3.9473945203
H      -2.5806502580     -0.1354237510      5.0779215659
12
Frame=361  time=181.000fs  energy=-306.19358012Ha  molecule=COOCCCHHHHHH
C      -0.7497554270      0.3440822062      0.3367934473
O       0.5639888165     -0.3439716481      0.2264841383
O       1.1920377504      0.1646688423      0.0448865052
C      -0.0879300802      1.2718033942     -1.7329708454
C       0.1646689789      3.4792921173     -0.0468456409
C       0.2198091292     -1.1694596219      1.0131265394
H      -0.3296690141      2.8906754391     -2.6856970126
H      -1.4100662090      0.8945436217     -0.6116929983
H       1.5969979672      2.4881067054     -1.7328337535
H       4.2659449003     -0.0982804120     -3.7153842408
H       5.4152274741     -4.0365019187      3.9550735876
H      -2.5829121851     -0.1319291589      5.0943392210
12
Frame=362  time=181.500fs  energy=-306.19358012Ha  molecule=COOCCCHHHHHH
C      -0.7519465880      0.3450069310      0.3377963559
O       0.5620348533     -0.3446419897      0.2270216019
O       1.1895344496      0.1625238333      0.0450484447
C      -0.0861806800      1.2715828697     -1.7373963557
C       0.1655163688      3.4823401460     -0.0468844072
C       0.2224163449     -1.1690960963      1.0156736795
H      -0.3255719480      2.8949041459     -2.6921155112
H      -1.4175733952      0.8885223744     -0.6155150118
H       1.6043229799      2.4847306866     -1.7373919206
H       4.2791853786     -0.0928375654     -3.7248843305
H       5.4351813319     -4.0446269767      3.9627509768
H      -2.5851736179     -0.1284353304      5.1107532885
12
Frame=363  time=182.000fs  energy=-306.19358012Ha  molecule=COOCCCHHHHHH
C      -0.7541372712      0.3459314542      0.3387990458
O       0.5600813162     -0.3453121851      0.2275589482
O       1.1870316947      0.1603792921      0.0452103489
C      -0.0844316613      1.2713623933     -1.7418209010
C       0.1663635740      3.4853875101     -0.0469231652
C       0.2250229920     -1.1687326500      1.0182202642
H      -0.3214757754      2.8991319305     -2.6985326101
H      -1.4250789441      0.8825024401     -0.6193361918
H       1.6116463953      2.4813554040     -1.7419490936
H       4.2924229695     -0.0873959057     -3.7343823485
H       5.4551308383     -4.0527502628      3.9704266918
H      -2.5874345576     -0.1249422639      5.1271637764
12
Frame=364  time=182.500fs  energy=-306.19358012Ha  molecule=COOCCCHHHHHH
C      -0.7563274777      0.3468557762      0.3398015175
O       0.5581282042     -0.3459822347      0.2280961777
O       1.1845294845      0.1582352176      0.0453722179
C      -0.0826830232      1.2711419649     -1.7462444833
C       0.1672105948      3.4884342110     -0.0469619146
C       0.2276290719     -1.1683692828      1.0207662946
H      -0.3173804942      2.9033587951     -2.7049483125
H      -1.4325828597      0.8764838160     -0.6231565403
H       1.6189682169      2.4779808560     -1.7465052750
H       4.3056576795     -0.0819554303     -3.7438782995
H       5.4750760032     -4.0608717810      3.9781007363
H      -2.5896950052     -0.1214499575      5.1435706931
12
Frame=365  time=183.000fs  energy=-306.19358012Ha  molecule=COOCCCHHHHHH
C      -0.7585172085      0.3477798974      0.3408037715
O       0.5561755164     -0.3466521387      0.2286332905
O       1.1820278177      0.1560916088      0.0455340517
C      -0.0809347649      1.2709215844     -1.7506671050
C       0.1680574317      3.4914802502     -0.0470006557
C       0.2302345857     -1.1680059945      1.0233117721
H      -0.3132861024      2.9075847416     -2.7113626215
H      -1.4400851457      0.8704664989     -0.6269760591
H       1.6262884484      2.4746070409     -1.7510604668
H       4.3188895154     -0.0765161364     -3.7533721882
H       5.4950168365     -4.0689915355      3.9857731143
H      -2.5919549620     -0.1179584095      5.1599740466
12
Frame=366  time=183.500fs  energy=-306.19358012Ha  molecule=COOCCCHHHHHH
C      -0.7607064647      0.3487038184      0.3418058082
O       0.5542232518     -0.3473218976      0.2291702869
O       1.1795266930      0.1539484645      0.0456958505
C      -0.0791868855      1.2707012516     -1.7550887682
C       0.1689040850      3.4945256293     -0.0470393884
C       0.2328395350     -1.1676427849      1.0258566980
H      -0.3091925979      2.9118097724     -2.7177755405
H      -1.4475858057      0.8644504859     -0.6307947501
H       1.6336070935      2.4712339569     -1.7556146715
H       4.3321184835     -0.0710780213     -3.7628640194
H       5.5149533482     -4.0771095302      3.9934438294
H      -2.5942144289     -0.1144676183      5.1763738451
12
Frame=367  time=184.000fs  energy=-306.19358012Ha  molecule=COOCCCHHHHHH
C      -0.7628952474      0.3496275395      0.3428076283
O       0.5522714094     -0.3479915116      0.2297071671
O       1.1770261093      0.1518057838      0.0458576142
C      -0.0774393841      1.2704809665     -1.7595094750
C       0.1697505552      3.4975703497     -0.0470781127
C       0.2354439208     -1.1672796539      1.0284010735
H      -0.3050999788      2.9160338893     -2.7241870724
H      -1.4550848435      0.8584357741     -0.6346126152
H       1.6409241557      2.4678616024     -1.7601678911
H       4.3453445906     -0.0656410824     -3.7723537977
H       5.5348855481     -4.0852257692      4.0011128856
H      -2.5964734072     -0.1109775820      5.1927700966
12
Frame=368  time=184.500fs  energy=-306.19358012Ha  molecule=COOCCCHHHHHH
C      -0.7650835577      0.3505510613      0.3438092321
O       0.5503199883     -0.3486609811      0.2302439314
O       1.1745260653      0.1496635655      0.0460193431
C      -0.0756922599      1.2702607290     -1.7639292278
C       0.1705968427      3.5006144130     -0.0471168286
C       0.2380477445     -1.1669166012      1.0309448997
H      -0.3010082430      2.9202570946     -2.7305972206
H      -1.4625822628      0.8524223604     -0.6384296563
H       1.6482396386      2.4644899758     -1.7647201281
H       4.3585678430     -0.0602053170     -3.7818415278
H       5.5548134459     -4.0933402565      4.0087802866
H      -2.5987318979     -0.1074882990      5.2091628094
12
Frame=369  time=185.000fs  energy=-306.19358012Ha  molecule=COOCCCHHHHHH
C      -0.7672713967      0.3514743841      0.3448106202
O       0.5483689875     -0.3493303064      0.2307805802
O       1.1720265598      0.1475218086      0.0461810371
C      -0.0739455119      1.2700405388     -1.7683480286
C       0.1714429480      3.5036578206     -0.0471555362
C       0.2406510074     -1.1665536268      1.0334881781
H      -0.2969173885      2.9244793902     -2.7370059881
H      -1.4700780672      0.8464102419     -0.6422458753
H       1.6555535459      2.4611190755     -1.7692713845
H       4.3717882474     -0.0547707223     -3.7913272144
H       5.5747370517     -4.1014529960      4.0164460361
H      -2.6009899021     -0.1039997676      5.2255519915
12
Frame=370  time=185.500fs  energy=-306.19358012Ha  molecule=COOCCCHHHHHH
C      -0.7694587655      0.3523975085      0.3458117931
O       0.5464184060     -0.3499994878      0.2313171136
O       1.1695275915      0.1453805120      0.0463426963
C      -0.0721991394      1.2698203960     -1.7727658797
C       0.1722888714      3.5067005741     -0.0471942355
C       0.2432537107     -1.1661907304      1.0360309099
H      -0.2928274133      2.9287007783     -2.7434133781
H      -1.4775722605      0.8403994156     -0.6460612740
H       1.6628658812      2.4577488996     -1.7738216627
H       4.3850058103     -0.0493372957     -3.8008108622
H       5.5946563751     -4.1095639918      4.0241101380
H      -2.6032474211     -0.1005119859      5.2419376509
12
Frame=371  time=186.000fs  energy=-306.19358012Ha  molecule=COOCCCHHHHHH
C      -0.7716456651      0.3533204349      0.3468127512
O       0.5444682430     -0.3506685257      0.2318535319
O       1.1670291592      0.1432396747      0.0465043209
C      -0.0704531415      1.2696003004     -1.7771827831
C       0.1731346133      3.5097426750     -0.0472329265
C       0.2458558558     -1.1658279118      1.0385730963
H      -0.2887383153      2.9329212610     -2.7498193938
H      -1.4850648464      0.8343898786     -0.6498758543
H       1.6701766480      2.4543794466     -1.7783709650
H       4.3982205380     -0.0439050345     -3.8102924758
H       5.6145714260     -4.1176732479      4.0317725959
H      -2.6055044558     -0.0970249523      5.2583197957
12
Frame=372  time=186.500fs  energy=-306.19358012Ha  molecule=COOCCCHHHHHH
C      -0.7738320966      0.3542431638      0.3478134951
O       0.5425184973     -0.3513374204      0.2323898354
O       1.1645312617      0.1410992957      0.0466659109
C      -0.0687075174      1.2693802519     -1.7815987411
C       0.1739801742      3.5127841247     -0.0472716092
C       0.2484574440     -1.1654651708      1.0411147385
H      -0.2846500926      2.9371408403     -2.7562240384
H      -1.4925558285      0.8283816279     -0.6536896182
H       1.6774858500      2.4510107148     -1.7829192934
H       4.4114324372     -0.0384739361     -3.8197720599
H       5.6344822142     -4.1257807681      4.0394334138
H      -2.6077610074     -0.0935386652      5.2746984340
12
Frame=373  time=187.000fs  energy=-306.19358012Ha  molecule=COOCCCHHHHHH
C      -0.7760180610      0.3551656956      0.3488140252
O       0.5405691681     -0.3520061722      0.2329260244
O       1.1620338977      0.1389593739      0.0468274664
C      -0.0669622661      1.2691602505     -1.7860137559
C       0.1748255545      3.5158249247     -0.0473102836
C       0.2510584764     -1.1651025074      1.0436558378
H      -0.2805627431      2.9413595182     -2.7626273148
H      -1.5000452106      0.8223746606     -0.6575025674
H       1.6847934907      2.4476427026     -1.7874666504
H       4.4246415143     -0.0330439978     -3.8292496192
H       5.6543887493     -4.1338865566      4.0470925953
H      -2.6100170770     -0.0900531227      5.2910735737
12
Frame=374  time=187.500fs  energy=-306.19358012Ha  molecule=COOCCCHHHHHH
C      -0.7782035595      0.3560880307      0.3498143420
O       0.5386202545     -0.3526747814      0.2334620990
O       1.1595370661      0.1368199082      0.0469889874
C      -0.0652173868      1.2689402959     -1.7904278296
C       0.1756707546      3.5188650766     -0.0473489498
C       0.2536589543     -1.1647399213      1.0461963954
H      -0.2764762650      2.9455772969     -2.7690292264
H      -1.5075329961      0.8163689738     -0.6613147038
H       1.6920995738      2.4442754084     -1.7920130380
H       4.4378477757     -0.0276152169     -3.8387251582
H       5.6742910411     -4.1419906173      4.0547501441
H      -2.6122726657     -0.0865683232      5.3074452229
12
Frame=375  time=188.000fs  energy=-306.19358012Ha  molecule=COOCCCHHHHHH
C      -0.7803885931      0.3570101696      0.3508144460
O       0.5366717554     -0.3533432485      0.2339980596
O       1.1570407656      0.1346808976      0.0471504741
C      -0.0634728787      1.2687203881     -1.7948409643
C       0.1765157749      3.5219045817     -0.0473876078
C       0.2562588791     -1.1643774122      1.0487364126
H      -0.2723906560      2.9497941784     -2.7754297761
H      -1.5150191889      0.8103645644     -0.6651260294
H       1.6994041026      2.4409088304     -1.7965584585
H       4.4510512279     -0.0221875909     -3.8481986816
H       5.6941890994     -4.1500929541      4.0624060640
H      -2.6145277746     -0.0830842650      5.3238133895
12
Frame=376  time=188.500fs  energy=-306.19358012Ha  molecule=COOCCCHHHHHH
C      -0.7825731629      0.3579321127      0.3518143378
O       0.5347236699     -0.3540115736      0.2345339065
O       1.1545449951      0.1325423410      0.0473119265
C      -0.0617287408      1.2685005270     -1.7992531622
C       0.1773606158      3.5249434417     -0.0474262576
C       0.2588582520     -1.1640149802      1.0512758907
H      -0.2683059144      2.9540101648     -2.7818289671
H      -1.5225037926      0.8043614297     -0.6689365458
H       1.7067070809      2.4375429670     -1.8011029141
H       4.4642518774     -0.0167611170     -3.8576701939
H       5.7140829337     -4.1581935709      4.0700603588
H      -2.6167824048     -0.0796009463      5.3401780816
12
Frame=377  time=189.000fs  energy=-306.19358012Ha  molecule=COOCCCHHHHHH
C      -0.7847572699      0.3588538606      0.3528140177
O       0.5327759971     -0.3546797572      0.2350696398
O       1.1520497532      0.1304042375      0.0474733447
C      -0.0599849725      1.2682807124     -1.8036644254
C       0.1782052778      3.5279816579     -0.0474648991
C       0.2614570743     -1.1636526249      1.0538148307
H      -0.2642220381      2.9582252580     -2.7882268026
H      -1.5299868107      0.7983595667     -0.6727462551
H       1.7140085122      2.4341778167     -1.8056464070
H       4.4774497304     -0.0113357926     -3.8671396999
H       5.7339725538     -4.1662924718      4.0777130321
H      -2.6190365574     -0.0761183656      5.3565393070
12
Frame=378  time=189.500fs  energy=-306.19358012Ha  molecule=COOCCCHHHHHH
C      -0.7869409152      0.3597754136      0.3538134863
O       0.5308287360     -0.3553477995      0.2356052599
O       1.1495550388      0.1282665860      0.0476347287
C      -0.0582415728      1.2680609444     -1.8080747561
C       0.1790497612      3.5310192318     -0.0475035325
C       0.2640553472     -1.1632903462      1.0563532341
H      -0.2601390250      2.9624394602     -2.7946232856
H      -1.5374682469      0.7923589724     -0.6765551590
H       1.7213083999      2.4308133778     -1.8101889395
H       4.4906447935     -0.0059116151     -3.8766072040
H       5.7538579693     -4.1743896605      4.0853640876
H      -2.6212902334     -0.0726365210      5.3728970737
12
Frame=379  time=190.000fs  energy=-306.19358012Ha  molecule=COOCCCHHHHHH
C      -0.7891240998      0.3606967722      0.3548127441
O       0.5288818857     -0.3560157009      0.2361407670
O       1.1470608507      0.1261293855      0.0477960788
C      -0.0564985409      1.2678412227     -1.8124841564
C       0.1798940664      3.5340561650     -0.0475421578
C       0.2666530719     -1.1629281439      1.0588911020
H      -0.2560568734      2.9666527734     -2.8010184192
H      -1.5449481049      0.7863596440     -0.6803632594
H       1.7286067478      2.4274496486     -1.8147305137
H       4.5038370730     -0.0004885819     -3.8860727109
H       5.7737391899     -4.1824851411      4.0930135292
H      -2.6235434340     -0.0691554110      5.3892513897
12
Frame=380  time=190.500fs  energy=-306.19358012Ha  molecule=COOCCCHHHHHH
C      -0.7913068248      0.3616179368      0.3558117915
O       0.5269354453     -0.3566834616      0.2366761614
O       1.1445671876      0.1239926348      0.0479573948
C      -0.0547558759      1.2676215472     -1.8168926285
C       0.1807381940      3.5370924588     -0.0475807749
C       0.2692502498     -1.1625660179      1.0614284356
H      -0.2519755810      2.9708651997     -2.8074122065
H      -1.5524263883      0.7803615785     -0.6841705582
H       1.7359035591      2.4240866275     -1.8192711318
H       4.5170265752      0.0049333097     -3.8955362252
H       5.7936162251     -4.1905789175      4.1006613603
H      -2.6257961603     -0.0656750338      5.4056022627
12
Frame=381  time=191.000fs  energy=-306.19358012Ha  molecule=COOCCCHHHHHH
C      -0.7934890913      0.3625389079      0.3568106290
O       0.5249894138     -0.3573510821      0.2372114432
O       1.1420740484      0.1218563331      0.0481186770
C      -0.0530135770      1.2674019179     -1.8213001744
C       0.1815821441      3.5401281147     -0.0476193839
C       0.2718468821     -1.1622039680      1.0639652361
H      -0.2478951461      2.9750767409     -2.8138046506
H      -1.5599031006      0.7743647732     -0.6879770570
H       1.7431988376      2.4207243130     -1.8238107960
H       4.5302133067      0.0103540622     -3.9049977513
H       5.8134890845     -4.1986709935      4.1083075848
H      -2.6280484134     -0.0621953878      5.4219497008
12
Frame=382  time=191.500fs  energy=-306.19358012Ha  molecule=COOCCCHHHHHH
C      -0.7956709003      0.3634596860      0.3578092571
O       0.5230437902     -0.3580185627      0.2377466129
O       1.1395814319      0.1197204792      0.0482799254
C      -0.0512716434      1.2671823347     -1.8257067963
C       0.1824259174      3.5431631342     -0.0476579848
C       0.2744429700     -1.1618419940      1.0665015049
H      -0.2438155666      2.9792873993     -2.8201957545
H      -1.5673782454      0.7683692250     -0.6917827579
H       1.7504925866      2.4173627033     -1.8283495085
H       4.5433972736      0.0157736783     -3.9144572939
H       5.8333577778     -4.2067613731      4.1159522064
H      -2.6303001942     -0.0587164712      5.4382937118
12
Frame=383  time=192.000fs  energy=-306.19358012Ha  molecule=COOCCCHHHHHH
C      -0.7978522528      0.3643802714      0.3588076763
O       0.5210985737     -0.3586859035      0.2382816706
O       1.1370893369      0.1175850721      0.0484411400
C      -0.0495300742      1.2669627973     -1.8301124963
C       0.1832695141      3.5461975188     -0.0476965777
C       0.2770385147     -1.1614800957      1.0690372430
H      -0.2397368406      2.9834971767     -2.8265855215
H      -1.5748518264      0.7623749311     -0.6955876626
H       1.7577848098      2.4140017969     -1.8328872714
H       4.5565784823      0.0211921606     -3.9239148575
H       5.8532223143     -4.2148500601      4.1235952286
H      -2.6325515040     -0.0552382825      5.4546343034
12
Frame=384  time=192.500fs  energy=-306.19358012Ha  molecule=COOCCCHHHHHH
C      -0.8000331499      0.3653006646      0.3598058871
O       0.5191537633     -0.3593531051      0.2388166166
O       1.1345977621      0.1154501109      0.0486023209
C      -0.0477888686      1.2667433059     -1.8345172766
C       0.1841129347      3.5492312699     -0.0477351625
C       0.2796335177     -1.1611182729      1.0715724517
H      -0.2356589661      2.9877060753     -2.8329739544
H      -1.5823238472      0.7563818887     -0.6993917730
H       1.7650755105      2.4106415921     -1.8374240870
H       4.5697569392      0.0266095117     -3.9333704467
H       5.8730827038     -4.2229370584      4.1312366552
H      -2.6348023438     -0.0517608199      5.4709714837
12
Frame=385  time=193.000fs  energy=-306.19358012Ha  molecule=COOCCCHHHHHH
C      -0.8022135927      0.3662208661      0.3608038899
O       0.5172093581     -0.3600201677      0.2393514512
O       1.1321067064      0.1133155944      0.0487634683
C      -0.0460480257      1.2665238601     -1.8389211392
C       0.1849561796      3.5522643890     -0.0477737392
C       0.2822279799     -1.1607565255      1.0741071323
H      -0.2315819412      2.9919140970     -2.8393610563
H      -1.5897943112      0.7503900948     -0.7031950908
H       1.7723646924      2.4072820874     -1.8419599575
H       4.5829326505      0.0320257341     -3.9428240659
H       5.8929389556     -4.2310223719      4.1388764898
H      -2.6370527146     -0.0482840818      5.4873052603
12
Frame=386  time=193.500fs  energy=-306.19358012Ha  molecule=COOCCCHHHHHH
C      -0.8043935822      0.3671408762      0.3618016852
O       0.5152653571     -0.3606870916      0.2398861745
O       1.1296161686      0.1111815217      0.0489245822
C      -0.0443075448      1.2663044600     -1.8433240862
C       0.1857992492      3.5552968775     -0.0478123079
C       0.2848219028     -1.1603948534      1.0766412859
H      -0.2275057639      2.9961212438     -2.8457468304
H      -1.5972632222      0.7443995466     -0.7069976179
H       1.7796523588      2.4039232812     -1.8464948849
H       4.5961056226      0.0374408306     -3.9522757197
H       5.9127910792     -4.2391060045      4.1465147361
H      -2.6393026176     -0.0448080665      5.5036356411
12
Frame=387  time=194.000fs  energy=-306.19358012Ha  molecule=COOCCCHHHHHH
C      -0.8065731194      0.3680606955      0.3627992735
O       0.5133217594     -0.3613538771      0.2404207869
O       1.1271261476      0.1090478918      0.0490856627
C      -0.0425674250      1.2660851053     -1.8477261197
C       0.1866421439      3.5583287368     -0.0478508687
C       0.2874152875     -1.1600332562      1.0791749137
H      -0.2234304323      3.0003275178     -2.8521312797
H      -1.6047305836      0.7384102413     -0.7107993561
H       1.7869385132      2.4005651718     -1.8510288715
H       4.6092758618      0.0428548035     -3.9617254126
H       5.9326390842     -4.2471879600      4.1541513977
H      -2.6415520538     -0.0413327724      5.5199626338
12
Frame=388  time=194.500fs  energy=-306.19358012Ha  molecule=COOCCCHHHHHH
C      -0.8087522053      0.3689803243      0.3637966553
O       0.5113785641     -0.3620205245      0.2409552887
O       1.1246366420      0.1069147036      0.0492467098
C      -0.0408276654      1.2658657961     -1.8521272418
C       0.1874848640      3.5613599684     -0.0478894214
C       0.2900081354     -1.1596717340      1.0817080170
H      -0.2193559444      3.0045329210     -2.8585144071
H      -1.6121963989      0.7324221760     -0.7146003072
H       1.7942231592      2.3972077576     -1.8555619193
H       4.6224433742      0.0482676556     -3.9711731490
H       5.9524829799     -4.2552682422      4.1617864782
H      -2.6438010243     -0.0378581978      5.5362862463
12
Frame=389  time=195.000fs  energy=-306.19358012Ha  molecule=COOCCCHHHHHH
C      -0.8109308410      0.3698997632      0.3647938310
O       0.5094357703     -0.3626870343      0.2414896800
O       1.1221476508      0.1047819561      0.0494077236
C      -0.0390882653      1.2656465323     -1.8565274547
C       0.1883274101      3.5643905738     -0.0479279662
C       0.2926004475     -1.1593102864      1.0842405970
H      -0.2152822983      3.0087374553     -2.8648962158
H      -1.6196606718      0.7264353478     -0.7184004730
H       1.8015063001      2.3938510371     -1.8600940307
H       4.6356081662      0.0536793893     -3.9806189335
H       5.9723227759     -4.2633468550      4.1694199813
H      -2.6460495301     -0.0343843410      5.5526064863
12
Frame=390  time=195.500fs  energy=-306.19358012Ha  molecule=COOCCCHHHHHH
C      -0.8131090276      0.3708190125      0.3657908011
O       0.5074933771     -0.3633534066      0.2420239611
O       1.1196591727      0.1026496483      0.0495687043
C      -0.0373492238      1.2654273136     -1.8609267604
C       0.1891697824      3.5674205544     -0.0479665030
C       0.2951922251     -1.1589489133      1.0867726548
H      -0.2112094920      3.0129411228     -2.8712767087
H      -1.6271234058      0.7204497539     -0.7221998554
H       1.8087879394      2.3904950087     -1.8646252076
H       4.6487702439      0.0590900073     -3.9900627706
H       5.9921584814     -4.2714238023      4.1770519106
H      -2.6482975724     -0.0309112005      5.5689233615
12
Frame=391  time=196.000fs  energy=-306.19358012Ha  molecule=COOCCCHHHHHH
C      -0.8152867660      0.3717380726      0.3667875661
O       0.5055513834     -0.3640196418      0.2425581323
O       1.1171712066      0.1005177792      0.0497296518
C      -0.0356105400      1.2652081400     -1.8653251609
C       0.1900119814      3.5704499115     -0.0480050319
C       0.2977834695     -1.1585876146      1.0893041916
H      -0.2071375238      3.0171439253     -2.8776558889
H      -1.6345846044      0.7144653916     -0.7259984560
H       1.8160680807      2.3871396707     -1.8691554523
H       4.6619296137      0.0644995121     -3.9995046647
H       6.0119901059     -4.2794990877      4.1846822696
H      -2.6505451521     -0.0274387745      5.5852368797
12
Frame=392  time=196.500fs  energy=-306.19358012Ha  molecule=COOCCCHHHHHH
C      -0.8174640573      0.3726569441      0.3677841264
O       0.5036097885     -0.3646857403      0.2430921938
O       1.1146837514      0.0983863479      0.0498905662
C      -0.0338722133      1.2649890114     -1.8697226584
C       0.1908540076      3.5734786467     -0.0480435529
C       0.3003741820     -1.1582263901      1.0918352087
H      -0.2030663915      3.0213458650     -2.8840337593
H      -1.6420442712      0.7084822578     -0.7297962767
H       1.8233467272      2.3837850216     -1.8736847669
H       4.6750862817      0.0699079063     -4.0089446202
H       6.0318176587     -4.2875727153      4.1923110621
H      -2.6527922704     -0.0239670614      5.6015470485
12
Frame=393  time=197.000fs  energy=-306.19358012Ha  molecule=COOCCCHHHHHH
C      -0.8196409025      0.3735756273      0.3687804826
O       0.5016685914     -0.3653517022      0.2436261460
O       1.1121968057      0.0962553532      0.0500514477
C      -0.0321342427      1.2647699277     -1.8741192550
C       0.1916958612      3.5765067614     -0.0480820660
C       0.3029643636     -1.1578652396      1.0943657073
H      -0.1989960934      3.0255469438     -2.8904103231
H      -1.6495024095      0.7025003500     -0.7335933194
H       1.8306238824      2.3804310598     -1.8782131535
H       4.6882402542      0.0753151924     -4.0183826417
H       6.0516411493     -4.2956446886      4.1999382916
H      -2.6550389283     -0.0204960597      5.6178538757
12
Frame=394  time=197.500fs  energy=-306.19358012Ha  molecule=COOCCCHHHHHH
C      -0.8218173027      0.3744941227      0.3697766350
O       0.4997277912     -0.3660175280      0.2441599889
O       1.1097103686      0.0941247942      0.0502122964
C      -0.0303966274      1.2645508888     -1.8785149526
C       0.1925375426      3.5795342569     -0.0481205712
C       0.3055540156     -1.1575041629      1.0968956884
H      -0.1949266274      3.0297471637     -2.8967855831
H      -1.6569590231      0.6965196651     -0.7373895857
H       1.8378995499      2.3770777838     -1.8827406142
H       4.7013915373      0.0807213730     -4.0278187336
H       6.0714605868     -4.3037150117      4.2075639617
H      -2.6572851269     -0.0170257676      5.6341573689
12
Frame=395  time=198.000fs  energy=-306.19358012Ha  molecule=COOCCCHHHHHH
C      -0.8239932588      0.3754124306      0.3707725843
O       0.4977873869     -0.3666832180      0.2446937229
O       1.1072244387      0.0919946699      0.0503731122
C      -0.0286593667      1.2643318946     -1.8829097534
C       0.1933790524      3.5825611348     -0.0481590686
C       0.3081431393     -1.1571431599      1.0994251534
H      -0.1908579917      3.0339465266     -2.9031595425
H      -1.6644141153      0.6905402005     -0.7411850775
H       1.8451737328      2.3737251919     -1.8872671513
H       4.7145401372      0.0861264506     -4.0372529002
H       6.0912759807     -4.3117836882      4.2151880759
H      -2.6595308672     -0.0135561835      5.6504575357
12
Frame=396  time=198.500fs  energy=-306.19358012Ha  molecule=COOCCCHHHHHH
C      -0.8261687719      0.3763305517      0.3717683307
O       0.4958473777     -0.3673487724      0.2452273483
O       1.1047390149      0.0898649793      0.0505338952
C      -0.0269224596      1.2641129450     -1.8873036594
C       0.1942203908      3.5855873964     -0.0481975581
C       0.3107317359     -1.1567822304      1.1019541034
H      -0.1867901844      3.0381450346     -2.9095322041
H      -1.6718676896      0.6845619532     -0.7449797965
H       1.8524464348      2.3703732826     -1.8917927667
H       4.7276860600      0.0915304277     -4.0466851461
H       6.1110873402     -4.3198507219      4.2228106379
H      -2.6617761502     -0.0100873058      5.6667543839
12
Frame=397  time=199.000fs  energy=-306.19358012Ha  molecule=COOCCCHHHHHH
C      -0.8283438429      0.3772484861      0.3727638748
O       0.4939077626     -0.3680141916      0.2457608652
O       1.1022540962      0.0877357214      0.0506946456
C      -0.0251859055      1.2638940398     -1.8916966728
C       0.1950615583      3.5886130431     -0.0482360398
C       0.3133198065     -1.1564213742      1.1044825396
H      -0.1827232035      3.0423426895     -2.9159035709
H      -1.6793197496      0.6785849206     -0.7487737446
H       1.8597176592      2.3670220543     -1.8963174627
H       4.7408293119      0.0969333068     -4.0561154755
H       6.1308946746     -4.3279161166      4.2304316512
H      -2.6640209771     -0.0066191329      5.6830479210
12
Frame=398  time=199.500fs  energy=-306.19358012Ha  molecule=COOCCCHHHHHH
C      -0.8305184730      0.3781662345      0.3737592171
O       0.4919685409     -0.3686794759      0.2462942740
O       1.0997696812      0.0856068952      0.0508553634
C      -0.0234497034      1.2636751791     -1.8960887954
C       0.1959025553      3.5916380764     -0.0482745137
C       0.3159073524     -1.1560605912      1.1070104632
H      -0.1786570472      3.0465394933     -2.9222736460
H      -1.6867702987      0.6726090998     -0.7525669234
H       1.8669874093      2.3636715054     -1.9008412413
H       4.7539698992      0.1023350906     -4.0655438930
H       6.1506979931     -4.3359798761      4.2380511193
H      -2.6662653489     -0.0031516632      5.6993381546
12
Frame=399  time=200.000fs  energy=-306.19358012Ha  molecule=COOCCCHHHHHH
C      -0.8326926632      0.3790837972      0.3747543581
O       0.4900297114     -0.3693446256      0.2468275749
O       1.0972857689      0.0834784997      0.0510160487
C      -0.0217138526      1.2634563626     -1.9004800294
C       0.1967433821      3.5946624977     -0.0483129799
C       0.3184943747     -1.1556998812      1.1095378752
H      -0.1745917136      3.0507354481     -2.9286424323
H      -1.6942193404      0.6666344880     -0.7563593348
H       1.8742556887      2.3603216345     -1.9053641046
H       4.7671078277      0.1077357814     -4.0749704030
H       6.1704973050     -4.3440420041      4.2456690459
H      -2.6685092665      0.0003151050      5.7156250923
12
Frame=400  time=200.500fs  energy=-306.19358012Ha  molecule=COOCCCHHHHHH
C      -0.8348664143      0.3800011746      0.3757492981
O       0.4880912734     -0.3700096410      0.2473607680
O       1.0948023581      0.0813505339      0.0511767015
C      -0.0199783523      1.2632375903     -1.9048703768
C       0.1975840391      3.5976863083     -0.0483514382
C       0.3210808748     -1.1553392440      1.1120647771
H      -0.1705272008      3.0549305557     -2.9350099327
H      -1.7016668782      0.6606610825     -0.7601509805
H       1.8815225005      2.3569724398     -1.9098860548
H       4.7802431038      0.1131353819     -4.0843950097
H       6.1902926194     -4.3521025044      4.2532854344
H      -2.6707527311      0.0037811732      5.7319087418
12
Frame=401  time=201.000fs  energy=-306.19358012Ha  molecule=COOCCCHHHHHH
C      -0.8370397275      0.3809183672      0.3767440376
O       0.4861532260     -0.3706745224      0.2478938538
O       1.0923194476      0.0792229968      0.0513373220
C      -0.0182432016      1.2630188621     -1.9092598397
C       0.1984245268      3.6007095097     -0.0483898888
C       0.3236668538     -1.1549786795      1.1145911698
H      -0.1664635068      3.0591248181     -2.9413761502
H      -1.7091129154      0.6546888805     -0.7639418623
H       1.8887878483      2.3536239200     -1.9144070939
H       4.7933757334      0.1185338944     -4.0938177177
H       6.2100839456     -4.3601613807      4.2609002884
H      -2.6729957437      0.0072465432      5.7481891105
12
Frame=402  time=201.500fs  energy=-306.19358012Ha  molecule=COOCCCHHHHHH
C      -0.8392126038      0.3818353754      0.3777385772
O       0.4842155681     -0.3713392702      0.2484268324
O       1.0898370363      0.0770958875      0.0514979102
C      -0.0165083998      1.2628001779     -1.9136484201
C       0.1992648455      3.6037321033     -0.0484283317
C       0.3262523128     -1.1546181874      1.1171170545
H      -0.1624006299      3.0633182372     -2.9477410878
H      -1.7165574557      0.6487178792     -0.7677319820
H       1.8960517354      2.3502760734     -1.9189272241
H       4.8065057227      0.1239313216     -4.1032385311
H       6.2298712927     -4.3682186368      4.2685136114
H      -2.6752383054      0.0107112164      5.7644662060
12
Frame=403  time=202.000fs  energy=-306.19358012Ha  molecule=COOCCCHHHHHH
C      -0.8413850441      0.3827521997      0.3787329172
O       0.4822782991     -0.3720038845      0.2489597040
O       1.0873551231      0.0749692050      0.0516584661
C      -0.0147739460      1.2625815375     -1.9180361200
C       0.2001049955      3.6067540905     -0.0484667669
C       0.3288372531     -1.1542577677      1.1196424326
H      -0.1583385681      3.0675108150     -2.9541047484
H      -1.7240005023      0.6427480759     -0.7715213412
H       1.9033141652      2.3469288984     -1.9234464474
H       4.8196330778      0.1293276659     -4.1126574545
H       6.2496546698     -4.3762742763      4.2761254070
H      -2.6774804171      0.0141751945      5.7807400359
12
Frame=404  time=202.500fs  energy=-306.19358012Ha  molecule=COOCCCHHHHHH
C      -0.8435570494      0.3836688403      0.3797270581
O       0.4803414179     -0.3726683658      0.2494924690
O       1.0848737068      0.0728429482      0.0518189899
C      -0.0130398395      1.2623629409     -1.9224229415
C       0.2009449774      3.6097754727     -0.0485051943
C       0.3314216759     -1.1538974201      1.1221673050
H      -0.1542773196      3.0717025534     -2.9604671350
H      -1.7314420588      0.6367794678     -0.7753099417
H       1.9105751409      2.3435823936     -1.9279647659
H       4.8327578046      0.1347229299     -4.1220744922
H       6.2694340862     -4.3843283030      4.2837356786
H      -2.6797220800      0.0176384791      5.7970106076
12
Frame=405  time=203.000fs  energy=-306.19358012Ha  molecule=COOCCCHHHHHH
C      -0.8457286209      0.3845852979      0.3807210004
O       0.4784049237     -0.3733327144      0.2500251275
O       1.0823927862      0.0707171162      0.0519794817
C      -0.0113060794      1.2621443880     -1.9268088865
C       0.2017847915      3.6127962512     -0.0485436141
C       0.3340055824     -1.1535371446      1.1246916729
H      -0.1502168824      3.0758934544     -2.9668282504
H      -1.7388821285      0.6308120521     -0.7790977854
H       1.9178346660      2.3402365574     -1.9324821817
H       4.8458799093      0.1401171159     -4.1314896484
H       6.2892095509     -4.3923807206      4.2913444298
H      -2.6819632950      0.0211010717      5.8132779286
12
Frame=406  time=203.500fs  energy=-306.19358012Ha  molecule=COOCCCHHHHHH
C      -0.8478997594      0.3855015727      0.3817147446
O       0.4764688155     -0.3739969305      0.2505576798
O       1.0799123602      0.0685917081      0.0521399414
C      -0.0095726650      1.2619258786     -1.9311939571
C       0.2026244381      3.6158164275     -0.0485820263
C       0.3365889737     -1.1531769408      1.1272155376
H      -0.1461572548      3.0800835198     -2.9731880976
H      -1.7463207149      0.6248458261     -0.7828848739
H       1.9250927437      2.3368913882     -1.9369986968
H       4.8589993978      0.1455102265     -4.1409029276
H       6.3089810730     -4.4004315329      4.2989516641
H      -2.6842040631      0.0245629741      5.8295420065
12
Frame=407  time=204.000fs  energy=-306.19358012Ha  molecule=COOCCCHHHHHH
C      -0.8500704659      0.3864176652      0.3827082911
O       0.4745330925     -0.3746610145      0.2510901262
O       1.0774324278      0.0664667228      0.0523003692
C      -0.0078395955      1.2617074127     -1.9355781553
C       0.2034639177      3.6188360029     -0.0486204308
C       0.3391718510     -1.1528168087      1.1297389002
H      -0.1420984348      3.0842727516     -2.9795466796
H      -1.7537578215      0.6188807871     -0.7866712089
H       1.9323493775      2.3335468846     -1.9415143135
H       4.8721162762      0.1509022641     -4.1503143339
H       6.3287486616     -4.4084807434      4.3065573849
H      -2.6864443855      0.0280241876      5.8458028486
12
Frame=408  time=204.500fs  energy=-306.19358012Ha  molecule=COOCCCHHHHHH
C      -0.8522407415      0.3873335759      0.3837016403
O       0.4725977539     -0.3753249666      0.2516224669
O       1.0749529876      0.0643421594      0.0524607652
C      -0.0061068700      1.2614889902     -1.9399614831
C       0.2043032306      3.6218549788     -0.0486588276
C       0.3417542156     -1.1524567482      1.1322617618
H      -0.1380404206      3.0884611518     -2.9859039991
H      -1.7611934515      0.6129169324     -0.7904567922
H       1.9396045706      2.3302030449     -1.9460290336
H       4.8852305506      0.1562932312     -4.1597238719
H       6.3485123257     -4.4165283559      4.3141615957
H      -2.6886842631      0.0314847141      5.8620604625
12
Frame=409  time=205.000fs  energy=-306.19358012Ha  molecule=COOCCCHHHHHH
C      -0.8544105871      0.3882493051      0.3846947927
O       0.4706627986     -0.3759887872      0.2521547021
O       1.0724740387      0.0622180168      0.0526211294
C      -0.0043744878      1.2612706110     -1.9443439425
C       0.2051423773      3.6248733567     -0.0486972169
C       0.3443360685     -1.1520967589      1.1347841236
H      -0.1339832104      3.0926487221     -2.9922600592
H      -1.7686276085      0.6069542592     -0.7942416256
H       1.9468583264      2.3268598677     -1.9505428593
H       4.8983422268      0.1616831304     -4.1691315457
H       6.3682720744     -4.4245743741      4.3217643000
H      -2.6909236969      0.0349445549      5.8783148555
12
Frame=410  time=205.500fs  energy=-306.19358012Ha  molecule=COOCCCHHHHHH
C      -0.8565800038      0.3891648533      0.3856877488
O       0.4687282259     -0.3766524765      0.2526868321
O       1.0699955798      0.0600942942      0.0527814619
C      -0.0026424480      1.2610522749     -1.9487255356
C       0.2059813580      3.6278911378     -0.0487355986
C       0.3469174111     -1.1517368408      1.1373059867
H      -0.1299268023      3.0968354646     -2.9986148628
H      -1.7760602957      0.6009927647     -0.7980257107
H       1.9541106482      2.3235173514     -1.9550557927
H       4.9114513109      0.1670719640     -4.1785373596
H       6.3880279167     -4.4326188016      4.3293655014
H      -2.6931626880      0.0384037118      5.8945660351
12
Frame=411  time=206.000fs  energy=-306.19358012Ha  molecule=COOCCCHHHHHH
C      -0.8587489925      0.3900802208      0.3866805089
O       0.4667940348     -0.3773160349      0.2532188571
O       1.0675176099      0.0579709906      0.0529417628
C      -0.0009107500      1.2608339820     -1.9531062642
C       0.2068201733      3.6309083236     -0.0487739727
C       0.3494982444     -1.1513769938      1.1398273524
H      -0.1258711944      3.1010213811     -3.0049684126
H      -1.7834915167      0.5950324464     -0.8018090493
H       1.9613615392      2.3201754945     -1.9595678357
H       4.9245578089      0.1724597344     -4.1879413180
H       6.4077798615     -4.4406616422      4.3369652031
H      -2.6954012374      0.0418621862      5.9108140087
12
Frame=412  time=206.500fs  energy=-306.19358012Ha  molecule=COOCCCHHHHHH
C      -0.8609175542      0.3909954082      0.3876730737
O       0.4648602245     -0.3779794627      0.2537507774
O       1.0650401278      0.0558481050      0.0531020321
C       0.0008206071      1.2606157319     -1.9574861304
C       0.2076588234      3.6339249154     -0.0488123392
C       0.3520785696     -1.1510172175      1.1423482216
H      -0.1218163849      3.1052064736     -3.0113207117
H      -1.7909212747      0.5890733014     -0.8055916431
H       1.9686110027      2.3168342956     -1.9640789905
H       4.9376617267      0.1778464442     -4.1973434251
H       6.4275279179     -4.4487028994      4.3445634088
H      -2.6976393461      0.0453199798      5.9270587837
12
Frame=413  time=207.000fs  energy=-306.19358012Ha  molecule=COOCCCHHHHHH
C      -0.8630856898      0.3919104157      0.3886654434
O       0.4629267941     -0.3786427602      0.2542825931
O       1.0625631324      0.0537256364      0.0532622699
C       0.0025516241      1.2603975248     -1.9618651362
C       0.2084973087      3.6369409146     -0.0488506982
C       0.3546583879     -1.1506575120      1.1448685957
H      -0.1177623720      3.1093907439     -3.0176717629
H      -1.7983495731      0.5831153271     -0.8093734938
H       1.9758590422      2.3134937530     -1.9685892590
H       4.9507630702      0.1832320958     -4.2067436851
H       6.4472720949     -4.4567425769      4.3521601218
H      -2.6998770152      0.0487770941      5.9433003674
12
Frame=414  time=207.500fs  energy=-306.19358012Ha  molecule=COOCCCHHHHHH
C      -0.8652534005      0.3928252439      0.3896576187
O       0.4609937427     -0.3793059276      0.2548143047
O       1.0600866226      0.0516035839      0.0534224763
C       0.0042823017      1.2601793604     -1.9662432835
C       0.2093356297      3.6399563225     -0.0488890497
C       0.3572377005     -1.1502978769      1.1473884756
H      -0.1137091538      3.1135741940     -3.0240215690
H      -1.8057764153      0.5771585207     -0.8131546031
H       1.9831056607      2.3101538652     -1.9730986434
H       4.9638618454      0.1886166917     -4.2161421024
H       6.4670124013     -4.4647806783      4.3597553456
H      -2.7021142456      0.0522335308      5.9595387672
12
Frame=415  time=208.000fs  energy=-306.19358012Ha  molecule=COOCCCHHHHHH
C      -0.8674206871      0.3937398931      0.3906495998
O       0.4590610695     -0.3799689653      0.2553459122
O       1.0576105973      0.0494819465      0.0535826514
C       0.0060126408      1.2599612388     -1.9706205744
C       0.2101737867      3.6429711406     -0.0489273937
C       0.3598165085     -1.1499383122      1.1499078626
H      -0.1096567285      3.1177568257     -3.0303701330
H      -1.8132018047      0.5712028796     -0.8169349728
H       1.9903508617      2.3068146308     -1.9776071457
H       4.9769580582      0.1940002341     -4.2255386811
H       6.4867488460     -4.4728172073      4.3673490836
H      -2.7043510383      0.0556892912      5.9757739903
12
Frame=416  time=208.500fs  energy=-306.19358012Ha  molecule=COOCCCHHHHHH
C      -0.8695875506      0.3946543638      0.3916413873
O       0.4571287735     -0.3806318736      0.2558774159
O       1.0551350553      0.0473607233      0.0537427952
C       0.0077426422      1.2597431597     -1.9749970109
C       0.2110117801      3.6459853702     -0.0489657302
C       0.3623948131     -1.1495788177      1.1524267578
H      -0.1056050942      3.1219386409     -3.0367174577
H      -1.8206257446      0.5652484011     -0.8207146045
H       1.9975946483      2.3034760483     -1.9821147679
H       4.9900517146      0.1993827257     -4.2349334255
H       6.5064814381     -4.4808521675      4.3749413392
H      -2.7065873944      0.0591443771      5.9920060443
12
Frame=417  time=209.000fs  energy=-306.19358012Ha  molecule=COOCCCHHHHHH
C      -0.8717539920      0.3955686564      0.3926329816
O       0.4551968539     -0.3812946527      0.2564088161
O       1.0526599955      0.0452399133      0.0539029078
C       0.0094723065      1.2595251230     -1.9793725948
C       0.2118496102      3.6489990126     -0.0490040592
C       0.3649726155     -1.1492193933      1.1549451624
H      -0.1015542492      3.1261196415     -3.0430635460
H      -1.8280482383      0.5592950826     -0.8244935000
H       2.0048370239      2.3001381161     -1.9866215120
H       5.0031428203      0.2047641688     -4.2443263399
H       6.5262101863     -4.4888855625      4.3825321159
H      -2.7088233148      0.0625987899      6.0082349363
12
Frame=418  time=209.500fs  energy=-306.19358012Ha  molecule=COOCCCHHHHHH
C      -0.8739200123      0.3964827712      0.3936243831
O       0.4532653099     -0.3819573030      0.2569401130
O       1.0501854168      0.0431195155      0.0540629892
C       0.0112016346      1.2593071288     -1.9837473281
C       0.2126872775      3.6520120692     -0.0490423808
C       0.3675499168     -1.1488600387      1.1574630774
H      -0.0975041917      3.1302998293     -3.0494084007
H      -1.8354692892      0.5533429212     -0.8282716608
H       2.0120779916      2.2968008327     -1.9911273800
H       5.0162313813      0.2101445658     -4.2537174284
H       6.5459350995     -4.4969173960      4.3901214170
H      -2.7110588007      0.0660525312      6.0244606736
12
Frame=419  time=210.000fs  energy=-306.19358012Ha  molecule=COOCCCHHHHHH
C      -0.8760856125      0.3973967087      0.3946155923
O       0.4513341405     -0.3826198248      0.2574713068
O       1.0477113182      0.0409995290      0.0542230397
C       0.0129306272      1.2590891768     -1.9881212129
C       0.2135247823      3.6550245413     -0.0490806950
C       0.3701267182     -1.1485007538      1.1599805040
H      -0.0934549197      3.1344792064     -3.0557520246
H      -1.8428889006      0.5473919145     -0.8320490889
H       2.0193175548      2.2934641967     -1.9956323741
H       5.0293174034      0.2155239191     -4.2631066953
H       6.5656561866     -4.5049476715      4.3977092461
H      -2.7132938529      0.0695056026      6.0406832636
12
Frame=420  time=210.500fs  energy=-306.19358012Ha  molecule=COOCCCHHHHHH
C      -0.8782507934      0.3983104693      0.3956066097
O       0.4494033450     -0.3832822183      0.2580023979
O       1.0452376984      0.0388799529      0.0543830591
C       0.0146592852      1.2588712671     -1.9924942510
C       0.2143621250      3.6580364303     -0.0491190017
C       0.3727030207     -1.1481415384      1.1624974433
H      -0.0894064315      3.1386577744     -3.0620944207
H      -1.8503070758      0.5414420596     -0.8358257857
H       2.0265557167      2.2901282066     -2.0001364961
H       5.0424008926      0.2209022312     -4.2724941448
H       6.5853734564     -4.5129763926      4.4052956063
H      -2.7155284724      0.0729580056      6.0569027134
12
Frame=421  time=211.000fs  energy=-306.19358012Ha  molecule=COOCCCHHHHHH
C      -0.8804155562      0.3992240534      0.3965974356
O       0.4474729224     -0.3839444839      0.2585333863
O       1.0427645564      0.0367607862      0.0545430477
C       0.0163876093      1.2586533994     -1.9968664445
C       0.2151993059      3.6610477376     -0.0491573010
C       0.3752788257     -1.1477823924      1.1650138964
H      -0.0853587254      3.1428355353     -3.0684355916
H      -1.8577238182      0.5354933540     -0.8396017531
H       2.0337924805      2.2867928608     -2.0046397481
H       5.0554818546      0.2262795045     -4.2818797810
H       6.6050869176     -4.5210035629      4.4128805013
H      -2.7177626604      0.0764097417      6.0731190304
12
Frame=422  time=211.500fs  energy=-306.19358012Ha  molecule=COOCCCHHHHHH
C      -0.8825799017      0.4001374614      0.3975880706
O       0.4455428719     -0.3846066218      0.2590642724
O       1.0402918911      0.0346420280      0.0547030054
C       0.0181156003      1.2584355737     -2.0012377952
C       0.2160363255      3.6640584644     -0.0491955930
C       0.3778541341     -1.1474233157      1.1675298645
H      -0.0813117994      3.1470124910     -3.0747755404
H      -1.8651391310      0.5295457950     -0.8433769926
H       2.0410278494      2.2834581579     -2.0091421322
H       5.0685602953      0.2316557413     -4.2912636082
H       6.6247965792     -4.5290291860      4.4204639343
H      -2.7199964177      0.0798608126      6.0893322217
12
Frame=423  time=212.000fs  energy=-306.19358012Ha  molecule=COOCCCHHHHHH
C      -0.8847438309      0.4010506937      0.3985785150
O       0.4436131926     -0.3852686323      0.2595950564
O       1.0378197014      0.0325236773      0.0548629323
C       0.0198432589      1.2582177899     -2.0056083051
C       0.2168731841      3.6670686122     -0.0492338776
C       0.3804289473     -1.1470643080      1.1700453487
H      -0.0772656518      3.1511886433     -3.0811142697
H      -1.8725530176      0.5235993799     -0.8471515060
H       2.0482618267      2.2801240964     -2.0136436502
H       5.0816362205      0.2370309440     -4.3006456305
H       6.6445024498     -4.5370532655      4.4280459086
H      -2.7222297454      0.0833112196      6.1055422946
12
Frame=424  time=212.500fs  energy=-306.19358012Ha  molecule=COOCCCHHHHHH
C      -0.8869073448      0.4019637508      0.3995687694
O       0.4416838836     -0.3859305159      0.2601257385
O       1.0353479862      0.0304057331      0.0550228285
C       0.0215705859      1.2580000479     -2.0099779763
C       0.2177098820      3.6700781822     -0.0492721548
C       0.3830032662     -1.1467053692      1.1725603500
H      -0.0732202808      3.1553639941     -3.0874517824
H      -1.8799654812      0.5176541061     -0.8509252950
H       2.0554944155      2.2767906748     -2.0181443043
H       5.0947096360      0.2424051150     -4.3100258521
H       6.6642045383     -4.5450758048      4.4356264278
H      -2.7244626444      0.0867609644      6.1217492562
12
Frame=425  time=213.000fs  energy=-306.19358012Ha  molecule=COOCCCHHHHHH
C      -0.8890704443      0.4028766329      0.4005588340
O       0.4397549442     -0.3865922726      0.2606563190
O       1.0328767444      0.0282881946      0.0551826942
C       0.0232975820      1.2577823476     -2.0143468105
C       0.2185464197      3.6730871758     -0.0493104247
C       0.3855770921     -1.1463464992      1.1750748697
H      -0.0691756845      3.1595385451     -3.0937880813
H      -1.8873765251      0.5117099711     -0.8546983612
H       2.0627256191      2.2734578916     -2.0226440963
H       5.1077805476      0.2477782568     -4.3194042771
H       6.6839028533     -4.5530968077      4.4432054951
H      -2.7266951158      0.0902100485      6.1379531138
12
Frame=426  time=213.500fs  energy=-306.19358012Ha  molecule=COOCCCHHHHHH
C      -0.8912331304      0.4037893406      0.4015487095
O       0.4378263735     -0.3872539029      0.2611867980
O       1.0304059750      0.0261710609      0.0553425292
C       0.0250242481      1.2575646890     -2.0187148097
C       0.2193827976      3.6760955943     -0.0493486873
C       0.3881504261     -1.1459876978      1.1775889089
H      -0.0651318613      3.1637122983     -3.1001231692
H      -1.8947861526      0.5057669720     -0.8584707063
H       2.0699554407      2.2701257454     -2.0271430284
H       5.1208489611      0.2531503716     -4.3287809097
H       6.7035974035     -4.5611162776      4.4507831138
H      -2.7289271605      0.0936584734      6.1541538745
12
Frame=427  time=214.000fs  energy=-306.19358012Ha  molecule=COOCCCHHHHHH
C      -0.8933954040      0.4047018743      0.4025383962
O       0.4358981705     -0.3879154070      0.2617171759
O       1.0279356767      0.0240543308      0.0555023338
C       0.0267505850      1.2573470718     -2.0230819759
C       0.2202190159      3.6791034391     -0.0493869426
C       0.3907232693     -1.1456289647      1.1801024685
H      -0.0610888093      3.1678852555     -3.1064570489
H      -1.9021943670      0.4998251064     -0.8622423319
H       2.0771838835      2.2667942347     -2.0316411025
H       5.1339148822      0.2585214619     -4.3381557541
H       6.7232881977     -4.5691342180      4.4583592875
H      -2.7311587795      0.0971062407      6.1703515455
12
Frame=428  time=214.500fs  energy=-306.19358012Ha  molecule=COOCCCHHHHHH
C      -0.8955572661      0.4056142342      0.4035278945
O       0.4339703345     -0.3885767851      0.2622474529
O       1.0254658485      0.0219380036      0.0556621080
C       0.0284765932      1.2571294960     -2.0274483109
C       0.2210550751      3.6821107115     -0.0494251906
C       0.3932956229     -1.1452703000      1.1826155498
H      -0.0570465267      3.1720574186     -3.1127897232
H      -1.9096011715      0.4938843716     -0.8660132398
H       2.0844109505      2.2634633580     -2.0361383205
H       5.1469783168      0.2638915301     -4.3475288143
H       6.7429752445     -4.5771506326      4.4659340192
H      -2.7333899738      0.1005533518      6.1865461339
12
Frame=429  time=215.000fs  energy=-306.19358012Ha  molecule=COOCCCHHHHHH
C      -0.8977187177      0.4065264209      0.4045172049
O       0.4320428646     -0.3892380377      0.2627776291
O       1.0229964894      0.0198220784      0.0558218518
C       0.0302022737      1.2569119616     -2.0318138168
C       0.2218909755      3.6851174127     -0.0494634314
C       0.3958674880     -1.1449117034      1.1851281538
H      -0.0530050118      3.1762287893     -3.1191211949
H      -1.9170065694      0.4879447650     -0.8697834315
H       2.0916366452      2.2601331139     -2.0406346845
H       5.1600392705      0.2692605784     -4.3569000945
H       6.7626585526     -4.5851655247      4.4735073125
H      -2.7356207444      0.1039998082      6.2027376468
12
Frame=430  time=215.500fs  energy=-306.19358012Ha  molecule=COOCCCHHHHHH
C      -0.8998797597      0.4074384348      0.4055063278
O       0.4301157600     -0.3898991650      0.2633077049
O       1.0205275982      0.0177065541      0.0559815654
C       0.0319276272      1.2566944684     -2.0361784954
C       0.2227267175      3.6881235442     -0.0495016649
C       0.3984388657     -1.1445531747      1.1876402817
H      -0.0489642628      3.1803993696     -3.1254514667
H      -1.9244105640      0.4820062839     -0.8735529088
H       2.0988609705      2.2568035008     -2.0451301964
H       5.1730977491      0.2746286092     -4.3662695988
H       6.7823381306     -4.5931788980      4.4810791706
H      -2.7378510922      0.1074456116      6.2189260913
12
Frame=431  time=216.000fs  energy=-306.19358012Ha  molecule=COOCCCHHHHHH
C      -0.9020403930      0.4083502762      0.4064952637
O       0.4281890198     -0.3905601673      0.2638376805
O       1.0180591739      0.0155914298      0.0561412487
C       0.0336526544      1.2564770163     -2.0405423486
C       0.2235623015      3.6911291072     -0.0495398911
C       0.4010097571     -1.1441947138      1.1901519346
H      -0.0449242779      3.1845691612     -3.1317805415
H      -1.9318131584      0.4760689258     -0.8773216732
H       2.1060839297      2.2534745175     -2.0496248581
H       5.1861537583      0.2799956249     -4.3756373313
H       6.8020139871     -4.6011907560      4.4886495969
H      -2.7400810183      0.1108907633      6.2351114746
12
Frame=432  time=216.500fs  energy=-306.19358012Ha  molecule=COOCCCHHHHHH
C      -0.9042006186      0.4092619455      0.4074840130
O       0.4262626432     -0.3912210448      0.2643675560
O       1.0155912154      0.0134767047      0.0563009019
C       0.0353773560      1.2562596053     -2.0449053783
C       0.2243977277      3.6941341030     -0.0495781102
C       0.4035801634     -1.1438363206      1.1926631134
H      -0.0408850553      3.1887381659     -3.1381084219
H      -1.9392143560      0.4701326882     -0.8810897265
H       2.1133055259      2.2501461622     -2.0541186718
H       5.1992073038      0.2853616279     -4.3850032961
H       6.8216861308     -4.6092011021      4.4962185946
H      -2.7423105236      0.1143352649      6.2512938037
12
Frame=433  time=217.000fs  energy=-306.19358012Ha  molecule=COOCCCHHHHHH
C      -0.9063604375      0.4101734431      0.4084725760
O       0.4243366293     -0.3918817979      0.2648973318
O       1.0131237217      0.0113623778      0.0564605251
C       0.0371017329      1.2560422352     -2.0492675865
C       0.2252329967      3.6971385330     -0.0496163221
C       0.4061500857     -1.1434779948      1.1951738195
H      -0.0368465934      3.1929063856     -3.1444351108
H      -1.9466141599      0.4641975683     -0.8848570702
H       2.1205257622      2.2468184338     -2.0586116392
H       5.2122583914      0.2907266205     -4.3943674973
H       6.8413545702     -4.6172099398      4.5037861670
H      -2.7445396091      0.1177791180      6.2674730856
12
Frame=434  time=217.500fs  energy=-306.19358012Ha  molecule=COOCCCHHHHHH
C      -0.9085198505      0.4110847695      0.4094609534
O       0.4224109773     -0.3925424268      0.2654270080
O       1.0106566915      0.0092484481      0.0566201183
C       0.0388257859      1.2558249059     -2.0536289750
C       0.2260681087      3.7001423985     -0.0496545267
C       0.4087195251     -1.1431197364      1.1976840537
H      -0.0328088902      3.1970738221     -3.1507606110
H      -1.9540125734      0.4582635636     -0.8886237061
H       2.1277446419      2.2434913306     -2.0631037624
H       5.2253070266      0.2960906049     -4.4037299390
H       6.8610193140     -4.6252172727      4.5113523175
H      -2.7467682757      0.1212223239      6.2836493274
12
Frame=435  time=218.000fs  energy=-306.19358012Ha  molecule=COOCCCHHHHHH
C      -0.9106788586      0.4119959250      0.4104491454
O       0.4204856864     -0.3932029319      0.2659565849
O       1.0081901240      0.0071349149      0.0567796815
C       0.0405495155      1.2556076174     -2.0579895458
C       0.2269030642      3.7031457007     -0.0496927243
C       0.4112884827     -1.1427615452      1.2001938173
H      -0.0287719441      3.2012404772     -3.1570849251
H      -1.9614095996      0.4523306716     -0.8923896357
H       2.1349621680      2.2401648512     -2.0675950434
H       5.2383532152      0.3014535837     -4.4130906251
H       6.8806803705     -4.6332231043      4.5189170494
H      -2.7489965244      0.1246648842      6.2998225362
12
Frame=436  time=218.500fs  energy=-306.19358012Ha  molecule=COOCCCHHHHHH
C      -0.9128374627      0.4129069100      0.4114371525
O       0.4185607557     -0.3938633134      0.2664860627
O       1.0057240179      0.0050217770      0.0569392149
C       0.0422729226      1.2553903695     -2.0623493007
C       0.2277378634      3.7061484410     -0.0497309146
C       0.4138569597     -1.1424034210      1.2027031114
H      -0.0247357534      3.2054063527     -3.1634080559
H      -1.9688052419      0.4463988896     -0.8961548607
H       2.1421783438      2.2368389942     -2.0720854840
H       5.2513969629      0.3068155590     -4.4224495599
H       6.9003377484     -4.6412274379      4.5264803658
H      -2.7512243563      0.1281068004      6.3159927189
12
Frame=437  time=219.000fs  energy=-306.19358012Ha  molecule=COOCCCHHHHHH
C      -0.9149956639      0.4138177250      0.4124249752
O       0.4166361844     -0.3945235716      0.2670154417
O       1.0032583723      0.0029090337      0.0570987185
C       0.0439960080      1.2551731622     -2.0667082416
C       0.2285725068      3.7091506207     -0.0497690979
C       0.4164249571     -1.1420453636      1.2052119369
H      -0.0207003162      3.2095714504     -3.1697300061
H      -1.9761995034      0.4404682151     -0.8999193827
H       2.1493931722      2.2335137582     -2.0765750862
H       5.2644382752      0.3121765331     -4.4318067473
H       6.9199914562     -4.6492302770      4.5340422702
H      -2.7534517722      0.1315480740      6.3321598826
12
Frame=438  time=219.500fs  energy=-306.19358012Ha  molecule=COOCCCHHHHHH
C      -0.9171534629      0.4147283702      0.4134126138
O       0.4147119717     -0.3951837067      0.2675447220
O       1.0007931860      0.0007966841      0.0572581924
C       0.0457187723      1.2549559954     -2.0710663704
C       0.2294069946      3.7121522411     -0.0498072740
C       0.4189924761     -1.1416873729      1.2077202950
H      -0.0166656309      3.2137357721     -3.1760507785
H      -1.9835923873      0.4345386455     -0.9036832034
H       2.1566066564      2.2301891417     -2.0810638520
H       5.2774771578      0.3175365085     -4.4411621915
H       6.9396415024     -4.6572316252      4.5416027657
H      -2.7556787731      0.1349887065      6.3483240342
12
Frame=439  time=220.000fs  energy=-306.19358012Ha  molecule=COOCCCHHHHHH
C      -0.9193108608      0.4156388461      0.4144000688
O       0.4127881167     -0.3958437192      0.2680739039
O       0.9983284581     -0.0013152729      0.0574176366
C       0.0474412164      1.2547388689     -2.0754236890
C       0.2302413273      3.7151533034     -0.0498454430
C       0.4215595178     -1.1413294488      1.2102281867
H      -0.0126316956      3.2178993197     -3.1823703758
H      -1.9909838967      0.4286101783     -0.9074463243
H       2.1638187996      2.2268651433     -2.0855517832
H       5.2905136163      0.3228954875     -4.4505158963
H       6.9592878955     -4.6652314858      4.5491618557
H      -2.7579053600      0.1384286993      6.3644851807
12
Frame=440  time=220.500fs  energy=-306.19358012Ha  molecule=COOCCCHHHHHH
C      -0.9214678585      0.4165491532      0.4153873406
O       0.4108646186     -0.3965036092      0.2686029877
O       0.9958641873     -0.0034268381      0.0575770513
C       0.0491633409      1.2545217828     -2.0797801992
C       0.2310755053      3.7181538090     -0.0498836050
C       0.4241260832     -1.1409715911      1.2127356133
H      -0.0085985087      3.2220620948     -3.1886888008
H      -1.9983740350      0.4226828110     -0.9112087471
H       2.1710296048      2.2235417615     -2.0900388819
H       5.3035476564      0.3282534722     -4.4598678659
H       6.9789306438     -4.6732298624      4.5567195433
H      -2.7601315338      0.1418680539      6.3806433291
12
Frame=441  time=221.000fs  energy=-306.19358012Ha  molecule=COOCCCHHHHHH
C      -0.9236244568      0.4174592917      0.4163744296
O       0.4089414765     -0.3971633770      0.2691319735
O       0.9934003728     -0.0055380123      0.0577364364
C       0.0508851466      1.2543047368     -2.0841359030
C       0.2319095288      3.7211537591     -0.0499217599
C       0.4266921735     -1.1406137997      1.2152425756
H      -0.0045660685      3.2262240993     -3.1950060561
H      -2.0057628051      0.4167565409     -0.9149704734
H       2.1782390752      2.2202189950     -2.0945251500
H       5.3165792836      0.3336104651     -4.4692181042
H       6.9985697559     -4.6812267582      4.5642758318
H      -2.7623572955      0.1453067719      6.3967984863
12
Frame=442  time=221.500fs  energy=-306.19358012Ha  molecule=COOCCCHHHHHH
C      -0.9257806568      0.4183692621      0.4173613364
O       0.4070186898     -0.3978230230      0.2696608616
O       0.9909370134     -0.0076487966      0.0578957921
C       0.0526066343      1.2540877309     -2.0884908021
C       0.2327433982      3.7241531551     -0.0499599077
C       0.4292577898     -1.1402560743      1.2177490749
H      -0.0005343731      3.2303853350     -3.2013221444
H      -2.0131502104      0.4108313655     -0.9187315049
H       2.1854472138      2.2168968422     -2.0990105893
H       5.3296085036      0.3389664684     -4.4785666154
H       7.0182052401     -4.6892221769      4.5718307245
H      -2.7645826461      0.1487448546      6.4129506593
12
Frame=443  time=222.000fs  energy=-306.19358012Ha  molecule=COOCCCHHHHHH
C      -0.9279364593      0.4192790648      0.4183480611
O       0.4050962574     -0.3984825474      0.2701896522
O       0.9884741081     -0.0097591918      0.0580551184
C       0.0543278046      1.2538707650     -2.0928448985
C       0.2335771140      3.7271519982     -0.0499980485
C       0.4318229332     -1.1398984149      1.2202551121
H       0.0034965791      3.2345458037     -3.2076370685
H      -2.0205362539      0.4049072823     -0.9224918430
H       2.1926540237      2.2135753018     -2.1034952018
H       5.3426353219      0.3443214845     -4.4879134033
H       7.0378371049     -4.6972161218      4.5793842246
H      -2.7668075865      0.1521823036      6.4290998549
12
Frame=444  time=222.500fs  energy=-306.19358012Ha  molecule=COOCCCHHHHHH
C      -0.9300918653      0.4201887001      0.4193346044
O       0.4031741787     -0.3991419504      0.2707183456
O       0.9860116558     -0.0118691988      0.0582144154
C       0.0560486584      1.2536538390     -2.0971981940
C       0.2344106764      3.7301502896     -0.0500361823
C       0.4343876047     -1.1395408213      1.2227606884
H       0.0075267899      3.2387055071     -3.2139508310
H      -2.0279209389      0.3989842888     -0.9262514895
H       2.1998595080      2.2102543724     -2.1079789894
H       5.3556597440      0.3496755155     -4.4972584719
H       7.0574653586     -4.7052085962      4.5869363354
H      -2.7690321176      0.1556191203      6.4452460800
12
Frame=445  time=223.000fs  energy=-306.19358012Ha  molecule=COOCCCHHHHHH
C      -0.9322468757      0.4210981684      0.4203209667
O       0.4012524527     -0.3998012325      0.2712469419
O       0.9835496554     -0.0139788186      0.0583736832
C       0.0577691962      1.2534369528     -2.1015506905
C       0.2352440858      3.7331480308     -0.0500743091
C       0.4369518055     -1.1391832933      1.2252658047
H       0.0115562609      3.2428644470     -3.2202634346
H      -2.0353042684      0.3930623824     -0.9300104459
H       2.2070636698      2.2069340526     -2.1124619540
H       5.3686817756      0.3550285638     -4.5066018253
H       7.0770900097     -4.7131996037      4.5944870599
H      -2.7712562404      0.1590553061      6.4613893416
12
Frame=446  time=223.500fs  energy=-306.19358012Ha  molecule=COOCCCHHHHHH
C      -0.9344014913      0.4220074702      0.4213071482
O       0.3993310788     -0.4004603937      0.2717754414
O       0.9810881060     -0.0160880519      0.0585329218
C       0.0594894190      1.2532201064     -2.1059023898
C       0.2360773425      3.7361452229     -0.0501124289
C       0.4395155367     -1.1388258308      1.2277704623
H       0.0155849940      3.2470226251     -3.2265748821
H      -2.0426862457      0.3871415607     -0.9337687139
H       2.2142665121      2.2036143408     -2.1169440976
H       5.3817014221      0.3603806317     -4.5159434675
H       7.0967110664     -4.7211891476      4.6020364016
H      -2.7734799558      0.1624908627      6.4775296464
12
Frame=447  time=224.000fs  energy=-306.19358012Ha  molecule=COOCCCHHHHHH
C      -0.9365557132      0.4229166058      0.4222931496
O       0.3974100559     -0.4011194346      0.2723038443
O       0.9786270065     -0.0181968998      0.0586921314
C       0.0612093274      1.2530032996     -2.1102532938
C       0.2369104470      3.7391418672     -0.0501505418
C       0.4420787993     -1.1384684336      1.2302746621
H       0.0196129907      3.2511800433     -3.2328851760
H      -2.0500668738      0.3812218211     -0.9375262949
H       2.2214680379      2.2002952358     -2.1214254219
H       5.3947186891      0.3657317214     -4.5252834023
H       7.1163285371     -4.7291772312      4.6095843634
H      -2.7757032648      0.1659257913      6.4936670014
12
Frame=448  time=224.500fs  energy=-306.19358012Ha  molecule=COOCCCHHHHHH
C      -0.9387095422      0.4238255756      0.4232789711
O       0.3954893835     -0.4017783552      0.2728321508
O       0.9761663558     -0.0203053631      0.0588513118
C       0.0629289221      1.2527865323     -2.1146034043
C       0.2377433995      3.7421379651     -0.0501886477
C       0.4446415944     -1.1381111016      1.2327784052
H       0.0236402528      3.2553367033     -3.2391943192
H      -2.0574461558      0.3753031610     -0.9412831907
H       2.2286682505      2.1969767361     -2.1259059290
H       5.4077335821      0.3710818353     -4.5346216338
H       7.1359424301     -4.7371638581      4.6171309488
H      -2.7779261684      0.1693600935      6.5098014134
12
Frame=449  time=225.000fs  energy=-306.19358012Ha  molecule=COOCCCHHHHHH
C      -0.9408629793      0.4247343800      0.4242646132
O       0.3935690605     -0.4024371559      0.2733603612
O       0.9737061529     -0.0224134426      0.0590104633
C       0.0646482039      1.2525698044     -2.1189527231
C       0.2385762004      3.7451335177     -0.0502267466
C       0.4472039232     -1.1377538346      1.2352816926
H       0.0276667820      3.2594926068     -3.2455023141
H      -2.0648240950      0.3693855781     -0.9450394028
H       2.2358671526      2.1936588403     -2.1303856208
H       5.4207461066      0.3764309755     -4.5439581659
H       7.1555527537     -4.7451490316      4.6246761607
H      -2.7801486674      0.1727937707      6.5259328892
12
Frame=450  time=225.500fs  energy=-306.19358012Ha  molecule=COOCCCHHHHHH
C      -0.9430160253      0.4256430193      0.4252500763
O       0.3916490863     -0.4030958370      0.2738884757
O       0.9712463968     -0.0245211394      0.0591695859
C       0.0663671734      1.2523531160     -2.1233012521
C       0.2394088502      3.7481285263     -0.0502648386
C       0.4497657866     -1.1373966325      1.2377845255
H       0.0316925800      3.2636477557     -3.2518091636
H      -2.0722006943      0.3634690698     -0.9487949328
H       2.2430647475      2.1903415470     -2.1348644990
H       5.4337562681      0.3817791443     -4.5532930025
H       7.1751595162     -4.7531327549      4.6322200025
H      -2.7823707629      0.1762268244      6.5420614356
12
Frame=451  time=226.000fs  energy=-306.19358012Ha  molecule=COOCCCHHHHHH
C      -0.9451686812      0.4265514940      0.4262353608
O       0.3897294600     -0.4037543987      0.2744164945
O       0.9687870864     -0.0266284542      0.0593286797
C       0.0680858315      1.2521364668     -2.1276489932
C       0.2402413490      3.7511229922     -0.0503029238
C       0.4523271858     -1.1370394951      1.2402869049
H       0.0357176486      3.2678021516     -3.2581148702
H      -2.0795759570      0.3575536335     -0.9525497823
H       2.2502610382      2.1870248549     -2.1393425657
H       5.4467640721      0.3871263440     -4.5626261476
H       7.1947627258     -4.7611150316      4.6397624774
H      -2.7845924556      0.1796592560      6.5581870594
12
Frame=452  time=226.500fs  energy=-306.19358012Ha  molecule=COOCCCHHHHHH
C      -0.9473209478      0.4274598044      0.4272204672
O       0.3878101808     -0.4044128413      0.2749444178
O       0.9663282207     -0.0287353879      0.0594877447
C       0.0698041788      1.2519198567     -2.1319959481
C       0.2410736973      3.7541169166     -0.0503410020
C       0.4548881219     -1.1366824223      1.2427888317
H       0.0397419893      3.2719557964     -3.2644194367
H      -2.0869498861      0.3516392669     -0.9563039528
H       2.2574560276      2.1837087624     -2.1438198226
H       5.4597695240      0.3924725769     -4.5719576050
H       7.2143623907     -4.7690958649      4.6473035884
H      -2.7868137467      0.1830910669      6.5743097673
12
Frame=453  time=227.000fs  energy=-306.19358012Ha  molecule=COOCCCHHHHHH
C      -0.9494728260      0.4283679510      0.4282053958
O       0.3858912479     -0.4050711651      0.2754722458
O       0.9638697986     -0.0308419416      0.0596467810
C       0.0715222160      1.2517032858     -2.1363421186
C       0.2419058954      3.7571103008     -0.0503790734
C       0.4574485959     -1.1363254140      1.2452903072
H       0.0437656039      3.2761086916     -3.2707228656
H      -2.0943224847      0.3457259675     -0.9600574459
H       2.2646497189      2.1803932683     -2.1482962717
H       5.4727726293      0.3978178451     -4.5812873788
H       7.2339585193     -4.7770752583      4.6548433387
H      -2.7890346370      0.1865222587      6.5904295663
12
Frame=454  time=227.500fs  energy=-306.19358012Ha  molecule=COOCCCHHHHHH
C      -0.9516243169      0.4292759340      0.4291901472
O       0.3839726605     -0.4057293705      0.2759999788
O       0.9614118192     -0.0329481159      0.0598057887
C       0.0732399440      1.2514867538     -2.1406875067
C       0.2427379437      3.7601031461     -0.0504171379
C       0.4600086089     -1.1359684699      1.2477913322
H       0.0477884940      3.2802608392     -3.2770251596
H      -2.1016937559      0.3398137327     -0.9638102632
H       2.2718421149      2.1770783712     -2.1527719148
H       5.4857733935      0.4031621509     -4.5906154728
H       7.2535511196     -4.7850532149      4.6623817315
H      -2.7912551274      0.1899528326      6.6065464629
12
Frame=455  time=228.000fs  energy=-306.19358012Ha  molecule=COOCCCHHHHHH
C      -0.9537754212      0.4301837539      0.4301747215
O       0.3820544178     -0.4063874575      0.2765276170
O       0.9589542814     -0.0350539118      0.0599647678
C       0.0749573633      1.2512702608     -2.1450321141
C       0.2435698425      3.7630954537     -0.0504551956
C       0.4625681619     -1.1356115899      1.2502919080
H       0.0518106614      3.2844122408     -3.2833263213
H      -2.1090637027      0.3339025601     -0.9675624064
H       2.2790332187      2.1737640695     -2.1572467538
H       5.4987718219      0.4085054965     -4.5999418909
H       7.2731402000     -4.7930297383      4.6699187700
H      -2.7934752188      0.1933827902      6.6226604639
12
Frame=456  time=228.500fs  energy=-306.19358012Ha  molecule=COOCCCHHHHHH
C      -0.9559261398      0.4310914110      0.4311591194
O       0.3801365189     -0.4070454266      0.2770551606
O       0.9564971841     -0.0371593303      0.0601237184
C       0.0766744747      1.2510538065     -2.1493759425
C       0.2444015921      3.7660872249     -0.0504932465
C       0.4651272561     -1.1352547739      1.2527920354
H       0.0558321078      3.2885628981     -3.2896263534
H      -2.1164323284      0.3279924472     -0.9713138768
H       2.2862230334      2.1704503621     -2.1617207906
H       5.5117679200      0.4138478842     -4.6092666370
H       7.2927257685     -4.8010048316      4.6774544573
H      -2.7956949123      0.1968121329      6.6387715761
12
Frame=457  time=229.000fs  energy=-306.19358012Ha  molecule=COOCCCHHHHHH
C      -0.9580764738      0.4319989058      0.4321433412
O       0.3782189632     -0.4077032779      0.2775826099
O       0.9540405264     -0.0392643720      0.0602826406
C       0.0783912790      1.2508373910     -2.1537189939
C       0.2452331930      3.7690784608     -0.0505312905
C       0.4676858925     -1.1348980218      1.2552917156
H       0.0598528347      3.2927128130     -3.2959252584
H      -2.1237996358      0.3220833916     -0.9750646761
H       2.2934115618      2.1671372475     -2.1661940270
H       5.5247616933      0.4191893162     -4.6185897150
H       7.3123078333     -4.8089784983      4.6849887965
H      -2.7979142087      0.2002408622      6.6548798062
12
Frame=458  time=229.500fs  energy=-306.19358012Ha  molecule=COOCCCHHHHHH
C      -0.9602264238      0.4329062386      0.4331273873
O       0.3763017498     -0.4083610119      0.2781099650
O       0.9515843073     -0.0413690381      0.0604415344
C       0.0801077768      1.2506210141     -2.1580612701
C       0.2460646454      3.7720691628     -0.0505693278
C       0.4702440722     -1.1345413333      1.2577909495
H       0.0638728439      3.2968619870     -3.3022230391
H      -2.1311656281      0.3161753908     -0.9788148059
H       2.3005988071      2.1638247242     -2.1706664649
H       5.5377531470      0.4245297948     -4.6279111287
H       7.3318864025     -4.8169507416      4.6925217907
H      -2.8001331089      0.2036689794      6.6709851608
12
Frame=459  time=230.000fs  energy=-306.19358012Ha  molecule=COOCCCHHHHHH
C      -0.9623759909      0.4338134097      0.4341112581
O       0.3743848779     -0.4090186287      0.2786372261
O       0.9491285256     -0.0434733292      0.0606003999
C       0.0818239688      1.2504046758     -2.1624027727
C       0.2468959497      3.7750593320     -0.0506073583
C       0.4728017961     -1.1341847084      1.2602897383
H       0.0678921370      3.3010104220     -3.3085196979
H      -2.1385303083      0.3102684424     -0.9825642677
H       2.3077847721      2.1605127910     -2.1751381062
H       5.5507422867      0.4298693220     -4.6372308821
H       7.3514614844     -4.8249215649      4.7000534432
H      -2.8023516138      0.2070964859      6.6870876466
12
Frame=460  time=230.500fs  energy=-306.19358012Ha  molecule=COOCCCHHHHHH
C      -0.9645251760      0.4347204196      0.4350949540
O       0.3724683466     -0.4096761285      0.2791643935
O       0.9466731805     -0.0455772463      0.0607592371
C       0.0835398558      1.2501883759     -2.1667435037
C       0.2477271063      3.7780489698     -0.0506453820
C       0.4753590655     -1.1338281469      1.2627880830
H       0.0719107158      3.3051581196     -3.3148152376
H      -2.1458936795      0.3043625439     -0.9863130630
H       2.3149694598      2.1572014465     -2.1796089527
H       5.5637291176      0.4352079002     -4.6465489789
H       7.3710330868     -4.8328909714      4.7075837569
H      -2.8045697245      0.2105233832      6.7031872704
12
Frame=461  time=231.000fs  energy=-306.19358012Ha  molecule=COOCCCHHHHHH
C      -0.9666739798      0.4356272687      0.4360784755
O       0.3705521554     -0.4103335118      0.2796914675
O       0.9442182708     -0.0476807902      0.0609180462
C       0.0852554385      1.2499721144     -2.1710834648
C       0.2485581154      3.7810380774     -0.0506833990
C       0.4779158813     -1.1334716486      1.2652859845
H       0.0759285817      3.3093050815     -3.3211096607
H      -2.1532557447      0.2984576929     -0.9900611935
H       2.3221528733      2.1538906893     -2.1840790062
H       5.5767136451      0.4405455315     -4.6558654231
H       7.3906012180     -4.8408589644      4.7151127351
H      -2.8067874417      0.2139496727      6.7192840386
12
Frame=462  time=231.500fs  energy=-306.19358012Ha  molecule=COOCCCHHHHHH
C      -0.9688224034      0.4365339572      0.4370618229
O       0.3686363032     -0.4109907787      0.2802184481
O       0.9417637956     -0.0497839619      0.0610768272
C       0.0869707175      1.2497558911     -2.1754226578
C       0.2493889775      3.7840266559     -0.0507214093
C       0.4804722446     -1.1331152133      1.2677834440
H       0.0799457366      3.3134513095     -3.3274029697
H      -2.1606165070      0.2925538869     -0.9938086606
H       2.3293350154      2.1505805181     -2.1885482685
H       5.5896958747      0.4458822182     -4.6651802184
H       7.4101658860     -4.8488255472      4.7226403807
H      -2.8090047664      0.2173753559      6.7353779581
12
Frame=463  time=232.000fs  energy=-306.19358012Ha  molecule=COOCCCHHHHHH
C      -0.9709704475      0.4374404857      0.4380449966
O       0.3667207894     -0.4116479296      0.2807453357
O       0.9393097539     -0.0518867621      0.0612355801
C       0.0886856936      1.2495397060     -2.1797610845
C       0.2502196928      3.7870147066     -0.0507594128
C       0.4830281564     -1.1327588411      1.2702804624
H       0.0839621821      3.3175968053     -3.3336951674
H      -2.1679759694      0.2866511236     -0.9975554659
H       2.3365158892      2.1472709314     -2.1930167416
H       5.6026758115      0.4512179624     -4.6744933687
H       7.4297270989     -4.8567907231      4.7301666970
H      -2.8112216996      0.2208004340      6.7514690353
12
Frame=464  time=232.500fs  energy=-306.19358012Ha  molecule=COOCCCHHHHHH
C      -0.9731181131      0.4383468543      0.4390279971
O       0.3648056131     -0.4123049646      0.2812721304
O       0.9368561446     -0.0539891918      0.0613943051
C       0.0904003675      1.2493235591     -2.1840987467
C       0.2510502617      3.7900022308     -0.0507974097
C       0.4855836178     -1.1324025316      1.2727770407
H       0.0879779198      3.3217415706     -3.3399862562
H      -2.1753341348      0.2807494004     -1.0013016109
H       2.3436954975      2.1439619279     -2.1974844273
H       5.6156534610      0.4565527663     -4.6838048778
H       7.4492848647     -4.8647544954      4.7376916870
H      -2.8134382421      0.2242249086      6.7675572769
12
Frame=465  time=233.000fs  energy=-306.19358012Ha  molecule=COOCCCHHHHHH
C      -0.9752654010      0.4392530636      0.4400108247
O       0.3628907736     -0.4129618842      0.2817988325
O       0.9344029668     -0.0560912517      0.0615530021
C       0.0921147399      1.2491074501     -2.1884356461
C       0.2518806846      3.7929892296     -0.0508353998
C       0.4881386299     -1.1320462848      1.2752731801
H       0.0919929513      3.3258856070     -3.3462762388
H      -2.1826910064      0.2748487150     -1.0050470972
H       2.3508738434      2.1406535063     -2.2019513273
H       5.6286288284      0.4618866321     -4.6931147496
H       7.4688391913     -4.8727168673      4.7452153537
H      -2.8156543948      0.2276487810      6.7836426895
12
Frame=466  time=233.500fs  energy=-306.19358012Ha  molecule=COOCCCHHHHHH
C      -0.9774123122      0.4401591139      0.4409934798
O       0.3609762701     -0.4136186884      0.2823254422
O       0.9319502195     -0.0581929429      0.0617116713
C       0.0938288115      1.2488913790     -2.1927717846
C       0.2527109618      3.7959757043     -0.0508733833
C       0.4906931936     -1.1316901005      1.2777688815
H       0.0960072783      3.3300289163     -3.3525651178
H      -2.1900465871      0.2689490650     -1.0087919263
H       2.3580509297      2.1373456653     -2.2064174436
H       5.6416019192      0.4672195620     -4.7024229878
H       7.4883900868     -4.8806778421      4.7527377003
H      -2.8178701587      0.2310720526      6.7997252797
12
Frame=467  time=234.000fs  energy=-306.19358012Ha  molecule=COOCCCHHHHHH
C      -0.9795588475      0.4410650056      0.4419759630
O       0.3590621018     -0.4142753777      0.2828519597
O       0.9294979015     -0.0602942660      0.0618703128
C       0.0955425830      1.2486753458     -2.1971071639
C       0.2535410936      3.7989616561     -0.0509113602
C       0.4932473101     -1.1313339786      1.2802641459
H       0.1000209025      3.3341715002     -3.3588528956
H      -2.1974008799      0.2630504480     -1.0125360997
H       2.3652267593      2.1340384033     -2.2108827779
H       5.6545727385      0.4725515582     -4.7117295962
H       7.5079375592     -4.8886374230      4.7602587299
H      -2.8200855346      0.2344947249      6.8158050540
12
Frame=468  time=234.500fs  energy=-306.19358012Ha  molecule=COOCCCHHHHHH
C      -0.9817050077      0.4419707390      0.4429582744
O       0.3571482679     -0.4149319522      0.2833783852
O       0.9270460121     -0.0623952220      0.0620289265
C       0.0972560550      1.2484593504     -2.2014417857
C       0.2543710804      3.8019470863     -0.0509493304
C       0.4958009803     -1.1309779189      1.2827589743
H       0.1040338255      3.3383133603     -3.3651395748
H      -2.2047538878      0.2571528615     -1.0162796190
H       2.3724013353      2.1307317192     -2.2153473320
H       5.6675412916      0.4778826228     -4.7210345787
H       7.5274816164     -4.8965956133      4.7677784454
H      -2.8223005234      0.2379167992      6.8318820190
12
Frame=469  time=235.000fs  energy=-306.19358012Ha  molecule=COOCCCHHHHHH
C      -0.9838507938      0.4428763144      0.4439404146
O       0.3552347677     -0.4155884122      0.2839047189
O       0.9245945500     -0.0644958118      0.0621875125
C       0.0989692283      1.2482433925     -2.2057756518
C       0.2552009225      3.8049319960     -0.0509872940
C       0.4983542054     -1.1306219212      1.2852533678
H       0.1080460488      3.3424544983     -3.3714251581
H      -2.2121056139      0.2512563032     -1.0200224856
H       2.3795746605      2.1274256116     -2.2198111078
H       5.6805075838      0.4832127580     -4.7303379390
H       7.5470222664     -4.9045524162      4.7752968499
H      -2.8245151261      0.2413382769      6.8479561812
12
Frame=470  time=235.500fs  energy=-306.19358012Ha  molecule=COOCCCHHHHHH
C      -0.9859962067      0.4437817324      0.4449223840
O       0.3533216004     -0.4162447581      0.2844309610
O       0.9221435145     -0.0665960361      0.0623460710
C       0.1006821036      1.2480274723     -2.2101087640
C       0.2560306202      3.8079163864     -0.0510252510
C       0.5009069863     -1.1302659855      1.2877473274
H       0.1120575742      3.3465949159     -3.3777096479
H      -2.2194560610      0.2453607706     -1.0237647011
H       2.3867467378      2.1241200791     -2.2242741071
H       5.6934716205      0.4885419660     -4.7396396808
H       7.5665595171     -4.9125078349      4.7828139466
H      -2.8267293436      0.2447591593      6.8640275471
12
Frame=471  time=236.000fs  energy=-306.19358012Ha  molecule=COOCCCHHHHHH
C      -0.9881412471      0.4446869932      0.4459041829
O       0.3514087651     -0.4169009900      0.2849571118
O       0.9196929044     -0.0686958959      0.0625046019
C       0.1023946816      1.2478115895     -2.2144411240
C       0.2568601739      3.8109002587     -0.0510632014
C       0.5034593240     -1.1299101116      1.2902408541
H       0.1160684032      3.3507346148     -3.3839930469
H      -2.2268052322      0.2394662614     -1.0275062671
H       2.3939175701      2.1208151204     -2.2287363317
H       5.7064334067      0.4938702489     -4.7489398080
H       7.5860933764     -4.9204618727      4.7903297384
H      -2.8289431767      0.2481794480      6.8800961232
12
Frame=472  time=236.500fs  energy=-306.19358012Ha  molecule=COOCCCHHHHHH
C      -0.9902859159      0.4455920971      0.4468858117
O       0.3494962612     -0.4175571083      0.2854831715
O       0.9172427187     -0.0707953919      0.0626631054
C       0.1041069629      1.2475957442     -2.2187727336
C       0.2576895839      3.8138836143     -0.0511011452
C       0.5060112197     -1.1295542993      1.2927339489
H       0.1200785375      3.3548735967     -3.3902753574
H      -2.2341531304      0.2335727732     -1.0312471849
H       2.4010871603      2.1175107342     -2.2331977834
H       5.7193929478      0.4991976089     -4.7582383243
H       7.6056238522     -4.9284145327      4.7978442283
H      -2.8311566263      0.2515991442      6.8961619161
12
Frame=473  time=237.000fs  energy=-306.19358012Ha  molecule=COOCCCHHHHHH
C      -0.9924302141      0.4464970447      0.4478672709
O       0.3475840879     -0.4182131131      0.2860091402
O       0.9147929566     -0.0728945251      0.0628215815
C       0.1058189483      1.2473799361     -2.2231035946
C       0.2585188506      3.8168664541     -0.0511390825
C       0.5085626743     -1.1291985485      1.2952266127
H       0.1240879787      3.3590118632     -3.3965565822
H      -2.2414997587      0.2276803037     -1.0349874562
H       2.4082555114      2.1142069191     -2.2376584639
H       5.7323502490      0.5045240481     -4.7675352335
H       7.6251509524     -4.9363658182      4.8053574195
H      -2.8333696934      0.2550182494      6.9122249322
12
Frame=474  time=237.500fs  energy=-306.19358012Ha  molecule=COOCCCHHHHHH
C      -0.9945741424      0.4474018361      0.4488485608
O       0.3456722443     -0.4188690048      0.2865350183
O       0.9123436170     -0.0749932962      0.0629800303
C       0.1075306384      1.2471641652     -2.2274337086
C       0.2593479742      3.8198487796     -0.0511770132
C       0.5111136888     -1.1288428591      1.2977188467
H       0.1280967284      3.3631494160     -3.4028367236
H      -2.2488451199      0.2217888504     -1.0387270824
H       2.4154226262      2.1109036738     -2.2421183752
H       5.7453053155      0.5098495687     -4.7768305393
H       7.6446746848     -4.9443157324      4.8128693149
H      -2.8355823787      0.2584367649      6.9282851780
