12
Frame=0  time=0.500fs  energy=-306.21111314Ha  molecule=COOCCCHHHHHH
C      -0.0120707278      0.0240179685     -0.0449775832
O       1.2520248016     -0.1400810320      0.0039221892
O       2.0834562181      0.9130510527      0.0321047191
C      -0.7003373844      1.3163204194     -0.0765827442
C      -0.1356618146      2.5378437541      0.0160117911
C      -0.7429529144     -1.2720894266      0.0083998568
H      -1.7298203790      1.2022450623     -0.1574992976
H       0.9148475494      2.6850874276      0.0835686205
H      -0.8046997023      3.4057846220      0.0377390684
H       0.0103182552     -2.0876778581     -0.0681359324
H      -1.2412051701     -1.3859565453      0.9562230541
H      -1.4933487327     -1.3366694246     -0.7607457715
12
Frame=1  time=1.000fs  energy=-306.20278368Ha  molecule=COOCCCHHHHHH
C      -0.0113922366      0.0148556446     -0.0433894896
O       1.2539281947     -0.1448283429      0.0000907563
O       2.0866017658      0.9144205294      0.0333528920
C      -0.7077608467      1.3246188804     -0.0754539296
C      -0.1337470948      2.5409944146      0.0156738520
C      -0.7484405089     -1.2719415298      0.0065740335
H      -1.6945820298      1.1923578790     -0.1704970824
H       0.9000282288      2.7041086978      0.0804895264
H      -0.8167038710      3.4007268798      0.0646359365
H       0.0298743450     -2.0774847757     -0.0540710938
H      -1.2141925064     -1.3892615261      0.9424624126
H      -1.5055226131     -1.3230303679     -0.7374574498
12
Frame=2  time=1.500fs  energy=-306.19800372Ha  molecule=COOCCCHHHHHH
C      -0.0107159584      0.0066475365     -0.0420930159
O       1.2556483555     -0.1494783999     -0.0037042749
O       2.0894887285      0.9155791041      0.0346080695
C      -0.7125662528      1.3321526850     -0.0746436982
C      -0.1330107048      2.5442919988      0.0155872697
C      -0.7520584326     -1.2719430804      0.0047000291
H      -1.6851376188      1.1832007891     -0.1838604320
H       0.8969642072      2.7234435899      0.0787410075
H      -0.8276805538      3.3963027659      0.0907040649
H       0.0443443669     -2.0647149816     -0.0428089839
H      -1.1962357813     -1.3946533529      0.9440042623
H      -1.5229400563     -1.3119833779     -0.7226438545
12
Frame=3  time=2.000fs  energy=-306.19964358Ha  molecule=COOCCCHHHHHH
C      -0.0100718319     -0.0002736396     -0.0411851909
O       1.2571492993     -0.1540166113     -0.0074599695
O       2.0920417641      0.9164547543      0.0358846338
C      -0.7143861141      1.3386330737     -0.0742643796
C      -0.1335314376      2.5478352104      0.0158469647
C      -0.7535578726     -1.2721062195      0.0028773842
H      -1.7040055027      1.1753198053     -0.1973697289
H       0.9058650263      2.7427318245      0.0784651344
H      -0.8375218869      3.3928321990      0.1156772790
H       0.0530549648     -2.0497859962     -0.0352621251
H      -1.1883717291     -1.4022255290      0.9626819000
H      -1.5459713358     -1.3041667990     -0.7174186227
12
Frame=4  time=2.500fs  energy=-306.20358484Ha  molecule=COOCCCHHHHHH
C      -0.0095195257     -0.0056165458     -0.0406789740
O       1.2584461849     -0.1584103990     -0.0111559928
O       2.0942508052      0.9170190787      0.0371659796
C      -0.7135548967      1.3437487502     -0.0742982957
C      -0.1350618286      2.5517162865      0.0164838734
C      -0.7532741751     -1.2724052395      0.0012459200
H      -1.7456549608      1.1696082558     -0.2106159949
H       0.9228412116      2.7610527837      0.0796099095
H      -0.8459386455      3.3903415790      0.1390750726
H       0.0563922501     -2.0342598341     -0.0321458424
H      -1.1889921216     -1.4113689928      0.9956005179
H      -1.5728781825     -1.2998607368     -0.7201983388
12
Frame=5  time=3.000fs  energy=-306.20441124Ha  molecule=COOCCCHHHHHH
C      -0.0091382766     -0.0091483811     -0.0405532789
O       1.2595755811     -0.1626087350     -0.0147599709
O       2.0961281218      0.9172600975      0.0384169673
C      -0.7108915627      1.3472418678     -0.0746745294
C      -0.1371553144      2.5559667856      0.0175099513
C      -0.7519242262     -1.2727933897      0.0000027120
H      -1.7990031829      1.1670887843     -0.2231273001
H       0.9418326392      2.7772354219      0.0820508622
H      -0.8527221099      3.3889195695      0.1602979603
H       0.0556124242     -2.0204368231     -0.0339909238
H      -1.1944707307     -1.4210123228      1.0365316102
H      -1.6006250968     -1.2990310624     -0.7275150225
12
Frame=6  time=3.500fs  energy=-306.20096398Ha  molecule=COOCCCHHHHHH
C      -0.0090042729     -0.0107694857     -0.0408101331
O       1.2605680066     -0.1665764088     -0.0182541091
O       2.0976717888      0.9171581650      0.0396189553
C      -0.7073952134      1.3490422072     -0.0753775190
C      -0.1393301288      2.5605359985      0.0189614823
C      -0.7503080977     -1.2732245547     -0.0005989885
H      -1.8513070459      1.1685534358     -0.2346594456
H       0.9570375156      2.7903822914      0.0857367763
H      -0.8581144515      3.3890635768      0.1789338136
H       0.0526202871     -2.0106750920     -0.0410843434
H      -1.2002048782     -1.4300464772      1.0783020930
H      -1.6262659649     -1.3013638300     -0.7352875183
12
Frame=7  time=4.000fs  energy=-306.19622387Ha  molecule=COOCCCHHHHHH
C      -0.0091690748     -0.0105395976     -0.0414875914
O       1.2614397440     -0.1703153009     -0.0216500791
O       2.0988635895      0.9166847259      0.0407873267
C      -0.7039567982      1.3493007514     -0.0764774505
C      -0.1412193380      2.5653162976      0.0209003468
C      -0.7490689155     -1.2736728490     -0.0003035489
H      -1.8917544907      1.1743378273     -0.2452920212
H       0.9646135277      2.8001732530      0.0907228784
H      -0.8627830331      3.3915689461      0.1949104000
H       0.0494556847     -2.0067327255     -0.0534405338
H      -1.2018861099     -1.4376584520      1.1149489338
H      -1.6478982539     -1.3063549232     -0.7399944462
12
Frame=8  time=4.500fs  energy=-306.19374573Ha  molecule=COOCCCHHHHHH
C      -0.0096512368     -0.0086208078     -0.0426337460
O       1.2621966168     -0.1738459519     -0.0249762106
O       2.0996861338      0.9158147429      0.0419554420
C      -0.7011831744      1.3482975978     -0.0780746661
C      -0.1426515960      2.5701831518      0.0233864535
C      -0.7485953719     -1.2741452437      0.0010736291
H      -1.9133590390      1.1843281144     -0.2552414584
H       0.9631042894      2.8067793793      0.0970975012
H      -0.8673906166      3.3970550454      0.2083539750
H       0.0476406894     -2.0094007272     -0.0708464736
H      -1.1964741898     -1.4434162800      1.1426779716
H      -1.6647253742     -1.3134376209     -0.7392775111
12
Frame=9  time=5.000fs  energy=-306.19507964Ha  molecule=COOCCCHHHHHH
C      -0.0104384460     -0.0052005061     -0.0442746360
O       1.2628372937     -0.1771681139     -0.0282506947
O       2.1001361087      0.9145380175      0.0431434289
C      -0.6993485740      1.3463255375     -0.0802229235
C      -0.1436586695      2.5750166349      0.0264507431
C      -0.7490339692     -1.2746851569      0.0035944230
H      -1.9132190114      1.1980680349     -0.2645892382
H       0.9530565036      2.8105938127      0.1048862554
H      -0.8721242521      3.4055006181      0.2193314076
H       0.0477208670     -2.0184253769     -0.0929075748
H      -1.1826050377     -1.4471835004      1.1597547869
H      -1.6765991407     -1.3220693087     -0.7319937922
12
Frame=10  time=5.500fs  energy=-306.19933200Ha  molecule=COOCCCHHHHHH
C      -0.0114907739     -0.0004577761     -0.0463969923
O       1.2633523070     -0.1802325158     -0.0314619733
O       2.1002269110      0.9128643462      0.0443364990
C      -0.6984205356      1.3436323649     -0.0828847588
C      -0.1444428712      2.5797015887      0.0300818712
C      -0.7503333153     -1.2753657723      0.0071774777
H      -1.8920884477      1.2148266393     -0.2731313379
H       0.9365312094      2.8120372076      0.1139944603
H      -0.8764809759      3.4160433363      0.2276983533
H       0.0491583299     -2.0325855748     -0.1190330621
H      -1.1605840463     -1.4490256493      1.1660711069
H      -1.6836127960     -1.3317449396     -0.7180394235
12
Frame=11  time=6.000fs  energy=-306.20406066Ha  molecule=COOCCCHHHHHH
C      -0.0127423231      0.0054225613     -0.0489521126
O       1.2637219966     -0.1829447066     -0.0345702176
O       2.0999842952      0.9108215580      0.0454861796
C      -0.6981116352      1.3404276810     -0.0859382641
C      -0.1453245357      2.5841265462      0.0342296574
C      -0.7522782751     -1.2762734364      0.0116089815
H      -1.8538833169      1.2336276744     -0.2804325099
H       0.9167235475      2.8115228797      0.1242158063
H      -0.8794094824      3.4271359805      0.2331486653
H       0.0505609953     -2.0498830186     -0.1484112944
H      -1.1321489380     -1.4491944339      1.1628941138
H      -1.6860204650     -1.3419799611     -0.6981660423
12
Frame=12  time=6.500fs  energy=-306.20679060Ha  molecule=COOCCCHHHHHH
C      -0.0141049213      0.0122199254     -0.0518773103
O       1.2639165167     -0.1851979110     -0.0375270676
O       2.0994383220      0.9084470028      0.0465326836
C      -0.6979472778      1.3369189939     -0.0892278141
C      -0.1466654022      2.5881913324      0.0388219314
C      -0.7545176182     -1.2774841917      0.0165871489
H      -1.8050796539      1.2533052870     -0.2860396079
H       0.8974789199      2.8095091350      0.1353012329
H      -0.8797494158      3.4370310635      0.2354083468
H       0.0501627398     -2.0678843161     -0.1800475242
H      -1.1000485421     -1.4481629317      1.1527811603
H      -1.6844212553     -1.3523117018     -0.6738197401
12
Frame=13  time=7.000fs  energy=-306.20645229Ha  molecule=COOCCCHHHHHH
C      -0.0154781340      0.0196675623     -0.0551239208
O       1.2638994716     -0.1869157890     -0.0403013922
O       2.0986150041      0.9057751108      0.0474349814
C      -0.6973565097      1.3333369074     -0.0926308814
C      -0.1487699092      2.5918209830      0.0437880673
C      -0.7566070389     -1.2790399825      0.0217940110
H      -1.7537164816      1.2726332430     -0.2897259818
H       0.8825078700      2.8065241380      0.1470545744
H      -0.8767730110      3.4444173654      0.2344397826
H       0.0464031971     -2.0842142576     -0.2128956939
H      -1.0674598866     -1.4466341109      1.1393888441
H      -1.6799794747     -1.3623374508     -0.6469482715
12
Frame=14  time=7.500fs  energy=-306.20386785Ha  molecule=COOCCCHHHHHH
C      -0.0167648355      0.0274764241     -0.0586756811
O       1.2636341859     -0.1880783447     -0.0428947170
O       2.0975314195      0.9028269968      0.0481891820
C      -0.6957857142      1.3299262653     -0.0961012448
C      -0.1517944671      2.5949748273      0.0490781859
C      -0.7580813553     -1.2809317534      0.0269680868
H      -1.7079097044      1.2905064898     -0.2916133991
H       0.8744591001      2.8030974970      0.1593999317
H      -0.8705394933      3.4488886144      0.2305165279
H       0.0384028347     -2.0970837446     -0.2460302059
H      -1.0373640876     -1.4454595402      1.1269481830
H      -1.6744309198     -1.3717620826     -0.6197324606
12
Frame=15  time=8.000fs  energy=-306.20096070Ha  molecule=COOCCCHHHHHH
C      -0.0178854580      0.0353748576     -0.0625446486
O       1.2630900793     -0.1887148954     -0.0453360524
O       2.0961973158      0.8996094722      0.0488229491
C      -0.6928141684      1.3269104814     -0.0996610041
C      -0.1557065976      2.5976416338      0.0546661812
C      -0.7585442826     -1.2830935757      0.0319421729
H      -1.6742412573      1.3060898479     -0.2920966991
H       0.8743045442      2.7996308888      0.1723738076
H      -0.8618584170      3.4509700848      0.2241240349
H       0.0261672933     -2.1056483654     -0.2787421181
H      -1.0120814424     -1.4454755277      1.1194534804
H      -1.6697816620     -1.3804051939     -0.5942707085
12
Frame=16  time=8.500fs  energy=-306.19939029Ha  molecule=COOCCCHHHHHH
C      -0.0187846379      0.0431341848     -0.0667468232
O       1.2622474797     -0.1888733311     -0.0476613461
O       2.0946228121      0.8961251978      0.0493716019
C      -0.6882389944      1.3244553266     -0.1033502404
C      -0.1603070574      2.5998242556      0.0605349934
C      -0.7577466898     -1.2854084865      0.0366334350
H      -1.6566067932      1.3188664385     -0.2916395546
H       0.8813258566      2.7962962092      0.1860465359
H      -0.8519242748      3.4517245945      0.2157734391
H       0.0104986077     -2.1100578767     -0.3105003467
H      -0.9930712148     -1.4473272331      1.1198516950
H      -1.6678346529     -1.3881499205     -0.5722902231
12
Frame=17  time=9.000fs  energy=-306.19964204Ha  molecule=COOCCCHHHHHH
C      -0.0194303338      0.0505687407     -0.0712737440
O       1.2611007687     -0.1885904957     -0.0498929897
O       2.0928276925      0.8923874976      0.0498538662
C      -0.6821074081      1.3226530567     -0.1071720290
C      -0.1652898028      2.6015255751      0.0666554328
C      -0.7556288657     -1.2877250379      0.0410070499
H      -1.6558591459      1.3285940555     -0.2905860098
H       0.8935799399      2.7930223077      0.2004274558
H      -0.8418868447      3.4522329220      0.2058598373
H      -0.0072742005     -2.1112233014     -0.3408340855
H      -0.9809281426     -1.4513528665      1.1295162378
H      -1.6697809665     -1.3948670877     -0.5549388024
12
Frame=18  time=9.500fs  energy=-306.20103569Ha  molecule=COOCCCHHHHHH
C      -0.0198101303      0.0575232304     -0.0760780818
O       1.2596599727     -0.1878822195     -0.0520320080
O       2.0908463866      0.8884298695      0.0502624406
C      -0.6746936140      1.3215295455     -0.1110685403
C      -0.1703076868      2.6027451626      0.0729739902
C      -0.7523183260     -1.2898823459      0.0450464196
H      -1.6701766233      1.3352301252     -0.2890897728
H       0.9085290584      2.7895700798      0.2154147097
H      -0.8325867582      3.4532460460      0.1946320762
H      -0.0256044636     -2.1104476891     -0.3692501484
H      -0.9754463348     -1.4575581958      1.1481312147
H      -1.6760197685     -1.4003674188     -0.5426725411
12
Frame=19  time=10.000fs  energy=-306.20240385Ha  molecule=COOCCCHHHHHH
C      -0.0199284502      0.0638663129     -0.0810811318
O       1.2579500674     -0.1867536752     -0.0540649838
O       2.0887252520      0.8843039434      0.0505722758
C      -0.6664313073      1.3210645184     -0.1149386859
C      -0.1750287152      2.6034870444      0.0794179476
C      -0.7480874710     -1.2917386512      0.0487471397
H      -1.6958734141      1.3388754106     -0.2871658444
H       0.9236110527      2.7856537442      0.2308155894
H      -0.8245112636      3.4551109844      0.1822500264
H      -0.0429899150     -2.1090723875     -0.3952553609
H      -0.9757017639     -1.4656724378      1.1739696593
H      -1.6862353881     -1.4044102834     -0.5352486425
12
Frame=20  time=10.500fs  energy=-306.20285713Ha  molecule=COOCCCHHHHHH
C      -0.0198047061      0.0694967499     -0.0861959472
O       1.2560073314     -0.1852174349     -0.0559783545
O       2.0865137103      0.8800676516      0.0507582138
C      -0.6578220143      1.3212133921     -0.1186804715
C      -0.1791791104      2.6037708700      0.0859135549
C      -0.7432849453     -1.2931950314      0.0521280293
H      -1.7283631043      1.3397433526     -0.2847980608
H       0.9366590295      2.7810543066      0.2464161629
H      -0.8178897106      3.4578898449      0.1688617038
H      -0.0581556036     -2.1082297865     -0.4184602431
H      -0.9801951652     -1.4752543858      1.2044497048
H      -1.6996526774     -1.4067563443     -0.5318378263
12
Frame=21  time=11.000fs  energy=-306.20216356Ha  molecule=COOCCCHHHHHH
C      -0.0194705765      0.0743545037     -0.0913515563
O       1.2538734851     -0.1833053844     -0.0577701956
O       2.0842544153      0.8757712678      0.0508100392
C      -0.6493456395      1.3219234688     -0.1222297379
C      -0.1825698379      2.6036375112      0.0924051536
C      -0.7382623939     -1.2942065180      0.0552411687
H      -1.7630407142      1.3381350431     -0.2820253512
H       0.9461421596      2.7756843532      0.2620532433
H      -0.8128164560      3.4615281040      0.1546464711
H      -0.0701545873     -2.1087252705     -0.4386818920
H      -0.9870902720     -1.4858081132      1.2367757037
H      -1.7153399628     -1.4072266700     -0.5312406257
12
Frame=22  time=11.500fs  energy=-306.20065465Ha  molecule=COOCCCHHHHHH
C      -0.0189655361      0.0784256735     -0.0965059161
O       1.2515896906     -0.1810686635     -0.0594537629
O       2.0819774220      0.8714488919      0.0507374998
C      -0.6413966835      1.3231424910     -0.1255754929
C      -0.1851034991      2.6031455014      0.0988647088
C      -0.7333183736     -1.2947786187      0.0581684436
H      -1.7959223579      1.3344036419     -0.2789669672
H       0.9512305366      2.7695933501      0.2776506024
H      -0.8093299634      3.4659670736      0.1398120993
H      -0.0783968755     -2.1110222387     -0.4559775308
H      -0.9945089402     -1.4968726056      1.2684618364
H      -1.7324428228     -1.4057358450     -0.5321443054
12
Frame=23  time=12.000fs  energy=-306.19889130Ha  molecule=COOCCCHHHHHH
C      -0.0183315591      0.0817364641     -0.1016442917
O       1.2491924812     -0.1785688358     -0.0610533227
O       2.0797001101      0.8671182487      0.0505655012
C      -0.6342563627      1.3248211293     -0.1287501512
C      -0.1867636484      2.6023613274      0.1052889408
C      -0.7286708412     -1.2949538037      0.0610048725
H      -1.8239817934      1.3289102418     -0.2757944941
H       0.9517232773      2.7629314588      0.2932106388
H      -0.8074344998      3.4711716162      0.1245662059
H      -0.0826259723     -2.1152845661     -0.4705973288
H      -1.0007971319     -1.5080682936      1.2976207010
H      -1.7502960928     -1.4022904657     -0.5333423831
12
Frame=24  time=12.500fs  energy=-306.19736289Ha  molecule=COOCCCHHHHHH
C      -0.0176085994      0.0843394155     -0.1067679610
O       1.2467124161     -0.1758671715     -0.0625965360
O       2.0774312868      0.8627866395      0.0503245843
C      -0.6280953766      1.3269121069     -0.1318061456
C      -0.1875942193      2.6013492853      0.1116883653
C      -0.7244558453     -1.2947951894      0.0638373543
H      -1.8452231152      1.3219844528     -0.2726829126
H       0.9479050410      2.7559006048      0.3087777751
H      -0.8070860489      3.4770997251      0.1090886662
H      -0.0828664870     -2.1214374664     -0.4828926093
H      -1.0046947354     -1.5191048271      1.3230221178
H      -1.7684297582     -1.3969653217     -0.5338691828
12
Frame=25  time=13.000fs  energy=-306.19634231Ha  molecule=COOCCCHHHHHH
C      -0.0168318298      0.0862983905     -0.1118807784
O       1.2441748698     -0.1730171327     -0.0641076002
O       2.0751765615      0.8584587851      0.0500420278
C      -0.6229938326      1.3293682227     -0.1347923702
C      -0.1876777311      2.6001649506      0.1180748070
C      -0.7207418528     -1.2943728960      0.0667275846
H      -1.8585839515      1.3139007683     -0.2697695522
H       0.9403919804      2.7487140882      0.3243969207
H      -0.8081703027      3.4836560337      0.0935192795
H      -0.0793627629     -2.1292259160     -0.4932253301
H      -1.0053948447     -1.5297664681      1.3440059765
H      -1.7865180906     -1.3898751586     -0.5330464445
12
Frame=26  time=13.500fs  energy=-306.19588014Ha  molecule=COOCCCHHHHHH
C      -0.0160306467      0.0876772505     -0.1169791548
O       1.2416017390     -0.1700615498     -0.0656033029
O       2.0729426494      0.8541430645      0.0497364902
C      -0.6189655067      1.3321406515     -0.1377386833
C      -0.1871177382      2.5988532201      0.1244521746
C      -0.7175488125     -1.2937551782      0.0697034909
H      -1.8637634234      1.3048731586     -0.2671339788
H       0.9300019086      2.7415723611      0.3400834622
H      -0.8104909652      3.4906597497      0.0779608678
H      -0.0725202117     -2.1382652862     -0.5019073280
H      -1.0025178676     -1.5398916755      1.3603420587
H      -1.8043182405     -1.3811537633     -0.5304667956
12
Frame=27  time=14.000fs  energy=-306.19587155Ha  molecule=COOCCCHHHHHH
C      -0.0152288603      0.0885339296     -0.1220476692
O       1.2390129716     -0.1670334247     -0.0670921721
O       2.0707395261      0.8498545026      0.0494166022
C      -0.6159787531      1.3351781896     -0.1406505120
C      -0.1860268994      2.5974497288      0.1308123703
C      -0.7148650344     -1.2930039076      0.0727592480
H      -1.8610385449      1.2950632900     -0.2647982951
H       0.9176562335      2.7346526389      0.3558108418
H      -0.8137748113      3.4978392608      0.0624907420
H      -0.0628533323     -2.1480860937     -0.5091757867
H      -0.9960374649     -1.5493572061      1.3720981071
H      -1.8216248292     -1.3709433478     -0.5259442541
12
Frame=28  time=14.500fs  energy=-306.19613991Ha  molecule=COOCCCHHHHHH
C      -0.0144454038      0.0889191326     -0.1270599207
O       1.2364273132     -0.1639584591     -0.0685758528
O       2.0685804461      0.8456144877      0.0490824890
C      -0.6139715371      1.3384276513     -0.1435116466
C      -0.1845194247      2.5959837701      0.1371359550
C      -0.7126592821     -1.2921729712      0.0758615827
H      -1.8510993929      1.2845951521     -0.2627408380
H       0.9043058286      2.7281063626      0.3715140466
H      -0.8176920024      3.5048519922      0.0471729815
H      -0.0509401098     -2.1581754703     -0.5151971833
H      -0.9861887062     -1.5580701100      1.3795404592
H      -1.8382482452     -1.3593914853     -0.5194549084
12
Frame=29  time=15.000fs  energy=-306.19650549Ha  molecule=COOCCCHHHHHH
C      -0.0136951045      0.0888777926     -0.1319828200
O       1.2338622072     -0.1608577361     -0.0700515642
O       2.0664804818      0.8414482016      0.0487287899
C      -0.6128612907      1.3418352579     -0.1462917619
C      -0.1827059214      2.5944811607      0.1433959614
C      -0.7108883221     -1.2913081927      0.0789593836
H      -1.8349112084      1.2735698550     -0.2609152981
H       0.8908705065      2.7220593192      0.3871033529
H      -0.8218862284      3.5113209558      0.0320669653
H      -0.0373817252     -2.1680157111     -0.5200869430
H      -0.9733775825     -1.5659661787      1.3830670543
H      -1.8540126942     -1.3466512355     -0.5110815426
12
Frame=30  time=15.500fs  energy=-306.19682746Ha  molecule=COOCCCHHHHHH
C      -0.0129893215      0.0884514544     -0.1367821678
O       1.2313331444     -0.1577497019     -0.0715146631
O       2.0644544512      0.8373810953      0.0483479288
C      -0.6125514410      1.3453485987     -0.1489552776
C      -0.1806891963      2.5929661742      0.1495629319
C      -0.7095013333     -1.2904478361      0.0819938991
H      -1.8136020108      1.2620769190     -0.2592690419
H       0.8781865681      2.7166116345      0.4024818040
H      -0.8260079753      3.5168773133      0.0172309434
H      -0.0227675951     -2.1771181098     -0.5239331556
H      -0.9581022058     -1.5730113952      1.3831628507
H      -1.8687654888     -1.3328811227     -0.5009687845
12
Frame=31  time=16.000fs  energy=-306.19701977Ha  molecule=COOCCCHHHHHH
C      -0.0123364275      0.0876803366     -0.1414277602
O       1.2288528623     -0.1546512195     -0.0729607027
O       2.0625149707      0.8334355687      0.0479328116
C      -0.6129362877      1.3489186645     -0.1514690924
C      -0.1785604824      2.5914623086      0.1556096104
C      -0.7084426256     -1.2896232042      0.0849075704
H      -1.7883721872      1.2502008589     -0.2577569719
H       0.8669627431      2.7118370123      0.4175611752
H      -0.8297447659      3.5211994639      0.0027215811
H      -0.0076466987     -2.1850497328     -0.5268166285
H      -0.9408903517     -1.5792031715      1.3803675382
H      -1.8823893880     -1.3182434155     -0.4892907189
12
Frame=32  time=16.500fs  energy=-306.19704795Ha  molecule=COOCCCHHHHHH
C      -0.0117421911      0.0866045033     -0.1458969910
O       1.2264307157     -0.1515778473     -0.0743867378
O       2.0606710853      0.8296285707      0.0474785817
C      -0.6139052630      1.3525015485     -0.1538079115
C      -0.1763962633      2.5899920923      0.1615143644
C      -0.7076536752     -1.2888591551      0.0876504532
H      -1.7604229627      1.2380236007     -0.2563496458
H       0.8577481646      2.7077818481      0.4322733745
H      -0.8328439341      3.5240421408     -0.0114087516
H       0.0074938281     -2.1914516648     -0.5288238142
H      -0.9222543370     -1.5845694686      1.3752490615
H      -1.8948123853     -1.3029006407     -0.4762300860
12
Frame=33  time=17.000fs  energy=-306.19691596Ha  molecule=COOCCCHHHHHH
C      -0.0112101221      0.0852641040     -0.1501766339
O       1.2240723948     -0.1485436503     -0.0757919026
O       2.0589276238      0.8259703760      0.0469834206
C      -0.6153469738      1.3560595774     -0.1559569092
C      -0.1742561626      2.5885763403      0.1672630338
C      -0.7070749838     -1.2881745272      0.0901839914
H      -1.7309013838      1.2256241189     -0.2550361174
H       0.8509160721      2.7044652043      0.4465763513
H      -0.8351257320      3.5252525048     -0.0251152380
H       0.0222425136     -2.1960486637     -0.5300524299
H      -0.9026618347     -1.5891653234      1.3683802577
H      -1.9060123259     -1.2870110995     -0.4619666878
12
Frame=34  time=17.500fs  energy=-306.19665081Ha  molecule=COOCCCHHHHHH
C      -0.0107418200      0.0836989319     -0.1542630075
O       1.2217800152     -0.1455608429     -0.0771774296
O       2.0572852094      0.8224644417      0.0464485948
C      -0.6171530088      1.3595618162     -0.1579121454
C      -0.1721822628      2.5872332788      0.1728493588
C      -0.7066478981     -1.2875825258      0.0924824606
H      -1.7008598363      1.2130767855     -0.2538228783
H       0.8466645885      2.7018803391      0.4604551159
H      -0.8364867083      3.5247733421     -0.0383632479
H       0.0362702963     -2.1986513837     -0.5306114412
H      -0.8825198556     -1.5930673189      1.3603183425
H      -1.9160160801     -1.2707243557     -0.4466721495
12
Frame=35  time=18.000fs  energy=-306.19628956Ha  molecule=COOCCCHHHHHH
C      -0.0103373327      0.0819476300     -0.1581609810
O       1.2195525126     -0.1426394731     -0.0785463234
O       2.0557407412      0.8191080623      0.0458780206
C      -0.6192213190      1.3629840221     -0.1596794378
C      -0.1701999185      2.5859778391      0.1782743658
C      -0.7063163278     -1.2870911253      0.0945326725
H      -1.6712282224      1.2004495706     -0.2527304848
H       0.8450328002      2.6999979272      0.4739192234
H      -0.8368949019      3.5226356439     -0.0511298103
H       0.0493313380     -2.1991529494     -0.5306176415
H      -0.8621686141     -1.5963669841      1.3515878949
H      -1.9248943605     -1.2541774552     -0.4305084195
12
Frame=36  time=18.500fs  energy=-306.19587055Ha  molecule=COOCCCHHHHHH
C      -0.0099955156      0.0800468284     -0.1618823180
O       1.2173862292     -0.1397872508     -0.0799028732
O       2.0542881411      0.8158934955      0.0452775920
C      -0.6214589755      1.3663081871     -0.1612723877
C      -0.1683198134      2.5848212732      0.1835451301
C      -0.7060282492     -1.2867035236      0.0963325688
H      -1.6427969707      1.1878027415     -0.2517892109
H       0.8459279181      2.6987706048      0.4869981969
H      -0.8363792575      3.5189439082     -0.0634038680
H       0.0612592957     -2.1975217208     -0.5301907846
H      -0.8418821475     -1.5991640913      1.3426678896
H      -1.9327537361     -1.2374922774     -0.4136280268
12
Frame=37  time=19.000fs  energy=-306.19542836Ha  molecule=COOCCCHHHHHH
C      -0.0097143693      0.0780303939     -0.1654437652
O       1.2152755851     -0.1370095440     -0.0812521332
O       2.0529191971      0.8128092844      0.0446544505
C      -0.6237841786      1.3695218209     -0.1627101040
C      -0.1665408118      2.5837711075      0.1886732671
C      -0.7057369014     -1.2864186614      0.0978892360
H      -1.6162091802      1.1751882819     -0.2510346532
H       0.8491582166      2.6981381947      0.4997361016
H      -0.8350158443      3.5138576247     -0.0751855290
H       0.0719603890     -2.1937917726     -0.5294486269
H      -0.8218730997     -1.6015605659      1.3339828580
H      -1.9397272983     -1.2207741023     -0.3961748295
12
Frame=38  time=19.500fs  energy=-306.19499144Ha  molecule=COOCCCHHHHHH
C      -0.0094913404      0.0759288819     -0.1688651696
O       1.2132137485     -0.1343095217     -0.0825994472
O       2.0516243872      0.8098415776      0.0440163060
C      -0.6261274834      1.3726171046     -0.1640149814
C      -0.1648531174      2.5828313810      0.1936733989
C      -0.7054016331     -1.2862318049      0.0992167255
H      -1.5919603707      1.1626499796     -0.2505038216
H       0.8544667218      2.6980329313      0.5121861183
H      -0.8329131517      3.5075719070     -0.0864846219
H       0.0814043821     -2.1880521976     -0.5285026374
H      -0.8022997293     -1.6036554140      1.3258978203
H      -1.9459651049     -1.2041112746     -0.3782845934
12
Frame=39  time=20.000fs  energy=-306.19458140Ha  molecule=COOCCCHHHHHH
C      -0.0093235717      0.0737692140     -0.1721677923
O       1.2111932498     -0.1316884027     -0.0839500550
O       2.0503936125      0.8069753250      0.0433708637
C      -0.6284322749      1.3755900154     -0.1652107405
C      -0.1632413189      2.5820030742      0.1985617494
C      -0.7049883928     -1.2861351822      0.1003339380
H      -1.5704044528      1.1502240007     -0.2502319639
H       0.8615617998      2.6983841422      0.5244056317
H      -0.8301981784      3.5002994621     -0.0973188579
H       0.0896143631     -2.1804359875     -0.5274547078
H      -0.7832737931     -1.6055408305      1.3187164010
H      -1.9516251854     -1.1875757425     -0.3600851453
12
Frame=40  time=20.500fs  energy=-306.19421309Ha  molecule=COOCCCHHHHHH
C      -0.0092080979      0.0715745660     -0.1753729111
O       1.2092065032     -0.1291457654     -0.0853087933
O       2.0492168037      0.8041952798      0.0427253798
C      -0.6306545762      1.3784394959     -0.1663208306
C      -0.1616870440      2.5812846424      0.2033549546
C      -0.7044698881     -1.2861186552      0.1012627258
H      -1.5517645986      1.1379397385     -0.2502501990
H       0.8701423173      2.6991220552      0.5364521189
H      -0.8270044255      3.4922552661     -0.1077118571
H       0.0966560257     -2.1711090114     -0.5263949388
H      -0.7648684125     -1.6072994827      1.3126814839
H      -1.9568656100     -1.1712242213     -0.3416960741
12
Frame=41  time=21.000fs  energy=-306.19389519Ha  molecule=COOCCCHHHHHH
C      -0.0091419856      0.0693644337     -0.1785007468
O       1.2072462205     -0.1266798798     -0.0866798911
O       2.0480843865      0.8014867787      0.0420863499
C      -0.6327623063      1.3811667158     -0.1673672311
C      -0.1601710790      2.5806725764      0.2080691279
C      -0.7038254517     -1.2861704075      0.1020262982
H      -1.5361477068      1.1258207479     -0.2505839326
H       0.8799164747      2.7001806082      0.5483799630
H      -0.8234623568      3.4836446072     -0.1176912411
H       0.1026270231     -2.1602594761     -0.5254004361
H      -0.7471253647     -1.6090028750      1.3079778076
H      -1.9618379145     -1.1550997422     -0.3232280559
12
Frame=42  time=21.500fs  energy=-306.19363112Ha  molecule=COOCCCHHHHHH
C      -0.0091224237      0.0671548331     -0.1815697169
O       1.2053057104     -0.1242880297     -0.0880668515
O       2.0469876054      0.7988362943      0.0414593197
C      -0.6347341234      1.3837744553     -0.1683696456
C      -0.1586749240      2.5801619405      0.2127191909
C      -0.7030406646     -1.2862776223      0.1026479621
H      -1.5235611784      1.1138856261     -0.2512519803
H       0.8906145010      2.7014993026      0.5602382135
H      -0.8196924675      3.4746546076     -0.1272869348
H       0.1076468712     -2.1480881785     -0.5245349853
H      -0.7300614926     -1.6107106460      1.3047359907
H      -1.9666820115     -1.1392333768     -0.3047819267
12
Frame=43  time=22.000fs  energy=-306.19342013Ha  molecule=COOCCCHHHHHH
C      -0.0091467701      0.0649585939     -0.1845959909
O       1.2033790698     -0.1219668028     -0.0894724078
O       2.0459187171      0.7962317752      0.0408488019
C      -0.6365579924      1.3862666182     -0.1693450523
C      -0.1571818315      2.5797468501      0.2173184533
C      -0.7021067923     -1.2864271221      0.1031501936
H      -1.5139307812      1.1021487555     -0.2522662893
H       0.9019960661      2.7030242348      0.5720692363
H      -0.8158008029      3.4654489635     -0.1365297655
H       0.1118477822     -2.1347997994     -0.5238494323
H      -0.7136741127     -1.6124706252      1.3030375544
H      -1.9715225928     -1.1236459742     -0.2864476424
12
Frame=44  time=22.500fs  energy=-306.19325840Ha  molecule=COOCCCHHHHHH
C      -0.0092125660      0.0627857067     -0.1875933037
O       1.2014612774     -0.1197123344     -0.0908985382
O       2.0448710721      0.7936628037      0.0402582803
C      -0.6382296137      1.3886478714     -0.1703075530
C      -0.1556774112      2.5794208727      0.2218784125
C      -0.7010200903     -1.2866059459      0.1035540090
H      -1.5071185234      1.0906208737     -0.2536321383
H       0.9138535608      2.7047084893      0.5839081362
H      -0.8118765952      3.4561654245     -0.1454503919
H       0.1153667079     -2.1205954325     -0.5233825880
H      -0.6979454463     -1.6143194703      1.3029205913
H      -1.9764669282     -1.1083497963     -0.2683032777
12
Frame=45  time=23.000fs  energy=-306.19314021Ha  molecule=COOCCCHHHHHH
C      -0.0093175255      0.0606436899     -0.1905729753
O       1.1995482083     -0.1175205013     -0.0923465240
O       2.0438391077      0.7911206058      0.0396902756
C      -0.6397508300      1.3909233922     -0.1712684530
C      -0.1541498978      2.5791773463      0.2264087289
C      -0.6997810357     -1.2868018386      0.1038785875
H      -1.5029396465      1.0793094787     -0.2553486892
H       0.9260124158      2.7065120694      0.5957828021
H      -0.8079915980      3.4469154401     -0.1540785555
H       0.1183387652     -2.1056664741     -0.5231624740
H      -0.6828461880     -1.6162837071      1.3043857839
H      -1.9816038975     -1.0933499863     -0.2504142097
12
Frame=46  time=23.500fs  energy=-306.19305889Ha  molecule=COOCCCHHHHHH
C      -0.0094595117      0.0585379519     -0.1935440756
O       1.1976365878     -0.1153870661     -0.0938170344
O       2.0428182763      0.7885979564      0.0391464526
C      -0.6411281082      1.3930987005     -0.1722365007
C      -0.1525901729      2.5790096170      0.2309173299
C      -0.6983935327     -1.2870036384      0.1041410915
H      -1.5011780767      1.0682191021     -0.2574097691
H       0.9383294837      2.7084015259      0.6077144043
H      -0.8042006841      3.4377853898     -0.1624426120
H       0.1208921108     -2.0901899253     -0.5232077481
H      -0.6683383771     -1.6183810161      1.3074025286
H      -1.9870040505     -1.0786458454     -0.2328326136
12
Frame=47  time=24.000fs  energy=-306.19300759Ha  molecule=COOCCCHHHHHH
C      -0.0096365055      0.0564721314     -0.1965136819
O       1.1957239055     -0.1133077797     -0.0953102258
O       2.0418049347      0.7860890164      0.0386277489
C      -0.6423711635      1.3951795507     -0.1732182207
C      -0.1509916206      2.5789112067      0.2354105948
C      -0.6968641368     -1.2872015528      0.1043566303
H      -1.5015999030      1.0573514976     -0.2598047786
H       0.9506902955      2.7103494047      0.6197181812
H      -0.8005433015      3.4288388674     -0.1705692853
H       0.1231442315     -2.0743250887     -0.5235291756
H      -0.6543777410     -1.6206216281      1.3119149619
H      -1.9927204723     -1.0642319250     -0.2155973604
12
Frame=48  time=24.500fs  energy=-306.19297986Ha  molecule=COOCCCHHHHHH
C      -0.0098465740      0.0544484044     -0.1994871798
O       1.1938083063     -0.1112784493     -0.0968258430
O       2.0407962126      0.7835891360      0.0381345088
C      -0.6434917707      1.3971718611     -0.1742182863
C      -0.1493498794      2.5788759224      0.2398935826
C      -0.6952013288     -1.2873873250      0.1045383223
H      -1.5039646592      1.0467057924     -0.2625196358
H       0.9630057775      2.7123336060      0.6318043718
H      -0.7970454362      3.4201195677     -0.1784835804
H       0.1251995444     -2.0582115694     -0.5241310470
H      -0.6409156570     -1.6230097222      1.3178477155
H      -1.9987902354     -1.0500989568     -0.1987343583
12
Frame=49  time=25.000fs  energy=-306.19296998Ha  molecule=COOCCCHHHHHH
C      -0.0100878437      0.0524677554     -0.2024685708
O       1.1918884741     -0.1092949819     -0.0983633153
O       2.0397898787      0.7810946506      0.0376666107
C      -0.6445027802      1.3990816608     -0.1752398888
C      -0.1476625388      2.5788979209      0.2443702672
C      -0.6934148638     -1.2875542986      0.1046974156
H      -1.5080343669      1.0362786416     -0.2655376909
H       0.9752088214      2.7143367158      0.6439791767
H      -0.7937218029      3.4116544188     -0.1862087981
H       0.1271481391     -2.0419684399     -0.5250124764
H      -0.6279008429     -1.6255447476      1.3251112629
H      -2.0052362317     -1.0362346488     -0.1822573284
12
Frame=50  time=25.500fs  energy=-306.19297314Ha  molecule=COOCCCHHHHHH
C      -0.0103584788      0.0505302111     -0.2054607605
O       1.1899635187     -0.1073534121     -0.0999218424
O       2.0387842133      0.7786026875      0.0372235820
C      -0.6454173403      1.4009150440     -0.1762850759
C      -0.1459288165      2.5789717396      0.2488437608
C      -0.6915152084     -1.2876973950      0.1048434410
H      -1.5135804335      1.0260644107     -0.2688405636
H       0.9872509523      2.7163453500      0.6562456679
H      -0.7905780496      3.4034566965     -0.1937666035
H       0.1290654659     -2.0256943850     -0.5261685438
H      -0.6152808405     -1.6282226162      1.3336067469
H      -2.0120692084     -1.0226243775     -0.1661689561
12
Frame=51  time=26.000fs  energy=-306.19298545Ha  molecule=COOCCCHHHHHH
C      -0.0106566672      0.0486350407     -0.2084658117
O       1.1880328739     -0.1054499183     -0.1015004667
O       2.0377778968      0.7761109951      0.0368046966
C      -0.6462483131      1.4026781221     -0.1773550420
C      -0.1441492399      2.5790923065      0.2533165087
C      -0.6895130738     -1.2878130212      0.1049843759
H      -1.5203885963      1.0160554018     -0.2724088765
H       0.9990992291      2.7183495355      0.6686045930
H      -0.7876128310      3.3955289390     -0.2011771150
H       0.1310127580     -2.0094686235     -0.5275912691
H      -0.6030033257     -1.6310367371      1.3432302105
H      -2.0192898580     -1.0092517958     -0.1504623311
12
Frame=52  time=26.500fs  energy=-306.19300394Ha  molecule=COOCCCHHHHHH
C      -0.0109806136      0.0467809246     -0.2114851550
O       1.1860962101     -0.1035808350     -0.1030981319
O       2.0367699159      0.7736178007      0.0364090540
C      -0.6470078612      1.4043769726     -0.1784503662
C      -0.1423253483      2.5792549357      0.2577904506
C      -0.6874190438     -1.2878989275      0.1051268089
H      -1.5282621644      1.0062421232     -0.2762228697
H       1.0107334432      2.7203421402      0.6810550486
H      -0.7848196603      3.3878655545     -0.2084589907
H       0.1330379845     -1.9933524005     -0.5292704209
H      -0.5910172510     -1.6339788817      1.3538761881
H      -2.0268908445     -0.9960993735     -0.1351225686
12
Frame=53  time=27.000fs  energy=-306.19302639Ha  molecule=COOCCCHHHHHH
C      -0.0113285388      0.0449660969     -0.2145197554
O       1.1841533642     -0.1017426621     -0.1047137293
O       2.0357594883      0.7711216962      0.0360356414
C      -0.6477071793      1.4060175832     -0.1795711961
C      -0.1404594259      2.5794553141      0.2622671468
C      -0.6852432933     -1.2879540337      0.1052760965
H      -1.5370238387      0.9966135953     -0.2802628959
H       1.0221436371      2.7223183604      0.6935950163
H      -0.7821884937      3.3804550678     -0.2156295027
H       0.1351771498     -1.9773908543     -0.5311941734
H      -0.5792738166     -1.6370398809      1.3654406423
H      -2.0348586834     -0.9831488783     -0.1201285036
12
Frame=54  time=27.500fs  energy=-306.19305122Ha  molecule=COOCCCHHHHHH
C      -0.0116986841      0.0431884649     -0.2175702384
O       1.1822042852     -0.0999320737     -0.1063461311
O       2.0347460059      0.7686215528      0.0356833802
C      -0.6483563438      1.4076057948     -0.1807173838
C      -0.1385542693      2.5796894848      0.2667478721
C      -0.6829953891     -1.2879782399      0.1054365081
H      -1.5465163886      0.9871576808     -0.2845098019
H       1.0333279388      2.7242752659      0.7062217687
H      -0.7797070364      3.3732819946     -0.2227045924
H       0.1374557817     -1.9616150877     -0.5333496314
H      -0.5677272596     -1.6402101672      1.3778232639
H      -2.0431754188     -0.9703818024     -0.1054543600
12
Frame=55  time=28.000fs  energy=-306.19307736Ha  molecule=COOCCCHHHHHH
C      -0.0120893190      0.0414457097     -0.2206369802
O       1.1802489950     -0.0981459268     -0.1079942156
O       2.0337289926      0.7661164580      0.0353511593
C      -0.6489642516      1.4091472456     -0.1818885811
C      -0.1366129920      2.5799538283      0.2712336804
C      -0.6806841604     -1.2879722352      0.1056113606
H      -1.5566024529      0.9778614225     -0.2889452077
H       1.0442906966      2.7262114023      0.7189321599
H      -0.7773617796      3.3663283595     -0.2296989105
H       0.1398904833     -1.9460443007     -0.5357232438
H      -0.5563354585     -1.6434801784      1.3909291760
H      -2.0518200680     -0.9577797371     -0.0910713165
12
Frame=56  time=28.500fs  energy=-306.19310410Ha  molecule=COOCCCHHHHHH
C      -0.0124987512      0.0397353705     -0.2237201706
O       1.1782875615     -0.0963812694     -0.1096568832
O       2.0327080751      0.7636056726      0.0350378585
C      -0.6495386278      1.4106473190     -0.1830843017
C      -0.1346388641      2.5802450431      0.2757254489
C      -0.6783176298     -1.2879373161      0.1058031391
H      -1.5671636985      0.9687113767     -0.2935516969
H       1.0550408903      2.7281264485      0.7317228218
H      -0.7751387971      3.3595748913     -0.2366258455
H       0.1424904548     -1.9306878747     -0.5383011260
H      -0.5450603523     -1.6468406428      1.4046701018
H      -2.0607698266     -0.9453246932     -0.0769489098
12
Frame=57  time=29.000fs  energy=-306.19313102Ha  molecule=COOCCCHHHHHH
C      -0.0129253377      0.0380549143     -0.2268198522
O       1.1763200819     -0.0946353490     -0.1113330672
O       2.0316829636      0.7610886025      0.0347423638
C      -0.6500860792      1.4121110984     -0.1843039602
C      -0.1326351854      2.5805601263      0.2802239033
C      -0.6759029909     -1.2878752193      0.1060136076
H      -1.5780995415      0.9596939254     -0.2983129342
H       1.0655907940      2.7300209262      0.7445902855
H      -0.7730243304      3.3530019366     -0.2434975443
H       0.1452589197     -1.9155473286     -0.5410693108
H      -0.5338681855     -1.6502827686      1.4189650669
H      -2.0700010393     -0.9329993698     -0.0630562406
12
Frame=58  time=29.500fs  energy=-306.19315785Ha  molecule=COOCCCHHHHHH
C      -0.0133674956      0.0364017948     -0.2299359453
O       1.1743466734     -0.0929056181     -0.1130217403
O       2.0306534389      0.7585647808      0.0344635771
C      -0.6506121777      1.4135433299     -0.1855468926
C      -0.1306051879      2.5808963547      0.2847296326
C      -0.6734466221     -1.2877879758      0.1062439097
H      -1.5893255960      0.9507955605     -0.3032137242
H       1.0759548660      2.7318959564      0.7575310481
H      -0.7710052006      3.3465901370     -0.2503249331
H       0.1481944151     -1.9006180944     -0.5440139410
H      -0.5227295936     -1.6537983558      1.4337407158
H      -2.0794899575     -0.9207873712     -0.0493629640
12
Frame=59  time=30.000fs  energy=-306.19318443Ha  molecule=COOCCCHHHHHH
C      -0.0138237119      0.0347734999     -0.2330682613
O       1.1723674693     -0.0911897398     -0.1147219177
O       2.0296193454      0.7560338566      0.0342004226
C      -0.6511215615      1.4149483954     -0.1868123671
C      -0.1285519644      2.5812512661      0.2892430969
C      -0.6709541271     -1.2876777860      0.1064946591
H      -1.6007719832      0.9420031299     -0.3082400249
H       1.0861488408      2.7337530590      0.7705416020
H      -0.7690690787      3.3403209112     -0.2571177411
H       0.1512919248     -1.8858910837     -0.5471214195
H      -0.5116195506     -1.6573798496      1.4489313178
H      -2.0892133076     -0.9086733725     -0.0358400669
12
Frame=60  time=30.500fs  energy=-306.19321065Ha  molecule=COOCCCHHHHHH
C      -0.0142925523      0.0331675902     -0.2362165112
O       1.1703826184     -0.0894855895     -0.1164326584
O       2.0285805863      0.7534955889      0.0339518501
C      -0.6516180437      1.4163302950     -0.1880995884
C      -0.1264784188      2.5816226409      0.2937646301
C      -0.6684303915     -1.2875469183      0.1067660234
H      -1.6123816026      0.9333040426     -0.3133789286
H       1.0961889994      2.7355939912      0.7836184419
H      -0.7672046465      3.3341767802     -0.2638845316
H       0.1545438496     -1.8713540331     -0.5503785243
H      -0.5005172033     -1.6610203522      1.4644785383
H      -2.0991486978     -0.8966432379     -0.0224604405
12
Frame=61  time=31.000fs  energy=-306.19323645Ha  molecule=COOCCCHHHHHH
C      -0.0147726679      0.0315817297     -0.2393803100
O       1.1683922862     -0.0877912544     -0.1181530659
O       2.0275371199      0.7509498403      0.0337168374
C      -0.6521047203      1.4176926394     -0.1894076991
C      -0.1243872347      2.5820084846      0.2982944431
C      -0.6658796503     -1.2873976278      0.1070577989
H      -1.6241084389      0.9246864308     -0.3186186194
H       1.1060915969      2.7374206200      0.7967580591
H      -0.7654016737      3.3281415707     -0.2706327424
H       0.1579408185     -1.8569926316     -0.5537724984
H      -0.4894056159     -1.6647136048      1.4803310407
H      -2.1092748946     -0.8846840945     -0.0091992693
12
Frame=62  time=31.500fs  energy=-306.19326174Ha  molecule=COOCCCHHHHHH
C      -0.0152627999      0.0300137086     -0.2425591814
O       1.1663966564     -0.0861050305     -0.1198822877
O       2.0264889573      0.7483965731      0.0334943924
C      -0.6525840744      1.4190386514     -0.1907357824
C      -0.1222808588      2.5824070100      0.3028326263
C      -0.6633055594     -1.2872320956      0.1073694799
H      -1.6359159570      0.9161392690     -0.3239483162
H       1.1158724251      2.7392348245      0.8099569328
H      -0.7636510334      3.3222005237     -0.2773687371
H       0.1614723526     -1.8427914413     -0.5572911185
H      -0.4782714510     -1.6684539520      1.4964439763
H      -2.1195719929     -0.8727843661      0.0039657385
12
Frame=63  time=32.000fs  energy=-306.19328643Ha  molecule=COOCCCHHHHHH
C      -0.0157617828      0.0284614604     -0.2457525636
O       1.1643959325     -0.0844254160     -0.1216195146
O       2.0254361590      0.7458358431      0.0332835544
C      -0.6530580725      1.4203711753     -0.1920828646
C      -0.1201614951      2.5828166202      0.3073791547
C      -0.6607112667     -1.2870523841      0.1077003200
H      -1.6477756186      0.9076524539     -0.3293582076
H       1.1255464917      2.7410384226      0.8232115233
H      -0.7619446753      3.3163403317     -0.2840978662
H       0.1651273957     -1.8287346288     -0.5609227478
H      -0.4671046076     -1.6722362947      1.5127784119
H      -2.1300215059     -0.8609337722      0.0170542555
12
Frame=64  time=32.500fs  energy=-306.19331044Ha  molecule=COOCCCHHHHHH
C      -0.0162685451      0.0269230725     -0.2489598159
O       1.1623903385     -0.0827511036     -0.1233639806
O       2.0243788319      0.7432677926      0.0330833963
C      -0.6535282512      1.4216926926     -0.1934479214
C      -0.1180311090      2.5832358929      0.3119338951
C      -0.6580994802     -1.2868604078      0.1080493882
H      -1.6596655406      0.8992168474     -0.3348393828
H       1.1351277981      2.7428331204      0.8365182704
H      -0.7602755692      3.3105491234     -0.2908245376
H       0.1688947289     -1.8148065292     -0.5646563750
H      -0.4558978382     -1.6760560403      1.5293007299
H      -2.1406063941     -0.8491232972      0.0300833458
12
Frame=65  time=33.000fs  energy=-306.19333366Ha  molecule=COOCCCHHHHHH
C      -0.0167821086      0.0253967923     -0.2521802283
O       1.1603801186     -0.0810809687     -0.1251149620
O       2.0233171239      0.7406926423      0.0328930263
C      -0.6539957941      1.4230053435     -0.1948298855
C      -0.1158914360      2.5836635643      0.3164966149
C      -0.6554725307     -1.2866579158      0.1084156180
H      -1.6715693030      0.8908242885     -0.3403837630
H       1.1446291984      2.7446204784      0.8498735976
H      -0.7586376304      3.3048164119     -0.2975522949
H       0.1727632858     -1.8009920636     -0.5684816415
H      -0.4446463601     -1.6799090520      1.5459820325
H      -2.1513110511     -0.8373451362      0.0430675584
12
Frame=66  time=33.500fs  energy=-306.19335600Ha  molecule=COOCCCHHHHHH
C      -0.0173015870      0.0238810287     -0.2554130323
O       1.1583655356     -0.0794140574     -0.1268717777
O       2.0222512197      0.7381106813      0.0327115901
C      -0.6544615981      1.4243109519     -0.1962276563
C      -0.1137439965      2.5840985145      0.3210669939
C      -0.6528324284     -1.2864464834      0.1087978513
H      -1.6834749071      0.8824675781     -0.3459840346
H       1.1540623256      2.7464018918      0.8632739243
H      -0.7570256356      3.2991330160     -0.3042839006
H       0.1767223844     -1.7872770342     -0.5723888590
H      -0.4333474746     -1.6837916010      1.5627975693
H      -2.1621212598     -0.8255926218      0.0560190809
12
Frame=67  time=34.000fs  energy=-306.19337734Ha  molecule=COOCCCHHHHHH
C      -0.0178261815      0.0223743505     -0.2586574132
O       1.1563468689     -0.0777495723     -0.1286337884
O       2.0211813348      0.7355222572      0.0325382731
C      -0.6549263304      1.4256110529     -0.1976401124
C      -0.1115901121      2.5845397539      0.3256446365
C      -0.6501809121     -1.2862275124      0.1091948756
H      -1.6953738790      0.8741404426     -0.3516335866
H       1.1634375704      2.7481785831      0.8767156825
H      -0.7554351350      3.2934909666     -0.3110214227
H       0.1807618905     -1.7736483167     -0.5763690174
H      -0.4220002060     -1.6877003227      1.5797262027
H      -2.1730241282     -0.8138601378      0.0689479336
12
Frame=68  time=34.500fs  energy=-306.19339760Ha  molecule=COOCCCHHHHHH
C      -0.0183551776      0.0208754815     -0.2619125231
O       1.1543244114     -0.0760868576     -0.1304003967
O       2.0201077095      0.7329277641      0.0323723023
C      -0.6553904765      1.4269069222     -0.1990661231
C      -0.1094309235      2.5849864101      0.3302290858
C      -0.6475194916     -1.2860022354      0.1096054570
H      -1.7072605099      0.8658374813     -0.3573264517
H       1.1727641016      2.7499516020      0.8901953382
H      -0.7538623640      3.2878834028     -0.3177663223
H       0.1848723253     -1.7600939697     -0.5804137850
H      -0.4106049661     -1.6916321787      1.5967499188
H      -2.1840080136     -0.8021430237      0.0818621885
12
Frame=69  time=35.000fs  energy=-306.19341670Ha  molecule=COOCCCHHHHHH
C      -0.0188879396      0.0193832932     -0.2651774948
O       1.1522984654     -0.0744253843     -0.1321710465
O       2.0190306027      0.7303276319      0.0322129484
C      -0.6558543798      1.4281996048     -0.2005045620
C      -0.1072674097      2.5854377160      0.3348198373
C      -0.6448494834     -1.2857717253      0.1100283664
H      -1.7191312192      0.8575541020     -0.3630572521
H       1.1820499172      2.7517218327      0.9037094164
H      -0.7523041594      3.2823044646     -0.3245195389
H       0.1890449290     -1.7466032792     -0.5845155002
H      -0.3991632507     -1.6955844226      1.6138533890
H      -2.1950624415     -0.7904374753      0.0947681977
12
Frame=70  time=35.500fs  energy=-306.19343458Ha  molecule=COOCCCHHHHHH
C      -0.0194239050      0.0178967959     -0.2684514546
O       1.1502693388     -0.0727647343     -0.1339452226
O       2.0179502858      0.7277223150      0.0320595270
C      -0.6563182741      1.4294899443     -0.2019543189
C      -0.1051004056      2.5858929989      0.3394163532
C      -0.6421720412     -1.2855369072      0.1104624019
H      -1.7309840313      0.8492864490     -0.3688211504
H       1.1913019172      2.7534900050      0.9172545259
H      -0.7507578804      3.2767491858     -0.3312815739
H       0.1932716903     -1.7331667533     -0.5886671579
H      -0.3876773702     -1.6995545713      1.6310235815
H      -2.2061780208     -0.7787404441      0.1076708238
12
Frame=71  time=36.000fs  energy=-306.19345119Ha  molecule=COOCCCHHHHHH
C      -0.0199625793      0.0164151292     -0.2717335349
O       1.1482373410     -0.0711045862     -0.1357224504
O       2.0168670373      0.7251122820      0.0319113996
C      -0.6567823103      1.4307786104     -0.2034143120
C      -0.1029306202      2.5863516702      0.3440180750
C      -0.6394881801     -1.2852985710      0.1109064063
H      -1.7428181492      0.8410313272     -0.3746138036
H       1.2005259906      2.7552567085      0.9308273845
H      -0.7492213355      3.2712133900     -0.3380525675
H       0.1975453489     -1.7197760797     -0.5928623887
H      -0.3761502153     -1.7035403800      1.6482494222
H      -2.2173463605     -0.7670495388      0.1205736605
12
Frame=72  time=36.500fs  energy=-306.19346651Ha  molecule=COOCCCHHHHHH
C      -0.0205035297      0.0149375502     -0.2750228858
O       1.1462027788     -0.0694447011     -0.1375022942
O       2.0157811369      0.7224980057      0.0317679745
C      -0.6572465777      1.4320661241     -0.2048834978
C      -0.1007586521      2.5868132164      0.3486244361
C      -0.6367987966     -1.2850573855      0.1113592802
H      -1.7546336141      0.8327861254     -0.3804313220
H       1.2097271111      2.7570224084      0.9444248419
H      -0.7476927173      3.2656935922     -0.3448323707
H       0.2018593793     -1.7064240573     -0.5970954335
H      -0.3645850578     -1.7075398210      1.6655215012
H      -2.2285599880     -0.7553629309      0.1334792414
12
Frame=73  time=37.000fs  energy=-306.19348054Ha  molecule=COOCCCHHHHHH
C      -0.0210463795      0.0134634233     -0.2783186846
O       1.1441659526     -0.0677849090     -0.1392843571
O       2.0146928614      0.7198799552      0.0316287066
C      -0.6577111203      1.4333528824     -0.2063608805
C      -0.0985850053      2.5872771906      0.3532348726
C      -0.6341046854     -1.2848139124      0.1118199918
H      -1.7664310372      0.8245487419     -0.3862702302
H       1.2189094350      2.7587874613      0.9580439000
H      -0.7461705436      3.2601869066     -0.3516206102
H       0.2062079593     -1.6931045110     -0.6013611143
H      -0.3529853846     -1.7115510654      1.6828318209
H      -2.2398122712     -0.7436792668      0.1463892302
12
Frame=74  time=37.500fs  energy=-306.19349330Ha  molecule=COOCCCHHHHHH
C      -0.0215908026      0.0119922087     -0.2816201443
O       1.1421271530     -0.0661250973     -0.1410682785
O       2.0136024799      0.7172585879      0.0314930968
C      -0.6581759502      1.4346391787     -0.2078455187
C      -0.0964101021      2.5877432051      0.3578488324
C      -0.6314065523     -1.2845686196      0.1122875830
H      -1.7782113930      0.8163175122     -0.3921274323
H       1.2280763992      2.7605521316      0.9716817300
H      -0.7446536061      3.2546909621     -0.3584167457
H       0.2105859302     -1.6798121975     -0.6056548008
H      -0.3413547627     -1.7155724668      1.7001735818
H      -2.2510973434     -0.7319975867      0.1593045916
12
Frame=75  time=38.000fs  energy=-306.19350482Ha  molecule=COOCCCHHHHHH
C      -0.0221365177      0.0105234514     -0.2849265201
O       1.1400866584     -0.0644651995     -0.1428537337
O       2.0125102513      0.7146343440      0.0313606908
C      -0.6586410578      1.4359252227     -0.2093365309
C      -0.0942342955      2.5882109241      0.3624657831
C      -0.6287050251     -1.2843218936      0.1127611731
H      -1.7899758630      0.8080911431     -0.3980001786
H       1.2372308151      2.7623166062      0.9853356845
H      -0.7431409248      3.2492038266     -0.3652201195
H       0.2149887499     -1.6665427059     -0.6099723754
H      -0.3296967323     -1.7196025467      1.7175410000
H      -2.2624100331     -0.7203172527      0.1722257417
12
Frame=76  time=38.500fs  energy=-306.19351516Ha  molecule=COOCCCHHHHHH
C      -0.0226832836      0.0090567708     -0.2882371147
O       1.1380447320     -0.0628051856     -0.1446404309
O       2.0114164208      0.7120076416      0.0312310783
C      -0.6591064189      1.4372111565     -0.2108330994
C      -0.0920578796      2.5886800582      0.3670852181
C      -0.6260006627     -1.2840740516      0.1132399599
H      -1.8017257200      0.7998686513     -0.4038860349
H       1.2463749569      2.7640810089      0.9990033068
H      -0.7416317098      3.2437239381     -0.3720299990
H       0.2194124430     -1.6532923602     -0.6143101962
H      -0.3180147253     -1.7236399816      1.7349291541
H      -2.2737457982     -0.7086378835      0.1851526774
12
Frame=77  time=39.000fs  energy=-306.19352436Ha  molecule=COOCCCHHHHHH
C      -0.0232308942      0.0075918515     -0.2915512811
O       1.1360016207     -0.0611450539     -0.1464281101
O       2.0103212185      0.7093788727      0.0311038903
C      -0.6595720011      1.4384970690     -0.2123344718
C      -0.0898810986      2.5891503584      0.3717066612
C      -0.6232939619     -1.2838253516      0.1137232191
H      -1.8134622464      0.7916493093     -0.4097828545
H       1.2555106431      2.7658454126      1.0126823352
H      -0.7401253275      3.2382500450     -0.3788456118
H       0.2238535500     -1.6400581246     -0.6186650593
H      -0.3063120046     -1.7276835910      1.7523338552
H      -2.2851006635     -0.6969592989      0.1980850870
12
Frame=78  time=39.500fs  energy=-306.19353250Ha  molecule=COOCCCHHHHHH
C      -0.0237791744      0.0061284336     -0.2948684248
O       1.1339575535     -0.0594848238     -0.1482165407
O       2.0092248580      0.7067484016      0.0309787975
C      -0.6600377673      1.4397830083     -0.2138399620
C      -0.0877041554      2.5896216110      0.3763296699
C      -0.6205853642     -1.2835760022      0.1142103018
H      -1.8251866779      0.7834325965     -0.4156887508
H       1.2646393094      2.7676098506      1.0263707039
H      -0.7386212724      3.2327811527     -0.3856661743
H       0.2283090761     -1.6268375143     -0.6230341613
H      -0.2945916231     -1.7317323257      1.7697515374
H      -2.2964711634     -0.6852814720      0.2110224406
12
Frame=79  time=40.000fs  energy=-306.19353965Ha  molecule=COOCCCHHHHHH
C      -0.0243279759      0.0046663050     -0.2981880043
O       1.1319127409     -0.0578245295     -0.1500055193
O       2.0081275353      0.7041165629      0.0308555075
C      -0.6605036792      1.4410689917     -0.2153489492
C      -0.0855272175      2.5900936336      0.3809538372
C      -0.6178752611     -1.2833261704      0.1147006311
H      -1.8369001671      0.7752181581     -0.4216020724
H       1.2737620748      2.7693743261      1.0400665405
H      -0.7371191434      3.2273164789     -0.3924909142
H       0.2327764426     -1.6136285142     -0.6274150618
H      -0.2828563974     -1.7357852575      1.7871791664
H      -2.3078542882     -0.6736044884      0.2239640655
12
Frame=80  time=40.500fs  energy=-306.19354591Ha  molecule=COOCCCHHHHHH
C      -0.0248771735      0.0032052939     -0.3015095303
O       1.1298673748     -0.0561642155     -0.1517948676
O       2.0070294289      0.7014836610      0.0307337625
C      -0.6609696989      1.4423550140     -0.2168608758
C      -0.0833504236      2.5905662707      0.3855787923
C      -0.6151639985     -1.2830759894      0.1151936980
H      -1.8486037631      0.7670057686     -0.4275213797
H       1.2828797981      2.7711388201      1.0537681608
H      -0.7356186241      3.2218554138     -0.3993190872
H       0.2372534398     -1.6004295049     -0.6318056477
H      -0.2711088944     -1.7398415685      1.8046141609
H      -2.3192474343     -0.6619285134      0.2369092054
12
Frame=81  time=41.000fs  energy=-306.19355133Ha  molecule=COOCCCHHHHHH
C      -0.0254266623      0.0017452622     -0.3048325646
O       1.1278216286     -0.0545039321     -0.1535844301
O       2.0059306997      0.6988499706      0.0306133361
C      -0.6614357903      1.4436410542     -0.2183752452
C      -0.0811738879      2.5910393904      0.3902042007
C      -0.6124518811     -1.2828255640      0.1156890562
H      -1.8602984017      0.7587953019     -0.4334454232
H       1.2919931278      2.7729032983      1.0674740603
H      -0.7341194659      3.2163974876     -0.4061499900
H       0.2417381835     -1.5872391973     -0.6362040987
H      -0.2593514277     -1.7439005416      1.8220543274
H      -2.3306483588     -0.6502537644      0.2498570670
12
Frame=82  time=41.500fs  energy=-306.19355602Ha  molecule=COOCCCHHHHHH
C      -0.0259763544      0.0002860999     -0.3081567172
O       1.1257756578     -0.0528437328     -0.1553740720
O       2.0048314918      0.6962157374      0.0304940312
C      -0.6619019203      1.4449270811     -0.2198916177
C      -0.0789977045      2.5915128809      0.3948297631
C      -0.6097391765     -1.2825749766      0.1161863173
H      -1.8719849034      0.7505867064     -0.4393731227
H       1.3011025438      2.7746677165      1.0811829054
H      -0.7326214745      3.2109423423     -0.4129829680
H       0.2462290746     -1.5740565753     -0.6406088546
H      -0.2475860617     -1.7479615507      1.8394978039
H      -2.3420551373     -0.6385804899      0.2628068548
12
Frame=83  time=42.000fs  energy=-306.19356003Ha  molecule=COOCCCHHHHHH
C      -0.0265261768     -0.0011722797     -0.3114816442
O       1.1237296006     -0.0511836713     -0.1571636769
O       2.0037319328      0.6935811793      0.0303756765
C      -0.6623680587      1.4462130575     -0.2214096072
C      -0.0768219509      2.5919866484      0.3994552142
C      -0.6070261185     -1.2823242910      0.1166851453
H      -1.8836639779      0.7423799842     -0.4453035488
H       1.3102083935      2.7764320245      1.0948935214
H      -0.7311244990      3.2054897086     -0.4198174206
H       0.2507247623     -1.5608808458     -0.6450185848
H      -0.2358146219     -1.7520240526      1.8569430127
H      -2.3534661259     -0.6269089522      0.2757577974
12
Frame=84  time=42.500fs  energy=-306.19356346Ha  molecule=COOCCCHHHHHH
C      -0.0270760688     -0.0026299446     -0.3148070440
O       1.1216835789     -0.0495238001     -0.1589531454
O       2.0026321353      0.6909464880      0.0302581247
C      -0.6628341786      1.4474989430     -0.2229288767
C      -0.0746466907      2.5924606136      0.4040803202
C      -0.6043129104     -1.2820735565      0.1171852513
H      -1.8953362310      0.7341751750     -0.4512359052
H       1.3193109208      2.7781961700      1.1086048809
H      -0.7296284226      3.2000393870     -0.4266528037
H       0.2552241105     -1.5477113963     -0.6494321602
H      -0.2240387084     -1.7560875774      1.8743886191
H      -2.3648799261     -0.6152394153      0.2887091651
12
Frame=85  time=43.000fs  energy=-306.19356637Ha  molecule=COOCCCHHHHHH
C      -0.0276259802     -0.0040869474     -0.3181326545
O       1.1196376995     -0.0478641688     -0.1607423923
O       2.0015321976      0.6883118311      0.0301412492
C      -0.6633002564      1.4487846967     -0.2244491340
C      -0.0724719759      2.5929347107      0.4087048771
C      -0.6015997285     -1.2818228106      0.1176863884
H      -1.9070021739      0.7259723430     -0.4571695131
H       1.3284102903      2.7799601003      1.1223160915
H      -0.7281331554      3.1945912321     -0.4334886296
H       0.2597261682     -1.5345477595     -0.6538486277
H      -0.2122597129     -1.7601517216      1.8918334971
H      -2.3762953535     -0.6035721353      0.3016602815
12
Frame=86  time=43.500fs  energy=-306.19356882Ha  molecule=COOCCCHHHHHH
C      -0.0281758699     -0.0055433287     -0.3214582487
O       1.1175920554     -0.0462048239     -0.1625313458
O       2.0004322050      0.6856773539      0.0300249422
C      -0.6637662716      1.4500702787     -0.2259701274
C      -0.0702978492      2.5934088845      0.4133287082
C      -0.5988867243     -1.2815720817      0.1181883468
H      -1.9186622342      0.7177715667     -0.4631037963
H       1.3375066074      2.7817237651      1.1360263829
H      -0.7266386285      3.1891451401     -0.4403244659
H       0.2642301427     -1.5213895827     -0.6582671862
H      -0.2004788362     -1.7642161399      1.9092766993
H      -2.3877114096     -0.5919073544      0.3146105307
12
Frame=87  time=44.000fs  energy=-306.19357087Ha  molecule=COOCCCHHHHHH
C      -0.0287257040     -0.0069991192     -0.3247836323
O       1.1155467267     -0.0445458077     -0.1643199452
O       1.9993322310      0.6830431814      0.0299091120
C      -0.6642322067      1.4513556513     -0.2274916413
C      -0.0681243454      2.5938830895      0.4179516613
C      -0.5961740281     -1.2813213911      0.1186909492
H      -1.9303167657      0.7095729318     -0.4690382678
H       1.3465999334      2.7834871167      1.1497350943
H      -0.7251447892      3.1837010385     -0.4471599327
H       0.2687353762     -1.5082366035     -0.6626871661
H      -0.1886971075     -1.7682805387      1.9267174308
H      -2.3991272560     -0.5802452964      0.3275593593
12
Frame=88  time=44.500fs  energy=-306.19357259Ha  molecule=COOCCCHHHHHH
C      -0.0292754549     -0.0084543418     -0.3281086391
O       1.1135017823     -0.0428871582     -0.1661081394
O       1.9982323386      0.6804094208      0.0297936815
C      -0.6646980468      1.4526407800     -0.2290134926
C      -0.0659514927      2.5943572877      0.4225736064
C      -0.5934617506     -1.2810707545      0.1191940469
H      -1.9419660590      0.7013765253     -0.4749725186
H       1.3556902985      2.7852501114      1.1634416628
H      -0.7236515976      3.1782588784     -0.4539946990
H       0.2732413252     -1.4950886293     -0.6671080101
H      -0.1769154022     -1.7723446693      1.9441550269
H      -2.4105421927     -0.5685861646      0.3405062772
12
Frame=89  time=45.000fs  energy=-306.19357401Ha  molecule=COOCCCHHHHHH
C      -0.0298251002     -0.0099090138     -0.3314331284
O       1.1114572807     -0.0412289092     -0.1678958863
O       1.9971325813      0.6777761628      0.0296785856
C      -0.6651637790      1.4539256331     -0.2305355260
C      -0.0637793142      2.5948314483      0.4271944334
C      -0.5907499858     -1.2808201833      0.1196975152
H      -1.9536103512      0.6931824315     -0.4809062062
H       1.3647777107      2.7870127097      1.1771456119
H      -0.7221590233      3.1728186280     -0.4608284794
H       0.2777475427     -1.4819455213     -0.6715292569
H      -0.1651344604     -1.7764083227      1.9615889342
H      -2.4219556372     -0.5569301405      0.3534508547
12
Frame=90  time=45.500fs  energy=-306.19357519Ha  molecule=COOCCCHHHHHH
C      -0.0303746219     -0.0113631478     -0.3347569819
O       1.1094132715     -0.0395710905     -0.1696831506
O       1.9960330043      0.6751434841      0.0295637702
C      -0.6656293930      1.4552101829     -0.2320576113
C      -0.0616078284      2.5953055457      0.4318140493
C      -0.5880388129     -1.2805696858      0.1202012509
H      -1.9652498340      0.6849907301     -0.4868390457
H       1.3738621639      2.7887748765      1.1908465407
H      -0.7206670435      3.1673802679     -0.4676610293
H       0.2822536625     -1.4688071810     -0.6759505261
H      -0.1533549034     -1.7804713236      1.9790186937
H      -2.4333671078     -0.5452773843      0.3663927198
12
Frame=91  time=46.000fs  energy=-306.19357616Ha  molecule=COOCCCHHHHHH
C      -0.0309240053     -0.0128167528     -0.3380801005
O       1.1073697963     -0.0379137278     -0.1714699036
O       1.9949336454      0.6725114489      0.0294491902
C      -0.6660948799      1.4564944048     -0.2335796394
C      -0.0594370502      2.5957795592      0.4364323766
C      -0.5853282982     -1.2803192677      0.1207051683
H      -1.9768846619      0.6768014934     -0.4927708011
H       1.3829436428      2.7905365808      1.2045441139
H      -0.7191756408      3.1619437872     -0.4744921409
H       0.2867593863     -1.4556735400     -0.6803715062
H      -0.1415772496     -1.7845335264      1.9964439262
H      -2.4447762078     -0.5336280351      0.3793315530
12
Frame=92  time=46.500fs  energy=-306.19357695Ha  molecule=COOCCCHHHHHH
C      -0.0314732387     -0.0142698355     -0.3414024019
O       1.1053268897     -0.0362568430     -0.1732561217
O       1.9938345365      0.6698801107      0.0293348083
C      -0.6665602326      1.4577782777     -0.2351015198
C      -0.0572669916      2.5962534719      0.4410493511
C      -0.5826184972     -1.2800689332      0.1212091972
H      -1.9885149584      0.6686147868     -0.4987012779
H       1.3920221274      2.7922977961      1.2182380534
H      -0.7176848023      3.1565091810     -0.4813216390
H       0.2912644717     -1.4425445521     -0.6847919427
H      -0.1298019287     -1.7885948103      2.0138643204
H      -2.4561826122     -0.5219822127      0.3922670829
12
Frame=93  time=47.000fs  energy=-306.19357759Ha  molecule=COOCCCHHHHHH
C      -0.0320223128     -0.0157224004     -0.3447238180
O       1.1032845805     -0.0346004549     -0.1750417856
O       1.9927357035      0.6672495136      0.0292205937
C      -0.6670254450      1.4590617833     -0.2366231777
C      -0.0550976618      2.5967272702      0.4456649195
C      -0.5799094554     -1.2798186847      0.1217132800
H      -2.0001408224      0.6604306672     -0.5046303168
H       1.4010975957      2.7940584994      1.2319281297
H      -0.7161945180      3.1510764480     -0.4881493771
H       0.2957687232     -1.4294201868     -0.6892116292
H      -0.1180292945     -1.7926550761      2.0312796217
H      -2.4675860562     -0.5103400185      0.4051990808
12
Frame=94  time=47.500fs  energy=-306.19357811Ha  molecule=COOCCCHHHHHH
C      -0.0325712201     -0.0171744507     -0.3480442932
O       1.1012428923     -0.0329445791     -0.1768268801
O       1.9916371681      0.6646196939      0.0291065213
C      -0.6674905125      1.4603449064     -0.2381445515
C      -0.0529290684      2.5972009432      0.4502790388
C      -0.5772012104     -1.2795685241      0.1222173697
H      -2.0117623324      0.6522491841     -0.5105577881
H       1.4101700254      2.7958186715      1.2456141549
H      -0.7147047805      3.1456455894     -0.4949752334
H       0.3002719834     -1.4163004247     -0.6936303987
H      -0.1062596367     -1.7967142425      2.0486896236
H      -2.4789863255     -0.4987015381      0.4181273559
12
Frame=95  time=48.000fs  energy=-306.19357853Ha  molecule=COOCCCHHHHHH
C      -0.0331199550     -0.0186259888     -0.3513637820
O       1.0992018443     -0.0312892289     -0.1786113929
O       1.9905389480      0.6619906808      0.0289925704
C      -0.6679554313      1.4616276342     -0.2396655911
C      -0.0507612170      2.5976744821      0.4548916738
C      -0.5744937930     -1.2793184524      0.1227214285
H      -2.0233795509      0.6440703795     -0.5164835866
H       1.4192393958      2.7975782960      1.2592959764
H      -0.7132155841      3.1402166074     -0.5017991076
H       0.3047741264     -1.4031852536     -0.6980481174
H      -0.0944931907     -1.8007722436      2.0660941593
H      -2.4903832475     -0.4870668420      0.4310517506
12
Frame=96  time=48.500fs  energy=-306.19357887Ha  molecule=COOCCCHHHHHH
C      -0.0336685128     -0.0200770162     -0.3546822478
O       1.0971614520     -0.0296344148     -0.1803953142
O       1.9894410572      0.6593624984      0.0288787245
C      -0.6684201982      1.4629099561     -0.2411862558
C      -0.0485941118      2.5981478800      0.4595027966
C      -0.5717872279     -1.2790684700      0.1232254258
H      -2.0349925276      0.6358942884     -0.5224076279
H       1.4283056882      2.7993373597      1.2729734710
H      -0.7117269242      3.1347895045     -0.5086209179
H       0.3092750523     -1.3900746663     -0.7024646783
H      -0.0827301465     -1.8048290261      2.0834930953
H      -2.5017766842     -0.4754359883      0.4439721355
12
Frame=97  time=49.000fs  energy=-306.19357914Ha  molecule=COOCCCHHHHHH
C      -0.0342168901     -0.0215275341     -0.3579996612
O       1.0951217278     -0.0279801455     -0.1821786365
O       1.9883435075      0.6567351655      0.0287649699
C      -0.6688848108      1.4641918635     -0.2427065127
C      -0.0464277562      2.5986211314      0.4641123849
C      -0.5690815350     -1.2788185773      0.1237293369
H      -2.0466013026      0.6277209396     -0.5283298442
H       1.4373688864      2.8010958516      1.2866465405
H      -0.7102387976      3.1293642835     -0.5154405978
H       0.3137746819     -1.3769686584     -0.7068799963
H      -0.0709706565     -1.8088845473      2.1008863260
H      -2.5131665261     -0.4638090237      0.4568884057
12
Frame=98  time=49.500fs  energy=-306.19357936Ha  molecule=COOCCCHHHHHH
C      -0.0347650840     -0.0229775433     -0.3613159990
O       1.0930826815     -0.0263264282     -0.1839613541
O       1.9872463078      0.6541086973      0.0286512958
C      -0.6693492673      1.4654733494     -0.2442263354
C      -0.0442621524      2.5990942319      0.4687204213
C      -0.5663767303     -1.2785687741      0.1242331425
H      -2.0582059077      0.6195503563     -0.5342501822
H       1.4464289770      2.8028537628      1.3003151072
H      -0.7087512012      3.1239409465     -0.5222580941
H       0.3182729529     -1.3638672271     -0.7112940045
H      -0.0592148418     -1.8129387734      2.1182737682
H      -2.5245526870     -0.4521859855      0.4698004770
12
Frame=99  time=50.000fs  energy=-306.19357952Ha  molecule=COOCCCHHHHHH
C      -0.0353130928     -0.0244270446     -0.3646312428
O       1.0910443208     -0.0246732681     -0.1857434624
O       1.9861494655      0.6514831054      0.0285376935
C      -0.6698135663      1.4667544083     -0.2457457031
C      -0.0420973018      2.5995671784      0.4733268927
C      -0.5636728260     -1.2783190605      0.1247368269
H      -2.0698063691      0.6113825571     -0.5401685998
H       1.4554859491      2.8046110863      1.3139791105
H      -0.7072641330      3.1185194953     -0.5290733644
H       0.3227698168     -1.3507703702     -0.7157066502
H      -0.0474627976     -1.8169916776      2.1356553577
H      -2.5359350999     -0.4405669028      0.4827082827
12
Frame=100  time=50.500fs  energy=-306.19357966Ha  molecule=COOCCCHHHHHH
C      -0.0358609147     -0.0258760385     -0.3679453784
O       1.0890066515     -0.0230206697     -0.1875249584
O       1.9850529862      0.6488583990      0.0284241560
C      -0.6702777067      1.4680350358     -0.2472645992
C      -0.0399332053      2.6000399681      0.4779317888
C      -0.5609698318     -1.2780694360      0.1252403780
H      -2.0814027084      0.6032175561     -0.5460850642
H       1.4645397944      2.8063678167      1.3276385038
H      -0.7057775908      3.1130999308     -0.5358863754
H       0.3272652361     -1.3376780853     -0.7201178927
H      -0.0357145985     -1.8210432393      2.1530310454
H      -2.5473137130     -0.4289517975      0.4956117704
12
Frame=101  time=51.000fs  energy=-306.19357976Ha  molecule=COOCCCHHHHHH
C      -0.0364085487     -0.0273245256     -0.3712583951
O       1.0869696780     -0.0213686362     -0.1893058398
O       1.9839568742      0.6462345848      0.0283106777
C      -0.6707416876      1.4693152286     -0.2487830107
C      -0.0377698633      2.6005125993      0.4825351025
C      -0.5582677551     -1.2778199004      0.1257437861
H      -2.0929949436      0.5950553637     -0.5519995504
H       1.4735905070      2.8081239496      1.3412932518
H      -0.7042915732      3.1076822536     -0.5426971016
H       0.3317591820     -1.3245903698     -0.7245277006
H      -0.0239703017     -1.8250934424      2.1704007950
H      -2.5586884874     -0.4173406861      0.5085108999
12
Frame=102  time=51.500fs  energy=-306.19357985Ha  molecule=COOCCCHHHHHH
C      -0.0369559942     -0.0287725065     -0.3745702848
O       1.0849334035     -0.0197171699     -0.1910861051
O       1.9828611328      0.6436116680      0.0281972543
C      -0.6712055087      1.4705949842     -0.2503009277
C      -0.0356072758      2.6009850703      0.4871368287
C      -0.5555666011     -1.2775704535      0.1262470439
H      -2.1045830901      0.5868959875     -0.5579120396
H       1.4826380829      2.8098794819      1.3549433287
H      -0.7028060784      3.1022664634     -0.5495055233
H       0.3362516327     -1.3115072203     -0.7289360500
H      -0.0122299508     -1.8291422751      2.1877645800
H      -2.5700593937     -0.4057335801      0.5214056410
12
Frame=103  time=52.000fs  energy=-306.19357991Ha  molecule=COOCCCHHHHHH
C      -0.0375032505     -0.0302199819     -0.3778810415
O       1.0828978301     -0.0180662724     -0.1928657533
O       1.9817657645      0.6409896520      0.0280838822
C      -0.6716691694      1.4718743008     -0.2518183425
C      -0.0334454425      2.6014573803      0.4917369640
C      -0.5528663739     -1.2773210948      0.1267501456
H      -2.1161671615      0.5787394324     -0.5638225177
H       1.4916825201      2.8116344114      1.3685887162
H      -0.7013211053      3.0968525594     -0.5563116261
H       0.3407425720     -1.2984286329     -0.7333429230
H      -0.0004935782     -1.8331897285      2.2051223825
H      -2.5814264112     -0.3941304869      0.5342959715
12
Frame=104  time=52.500fs  energy=-306.19357996Ha  molecule=COOCCCHHHHHH
C      -0.0380503174     -0.0316669524     -0.3811906612
O       1.0808629594     -0.0164159448     -0.1946447841
O       1.9806707710      0.6383685394      0.0279705587
C      -0.6721326696      1.4731531772     -0.2533352493
C      -0.0312843626      2.6019295284      0.4963355065
C      -0.5501670761     -1.2770718242      0.1272530867
H      -2.1277471698      0.5705857010     -0.5697309746
H       1.5007238182      2.8133887365      1.3822294020
H      -0.6998366525      3.0914405402     -0.5631153994
H       0.3452319879     -1.2853546028     -0.7377483063
H       0.0112387926     -1.8372357962      2.2224741908
H      -2.5927895251     -0.3825314109      0.5471818757
12
Frame=105  time=53.000fs  energy=-306.19358000Ha  molecule=COOCCCHHHHHH
C      -0.0385971948     -0.0331134188     -0.3844991411
O       1.0788287922     -0.0147661878     -0.1964231974
O       1.9795761536      0.6357483315      0.0278572816
C      -0.6725960093      1.4744316125     -0.2548516437
C      -0.0291240355      2.6024015142      0.5009324555
C      -0.5474687093     -1.2768226412      0.1277558641
H      -2.1393231261      0.5624347945     -0.5756374036
H       1.5097619780      2.8151424562      1.3958653786
H      -0.6983527187      3.0860304041     -0.5699168361
H       0.3497198722     -1.2722851244     -0.7421521905
H       0.0229671452     -1.8412804739      2.2398199986
H      -2.6041487260     -0.3709363535      0.5600633435
12
Frame=106  time=53.500fs  energy=-306.19358003Ha  molecule=COOCCCHHHHHH
C      -0.0391438826     -0.0345593818     -0.3878064799
O       1.0767953287     -0.0131170015     -0.1982009936
O       1.9784819129      0.6331290291      0.0277440493
C      -0.6730591884      1.4757096063     -0.2563675228
C      -0.0269644600      2.6028733374      0.5055278112
C      -0.5447712744     -1.2765735456      0.1282584750
H      -2.1508950407      0.5542867124     -0.5815418003
H       1.5187970015      2.8168955702      1.4094966425
H      -0.6968693028      3.0806221487     -0.5767159317
H       0.3542062190     -1.2592201917     -0.7465545691
H       0.0346914688     -1.8453237590      2.2571598039
H      -2.6155040084     -0.3593453143      0.5729403687
12
Frame=107  time=54.000fs  energy=-306.19358005Ha  molecule=COOCCCHHHHHH
C      -0.0396903810     -0.0360048423     -0.3911126767
O       1.0747625688     -0.0114683858     -0.1999781732
O       1.9773880493      0.6305106322      0.0276308604
C      -0.6735222069      1.4769871586     -0.2578828844
C      -0.0248056351      2.6033449978      0.5101215744
C      -0.5420747717     -1.2763245371      0.1287609178
H      -2.1624629233      0.5461414529     -0.5874441623
H       1.5278288916      2.8186480782      1.4231231932
H      -0.6953864037      3.0752157716     -0.5835126838
H       0.3586910248     -1.2461597977     -0.7509554376
H       0.0464117570     -1.8493656501      2.2744936079
H      -2.6268553700     -0.3477582909      0.5858129489
12
Frame=108  time=54.500fs  energy=-306.19358007Ha  molecule=COOCCCHHHHHH
C      -0.0402366901     -0.0374498011     -0.3944177318
O       1.0727305122     -0.0098203404     -0.2017547367
O       1.9762945631      0.6278931406      0.0275177138
C      -0.6739850652      1.4782642694     -0.2593977271
C      -0.0226475595      2.6038164953      0.5147137468
C      -0.5393792009     -1.2760756156      0.1292631912
H      -2.1740267831      0.5379990136     -0.5933444887
H       1.5368576521      2.8203999804      1.4367450325
H      -0.6939040201      3.0698112699     -0.5903070916
H       0.3631742876     -1.2331039352     -0.7553547938
H       0.0581280068     -1.8534061468      2.2918214144
H      -2.6382028109     -0.3361752797      0.5986810842
12
Frame=109  time=55.000fs  energy=-306.19358008Ha  molecule=COOCCCHHHHHH
C      -0.0407828102     -0.0388942591     -0.3977216455
O       1.0706991581     -0.0081728647     -0.2035306852
O       1.9752014541      0.6252765536      0.0274046088
C      -0.6744477633      1.4795409391     -0.2609120500
C      -0.0204902320      2.6042878301      0.5193043301
C      -0.5366845612     -1.2758267806      0.1297652941
H      -2.1855866294      0.5298593912     -0.5992427799
H       1.5458832872      2.8221512774      1.4503621643
H      -0.6924221511      3.0644086406     -0.5970991557
H       0.3676560067     -1.2200525964     -0.7597526364
H       0.0698402180     -1.8574452494      2.3091432294
H      -2.6495463332     -0.3245962759      0.6115447767
12
Frame=110  time=55.500fs  energy=-306.19358009Ha  molecule=COOCCCHHHHHH
C      -0.0413287415     -0.0403382173     -0.4010244191
O       1.0686685057     -0.0065259580     -0.2053060196
O       1.9741087220      0.6226608701      0.0272915447
C      -0.6749103015      1.4808171681     -0.2624258529
C      -0.0183336510      2.6047590023      0.5238933266
C      -0.5339908518     -1.2755780320      0.1302672260
H      -2.1971424711      0.5217225816     -0.6051390372
H       1.5549058019      2.8239019698      1.4639745938
H      -0.6909407954      3.0590078803     -0.6038888777
H       0.3721361823     -1.2070057733     -0.7641489653
H       0.0815483925     -1.8614829590      2.3264590604
H      -2.6608859405     -0.3130212739      0.6244040306
12
Frame=111  time=56.000fs  energy=-306.19358010Ha  molecule=COOCCCHHHHHH
C      -0.0418744843     -0.0417816765     -0.4043260539
O       1.0666385539     -0.0048796196     -0.2070807408
O       1.9730163665      0.6200460889      0.0271785210
C      -0.6753726800      1.4820929569     -0.2639391358
C      -0.0161778153      2.6052300121      0.5284807389
C      -0.5312980715     -1.2753293696      0.1307689865
H      -2.2086943167      0.5135885806     -0.6110332627
H       1.5639252013      2.8256520584      1.4775823273
H      -0.6894599519      3.0536089856     -0.6106762599
H       0.3766148155     -1.1939634574     -0.7685437814
H       0.0932525338     -1.8655192770      2.3437689161
H      -2.6722216377     -0.3014502674      0.6372588509
12
Frame=112  time=56.500fs  energy=-306.19358010Ha  molecule=COOCCCHHHHHH
C      -0.0424200389     -0.0432246379     -0.4076265515
O       1.0646093018     -0.0032338485     -0.2088548501
O       1.9719243871      0.6174322086      0.0270655372
C      -0.6758348991      1.4833683063     -0.2654518988
C      -0.0140227233      2.6057008596      0.5330665698
C      -0.5286062188     -1.2750807931      0.1312705755
H      -2.2202421752      0.5054573832     -0.6169254589
H       1.5729414911      2.8274015441      1.4911853723
H      -0.6879796196      3.0482119530     -0.6174613055
H       0.3810919078     -1.1809256400     -0.7729370859
H       0.1049526468     -1.8695542052      2.3610728064
H      -2.6835534302     -0.2898832494      0.6501092440
12
Frame=113  time=57.000fs  energy=-306.19358011Ha  molecule=COOCCCHHHHHH
C      -0.0429654058     -0.0446671023     -0.4109259137
O       1.0625807479     -0.0015886438     -0.2106283485
O       1.9708327832      0.6148192277      0.0269525931
C      -0.6762969590      1.4846432168     -0.2669641425
C      -0.0118683735      2.6061715452      0.5376508220
C      -0.5259152923     -1.2748323024      0.1317719928
H      -2.2317860549      0.4973289845     -0.6228156288
H       1.5819546771      2.8291504278      1.5047837366
H      -0.6864997974      3.0428167788     -0.6242440178
H       0.3855674613     -1.1678923122     -0.7773288808
H       0.1166487370     -1.8735877457      2.3783707416
H      -2.6948813245     -0.2783202129      0.6629552168
12
Frame=114  time=57.500fs  energy=-306.19358011Ha  molecule=COOCCCHHHHHH
C      -0.0435105851     -0.0461090707     -0.4142241425
O       1.0605528911      0.0000559957     -0.2124012373
O       1.9697415542      0.6122071446      0.0268396883
C      -0.6767588602      1.4859176895     -0.2684758674
C      -0.0097147645      2.6066420691      0.5422334987
C      -0.5232252902     -1.2745838972      0.1322732386
H      -2.2433259646      0.4892033792     -0.6287037759
H       1.5909647652      2.8308987108      1.5183774287
H      -0.6850204840      3.0374234593     -0.6310244007
H       0.3900414782     -1.1548634649     -0.7817191682
H       0.1283408109     -1.8776199010      2.3956627328
H      -2.7062053273     -0.2667611502      0.6757967771
12
Frame=115  time=58.000fs  energy=-306.19358011Ha  molecule=COOCCCHHHHHH
C      -0.0440555775     -0.0475505443     -0.4175212400
O       1.0585257300      0.0017000709     -0.2141735177
O       1.9686506995      0.6095959575      0.0267268227
C      -0.6772206029      1.4871917249     -0.2699870745
C      -0.0075618946      2.6071124316      0.5468146030
C      -0.5205362108     -1.2743355773      0.1327743129
H      -2.2548619128      0.4810805617     -0.6345899037
H       1.5999717616      2.8326463940      1.5319664574
H      -0.6835416786      3.0320319907     -0.6378024584
H       0.3945139612     -1.1418390891     -0.7861079505
H       0.1400288756     -1.8816506733      2.4129487914
H      -2.7175254458     -0.2552060536      0.6886339329
12
Frame=116  time=58.500fs  energy=-306.19358011Ha  molecule=COOCCCHHHHHH
C      -0.0446003831     -0.0489915241     -0.4208172084
O       1.0564992633      0.0033435831     -0.2159451910
O       1.9675602182      0.6069856648      0.0266139961
C      -0.6776821875      1.4884653240     -0.2714977644
C      -0.0054097624      2.6075826330      0.5513941380
C      -0.5178480524     -1.2740873426      0.1332752161
H      -2.2663939079      0.4729605266     -0.6404740160
H       1.6089756726      2.8343934787      1.5455508320
H      -0.6820633799      3.0266423692     -0.6445781953
H       0.3989849130     -1.1288191753     -0.7904952305
H       0.1517129384     -1.8856800655      2.4302289292
H      -2.7288416875     -0.2436549150      0.7014666927
12
Frame=117  time=59.000fs  energy=-306.19358011Ha  molecule=COOCCCHHHHHH
C      -0.0451450024     -0.0504320110     -0.4241120499
O       1.0544734894      0.0049865333     -0.2177162584
O       1.9664701098      0.6043762646      0.0265012082
C      -0.6781436142      1.4897384877     -0.2730079381
C      -0.0032583662      2.6080526737      0.5559721069
C      -0.5151608131     -1.2738391928      0.1337759482
H      -2.2779219585      0.4648432682     -0.6463561168
H       1.6179765046      2.8361399660      1.5591305617
H      -0.6805855869      3.0212545910     -0.6513516158
H       0.4034543366     -1.1158037143     -0.7948810109
H       0.1633930071     -1.8897080801      2.4475031583
H      -2.7401540602     -0.2321077264      0.7142950650
12
Frame=118  time=59.500fs  energy=-306.19358011Ha  molecule=COOCCCHHHHHH
C      -0.0456894358     -0.0518720062     -0.4274057668
O       1.0524484071      0.0066289226     -0.2194867211
O       1.9653803734      0.6017677551      0.0263884590
C      -0.6786048833      1.4910112168     -0.2745175967
C      -0.0011077045      2.6085225539      0.5605485130
C      -0.5124744910     -1.2735911277      0.1342765096
H      -2.2894460730      0.4567287806     -0.6522362100
H       1.6269742639      2.8378858572      1.5727056561
H      -0.6791082984      3.0158686520     -0.6581227246
H       0.4079222349     -1.1027926967     -0.7992652947
H       0.1750690895     -1.8937347200      2.4647714908
H      -2.7514625717     -0.2205644796      0.7271190589
12
Frame=119  time=60.000fs  energy=-306.19358011Ha  molecule=COOCCCHHHHHH
C      -0.0462336837     -0.0533115106     -0.4306983614
O       1.0504240148      0.0082707524     -0.2212565805
O       1.9642910083      0.5991601344      0.0262757484
C      -0.6790659953      1.4922835122     -0.2760267409
C       0.0010422242      2.6089922741      0.5651233597
C      -0.5097890842     -1.2733431472      0.1347769006
H      -2.3009662600      0.4486170581     -0.6581142997
H       1.6359689571      2.8396311536      1.5862761248
H      -0.6776315135      3.0104845485     -0.6648915264
H       0.4123886111     -1.0897861131     -0.8036480848
H       0.1867411938     -1.8977599879      2.4820339390
H      -2.7627672299     -0.2090251663      0.7399386833
12
Frame=120  time=60.500fs  energy=-306.19358012Ha  molecule=COOCCCHHHHHH
C      -0.0467777464     -0.0547505253     -0.4339898361
O       1.0484003111      0.0099120236     -0.2230258379
O       1.9632020137      0.5965534007      0.0261630762
C      -0.6795269505      1.4935553749     -0.2775353720
C       0.0031914216      2.6094618344      0.5696966501
C      -0.5071045909     -1.2730952511      0.1352771215
H      -2.3124825279      0.4405080949     -0.6639903902
H       1.6449605907      2.8413758562      1.5998419776
H      -0.6761552309      3.0051022766     -0.6716580260
H       0.4168534682     -1.0767839539     -0.8080293843
H       0.1984093283     -1.9017838867      2.4992905154
H      -2.7740680430     -0.1974897782      0.7527539473
12
Frame=121  time=61.000fs  energy=-306.19358012Ha  molecule=COOCCCHHHHHH
C      -0.0473216244     -0.0561890514     -0.4372801933
O       1.0463772945      0.0115527376     -0.2247944944
O       1.9621133889      0.5939475521      0.0260504423
C      -0.6799877491      1.4948268057     -0.2790434910
C       0.0053398892      2.6099312353      0.5742683877
C      -0.5044210090     -1.2728474391      0.1357771726
H      -2.3239948852      0.4324018851     -0.6698644856
H       1.6539491711      2.8431199665      1.6134032242
H      -0.6746794497      2.9997218322     -0.6784222282
H       0.4213168094     -1.0637862098     -0.8124091964
H       0.2100735011     -1.9058064192      2.5165412323
H      -2.7853650191     -0.1859583069      0.7655648600
12
Frame=122  time=61.500fs  energy=-306.19358012Ha  molecule=COOCCCHHHHHH
C      -0.0478653180     -0.0576270899     -0.4405694352
O       1.0443549637      0.0131928955     -0.2265625515
O       1.9610251330      0.5913425867      0.0259378466
C      -0.6804483915      1.4960978056     -0.2805510988
C       0.0074876285      2.6104004772      0.5788385757
C      -0.5017383367     -1.2725997112      0.1362770543
H      -2.3355033402      0.4242984227     -0.6757365901
H       1.6629347048      2.8448634857      1.6269598744
H      -0.6732041686      2.9943432116     -0.6851841378
H       0.4257786379     -1.0507928713     -0.8167875241
H       0.2217337208     -1.9098275885      2.5337861024
H      -2.7966581662     -0.1744307441      0.7783714309
12
Frame=123  time=62.000fs  energy=-306.19358012Ha  molecule=COOCCCHHHHHH
C      -0.0484088277     -0.0590646418     -0.4438575643
O       1.0423333170      0.0148324985     -0.2283300104
O       1.9599372453      0.5887385026      0.0258252891
C      -0.6809088781      1.4973683755     -0.2820581967
C       0.0096346412      2.6108695603      0.5834072174
C      -0.4990565720     -1.2723520671      0.1367767669
H      -2.3470079014      0.4161977020     -0.6816067080
H       1.6719171986      2.8466064150      1.6405119381
H      -0.6717293868      2.9889664107     -0.6919437598
H       0.4302389569     -1.0378039288     -0.8211643705
H       0.2333899956     -1.9138473973      2.5510251380
H      -2.8079474927     -0.1629070815      0.7911736690
12
Frame=124  time=62.500fs  energy=-306.19358012Ha  molecule=COOCCCHHHHHH
C      -0.0489521539     -0.0605017083     -0.4471445830
O       1.0403123531      0.0164715478     -0.2300968724
O       1.9588497250      0.5861352980      0.0257127696
C      -0.6813692092      1.4986385164     -0.2835647856
C       0.0117809288      2.6113384849      0.5879743163
C      -0.4963757130     -1.2721045066      0.1372763107
H      -2.3585085773      0.4080997171     -0.6874748435
H       1.6808966587      2.8483487556      1.6540594250
H      -0.6702551030      2.9835914257     -0.6987010991
H       0.4346977696     -1.0248193730     -0.8255397389
H       0.2450423340     -1.9178658486      2.5682583517
H      -2.8192330066     -0.1513873105      0.8039715836
12
Frame=125  time=63.000fs  energy=-306.19358012Ha  molecule=COOCCCHHHHHH
C      -0.0494952969     -0.0619382903     -0.4504304936
O       1.0382920704      0.0181100445     -0.2318631388
O       1.9577625712      0.5835329709      0.0256002880
C      -0.6818293850      1.4999082290     -0.2850708667
C       0.0139264928      2.6118072515      0.5925398755
C      -0.4936957577     -1.2718570296      0.1377756862
H      -2.3700053762      0.4000044620     -0.6933410009
H       1.6898730919      2.8500905090      1.6676023451
H      -0.6687813162      2.9782182526     -0.7054561605
H       0.4391550794     -1.0118391943     -0.8299136324
H       0.2566907445     -1.9218829453      2.5854857562
H      -2.8305147161     -0.1398714229      0.8167651842
12
Frame=126  time=63.500fs  energy=-306.19358012Ha  molecule=COOCCCHHHHHH
C      -0.0500382571     -0.0633743890     -0.4537152985
O       1.0362724675      0.0197479899     -0.2336288109
O       1.9566757833      0.5809315195      0.0254878443
C      -0.6822894061      1.5011775144     -0.2865764410
C       0.0160713349      2.6122758604      0.5971038985
C      -0.4910167042     -1.2716096359      0.1382748937
H      -2.3814983065      0.3919119308     -0.6992051845
H       1.6988465046      2.8518316762      1.6811407082
H      -0.6673080254      2.9728468875     -0.7122089489
H       0.4436108893     -0.9988633833     -0.8342860542
H       0.2683352355     -1.9258986903      2.6027073638
H      -2.8417926296     -0.1283594103      0.8295544798
12
Frame=127  time=64.000fs  energy=-306.19358012Ha  molecule=COOCCCHHHHHH
C      -0.0505810349     -0.0648100052     -0.4569990002
O       1.0342535430      0.0213853852     -0.2353938898
O       1.9555893605      0.5783309418      0.0253754384
C      -0.6827492726      1.5024463735     -0.2880815096
C       0.0182154566      2.6127443119      0.6016663886
C      -0.4883385504     -1.2713623253      0.1387739335
H      -2.3929873765      0.3838221177     -0.7050673984
H       1.7078169033      2.8535722587      1.6946745241
H      -0.6658352294      2.9674773266     -0.7189594692
H       0.4480652026     -0.9858919306     -0.8386570074
H       0.2799758155     -1.9299130865      2.6199231871
H      -2.8530667550     -0.1168512643      0.8423394799
12
Frame=128  time=64.500fs  energy=-306.19358012Ha  molecule=COOCCCHHHHHH
C      -0.0511236308     -0.0662451402     -0.4602816010
O       1.0322352953      0.0230222315     -0.2371583771
O       1.9545033018      0.5757312360      0.0252630701
C      -0.6832089850      1.5037148072     -0.2895860737
C       0.0203588594      2.6132126063      0.6062273490
C      -0.4856612946     -1.2711150975      0.1392728060
H      -2.4044725947      0.3757350169     -0.7109276469
H       1.7167842946      2.8553122576      1.7082038026
H      -0.6643629271      2.9621095658     -0.7257077264
H       0.4525180226     -0.9729248268     -0.8430264952
H       0.2916124928     -1.9339261368      2.6371332385
H      -2.8643371007     -0.1053469765      0.8551201937
12
Frame=129  time=65.000fs  energy=-306.19358012Ha  molecule=COOCCCHHHHHH
C      -0.0516660451     -0.0676797949     -0.4635631033
O       1.0302177231      0.0246585300     -0.2389222738
O       1.9534176066      0.5731324001      0.0251507395
C      -0.6836685435      1.5049828164     -0.2910901343
C       0.0225015450      2.6136807440      0.6107867831
C      -0.4829849347     -1.2708679525      0.1397715116
H      -2.4159539694      0.3676506223     -0.7167859344
H       1.7257486850      2.8570516742      1.7217285535
H      -0.6628911176      2.9567436014     -0.7324537253
H       0.4569693524     -0.9599620624     -0.8473945207
H       0.3032452759     -1.9379378442      2.6543375307
H      -2.8756036748     -0.0938465386      0.8678966305
12
Frame=130  time=65.500fs  energy=-306.19358012Ha  molecule=COOCCCHHHHHH
C      -0.0522082782     -0.0691139704     -0.4668435094
O       1.0282008248      0.0262942820     -0.2406855814
O       1.9523322740      0.5705344324      0.0250384464
C      -0.6841279485      1.5062504021     -0.2925936924
C       0.0246435148      2.6141487253      0.6153446942
C      -0.4803094688     -1.2706208901      0.1402700506
H      -2.4274315088      0.3595689283     -0.7226422649
H       1.7347100809      2.8587905098      1.7352487867
H      -0.6614197997      2.9513794294     -0.7391974708
H       0.4614191954     -0.9470036280     -0.8517610872
H       0.3148741733     -1.9419482116      2.6715360760
H      -2.8868664855     -0.0823499423      0.8806687994
12
Frame=131  time=66.000fs  energy=-306.19358012Ha  molecule=COOCCCHHHHHH
C      -0.0527503305     -0.0705476677     -0.4701228218
O       1.0261845989      0.0279294885     -0.2424483010
O       1.9512473034      0.5679373309      0.0249261908
C      -0.6845872003      1.5075175651     -0.2940967493
C       0.0267847704      2.6146165506      0.6199010856
C      -0.4776348949     -1.2703739101      0.1407684233
H      -2.4389052214      0.3514899288     -0.7284966428
H       1.7436684889      2.8605287656      1.7487645120
H      -0.6599489724      2.9460170460     -0.7459389677
H       0.4658675547     -0.9340495143     -0.8561261978
H       0.3264991934     -1.9459572417      2.6887288869
H      -2.8981255408     -0.0708571792      0.8934367098
12
Frame=132  time=66.500fs  energy=-306.19358012Ha  molecule=COOCCCHHHHHH
C      -0.0532922025     -0.0719808878     -0.4734010427
O       1.0241690441      0.0295641509     -0.2442104339
O       1.9501626938      0.5653410938      0.0248139725
C      -0.6850462993      1.5087843064     -0.2955993059
C       0.0289253134      2.6150842202      0.6244559605
C      -0.4749612112     -1.2701270122      0.1412666302
H      -2.4503751153      0.3434136182     -0.7343490723
H       1.7526239154      2.8622664429      1.7622757390
H      -0.6584786346      2.9406564472     -0.7526782210
H       0.4703144335     -0.9210997119     -0.8604898556
H       0.3381203445     -1.9499649377      2.7059159758
H      -2.9093808490     -0.0593682411      0.9062003709
12
Frame=133  time=67.000fs  energy=-306.19358012Ha  molecule=COOCCCHHHHHH
C      -0.0538338944     -0.0734136318     -0.4766781747
O       1.0221541589      0.0311982702     -0.2459719815
O       1.9490784445      0.5627457191      0.0247017914
C      -0.6855052458      1.5100506268     -0.2971013633
C       0.0310651453      2.6155517344      0.6290093223
C      -0.4722884157     -1.2698801964      0.1417646716
H      -2.4618411989      0.3353399906     -0.7401995577
H       1.7615763669      2.8640035429      1.7757824776
H      -0.6570087852      2.9352976292     -0.7594152355
H       0.4747598351     -0.9081542114     -0.8648520638
H       0.3497376350     -1.9539713023      2.7230973552
H      -2.9206324182     -0.0478831196      0.9189597919
12
Frame=134  time=67.500fs  energy=-306.19358012Ha  molecule=COOCCCHHHHHH
C      -0.0543754067     -0.0748459007     -0.4799542200
O       1.0201399418      0.0328318476     -0.2477329449
O       1.9479945548      0.5601512050      0.0245896476
C      -0.6859640401      1.5113165274     -0.2986029227
C       0.0332042676      2.6160190936      0.6335611743
C      -0.4696165065     -1.2696334624      0.1422625479
H      -2.4733034805      0.3272690401     -0.7460481030
H       1.7705258499      2.8657400669      1.7892847374
H      -0.6555394232      2.9299405882     -0.7661500161
H       0.4792037626     -0.8952130036     -0.8692128255
H       0.3613510733     -1.9579763383      2.7402730373
H      -2.9318802565     -0.0364018065      0.9317149820
12
Frame=135  time=68.000fs  energy=-306.19358012Ha  molecule=COOCCCHHHHHH
C      -0.0549167397     -0.0762776956     -0.4832291809
O       1.0181263913      0.0344648844     -0.2494933255
O       1.9469110238      0.5575575497      0.0244775409
C      -0.6864226825      1.5125820090     -0.3001039851
C       0.0353426819      2.6164862981      0.6381115196
C      -0.4669454816     -1.2693868100      0.1427602594
H      -2.4847619682      0.3192007609     -0.7518947126
H       1.7794723707      2.8674760162      1.8027825282
H      -0.6540705476      2.9245853203     -0.7728825676
H       0.4836462192     -0.8822760790     -0.8735721439
H       0.3729606678     -1.9619800488      2.7574430346
H      -2.9431243719     -0.0249242935      0.9444659503
12
Frame=136  time=68.500fs  energy=-306.19358012Ha  molecule=COOCCCHHHHHH
C      -0.0554578939     -0.0777090174     -0.4865030599
O       1.0161135061      0.0360973816     -0.2512531246
O       1.9458278508      0.5549647513      0.0243654713
C      -0.6868811734      1.5138470725     -0.3016045516
C       0.0374803898      2.6169533483      0.6426603617
C      -0.4642753392     -1.2691402392      0.1432578064
H      -2.4962166703      0.3111351473     -0.7577393906
H       1.7884159358      2.8692113920      1.8162758598
H      -0.6526021573      2.9192318215     -0.7796128948
H       0.4880872082     -0.8693434285     -0.8779300221
H       0.3845664268     -1.9659824366      2.7746073593
H      -2.9543647725     -0.0134505723      0.9572127061
12
Frame=137  time=69.000fs  energy=-306.19358012Ha  molecule=COOCCCHHHHHH
C      -0.0559988697     -0.0791398673     -0.4897758593
O       1.0141012847      0.0377293406     -0.2530123433
O       1.9447450349      0.5523728078      0.0242534386
C      -0.6873395131      1.5151117188     -0.3031046232
C       0.0396173927      2.6174202444      0.6472077037
C      -0.4616060773     -1.2688937497      0.1437551894
H      -2.5076675951      0.3030721934     -0.7635821413
H       1.7973565517      2.8709461955      1.8297647417
H      -0.6511342511      2.9138800882     -0.7863410026
H       0.4925267326     -0.8564150428     -0.8822864632
H       0.3961683586     -1.9699835045      2.7917660239
H      -2.9656014665     -0.0019806348      0.9699552584
12
Frame=138  time=69.500fs  energy=-306.19358012Ha  molecule=COOCCCHHHHHH
C      -0.0565396674     -0.0805702462     -0.4930475814
O       1.0120897256      0.0393607623     -0.2547709829
O       1.9436625755      0.5497817176      0.0241414427
C      -0.6877977020      1.5163759489     -0.3046042011
C       0.0417536922      2.6178869869      0.6517535489
C      -0.4589376940     -1.2686473413      0.1442524086
H      -2.5191147507      0.2950118935     -0.7694229687
H       1.8062942246      2.8726804279      1.8432491836
H      -0.6496668282      2.9085301165     -0.7930668958
H       0.4969647958     -0.8434909125     -0.8866414704
H       0.4077664715     -1.9739832555      2.8089190405
H      -2.9768344618      0.0094855273      0.9826936164
12
Frame=139  time=70.000fs  energy=-306.19358012Ha  molecule=COOCCCHHHHHH
C      -0.0570802874     -0.0820001551     -0.4963182286
O       1.0100788274      0.0409916480     -0.2565290447
O       1.9425804718      0.5471914786      0.0240294837
C      -0.6882557403      1.5176397636     -0.3061032863
C       0.0438892898      2.6183535760      0.6562979005
C      -0.4562701874     -1.2684010138      0.1447494645
H      -2.5305581454      0.2869542419     -0.7752618772
H       1.8152289611      2.8744140906      1.8567291952
H      -0.6481998873      2.9031819025     -0.7997905792
H       0.5014014009     -0.8305710284     -0.8909950467
H       0.4193607739     -1.9779816923      2.8260664215
H      -2.9880637665      0.0209479221      0.9954277892
12
Frame=140  time=70.500fs  energy=-306.19358012Ha  molecule=COOCCCHHHHHH
C      -0.0576207301     -0.0834295951     -0.4995878032
O       1.0080685886      0.0426219989     -0.2582865300
O       1.9414987229      0.5446020891      0.0239175614
C      -0.6887136284      1.5189031638     -0.3076018799
C       0.0460241871      2.6188200121      0.6608407619
C      -0.4536035555     -1.2681547672      0.1452463573
H      -2.5419977872      0.2788992327     -0.7810988708
H       1.8241607675      2.8761471847      1.8702047860
H      -0.6467334276      2.8978354424     -0.8065120576
H       0.5058365509     -0.8176553814     -0.8953471953
H       0.4309512740     -1.9819788179      2.8432081791
H      -2.9992893886      0.0324065579      1.0081577858
12
Frame=141  time=71.000fs  energy=-306.19358012Ha  molecule=COOCCCHHHHHH
C      -0.0581609959     -0.0848585671     -0.5028563075
O       1.0060590079      0.0442518161     -0.2600434400
O       1.9404173281      0.5420135472      0.0238056757
C      -0.6891713666      1.5201661504     -0.3090999830
C       0.0481583855      2.6192862955      0.6653821362
C      -0.4509377966     -1.2679086011      0.1457430876
H      -2.5534336844      0.2708468602     -0.7869339537
H       1.8330896502      2.8778797116      1.8836759658
H      -0.6452674479      2.8924907325     -0.8132313358
H       0.5102702492     -0.8047439622     -0.8996979192
H       0.4425379800     -1.9859746350      2.8603443256
H      -3.0105113361      0.0438614429      1.0208836155
12
Frame=142  time=71.500fs  energy=-306.19358012Ha  molecule=COOCCCHHHHHH
C      -0.0587010852     -0.0862870723     -0.5061237439
O       1.0040500838      0.0458811008     -0.2617997760
O       1.9393362866      0.5394258510      0.0236938266
C      -0.6896289553      1.5214287244     -0.3105975965
C       0.0502918866      2.6197524266      0.6699220266
C      -0.4482729087     -1.2676625155      0.1462396555
H      -2.5648658451      0.2627971188     -0.7927671301
H       1.8420156154      2.8796116723      1.8971427441
H      -0.6438019471      2.8871477688     -0.8199484185
H       0.5147024989     -0.7918367616     -0.9040472216
H       0.4541209002     -1.9899691466      2.8774748730
H      -3.0217296170      0.0553125851      1.0336052871
12
Frame=143  time=72.000fs  energy=-306.19358012Ha  molecule=COOCCCHHHHHH
C      -0.0592409984     -0.0877151116     -0.5093901147
O       1.0020418149      0.0475098541     -0.2635555391
O       1.9382555977      0.5368389988      0.0235820139
C      -0.6900863947      1.5226908867     -0.3120947216
C       0.0524246919      2.6202184057      0.6744604365
C      -0.4456088899     -1.2674165102      0.1467360615
H      -2.5762942773      0.2547500026     -0.7985984041
H       1.8509386697      2.8813430682      1.9106051304
H      -0.6423369243      2.8818065477     -0.8266633106
H       0.5191333030     -0.7789337704     -0.9083951056
H       0.4657000429     -1.9939623554      2.8945998336
H      -3.0329442392      0.0667599928      1.0463228099
12
Frame=144  time=72.500fs  energy=-306.19358012Ha  molecule=COOCCCHHHHHH
C      -0.0597807357     -0.0891426860     -0.5126554222
O       1.0000341997      0.0491380773     -0.2653107307
O       1.9371752606      0.5342529887      0.0234702377
C      -0.6905436852      1.5239526381     -0.3135913594
C       0.0545568029      2.6206842330      0.6789973690
C      -0.4429457383     -1.2671705849      0.1472323058
H      -2.5877189893      0.2467055060     -0.8044277799
H       1.8598588192      2.8830739005      1.9240631343
H      -0.6408723785      2.8764670652     -0.8333760168
H       0.5235626648     -0.7660349796     -0.9127415742
H       0.4772754163     -1.9979542643      2.9117192196
H      -3.0441552108      0.0782036740      1.0590361927
12
Frame=145  time=73.000fs  energy=-306.19358012Ha  molecule=COOCCCHHHHHH
C      -0.0603202978     -0.0905697966     -0.5159196687
O       0.9980272369      0.0507657713     -0.2670653520
O       1.9360952745      0.5316678189      0.0233584978
C      -0.6910008272      1.5252139794     -0.3150875109
C       0.0566882211      2.6211499090      0.6835328273
C      -0.4402834520     -1.2669247395      0.1477283890
H      -2.5991399892      0.2386636232     -0.8102552615
H       1.8687760703      2.8848041704      1.9375167654
H      -0.6394083084      2.8711293177     -0.8400865419
H       0.5279905873     -0.7531403799     -0.9170866305
H       0.4888470285     -2.0019448761      2.9288330430
H      -3.0553625397      0.0896436368      1.0717454446
12
Frame=146  time=73.500fs  energy=-306.19358012Ha  molecule=COOCCCHHHHHH
C      -0.0608596848     -0.0919964443     -0.5191828565
O       0.9960209249      0.0523929375     -0.2688194042
O       1.9350156387      0.5290834874      0.0232467941
C      -0.6914578208      1.5264749118     -0.3165831771
C       0.0588189481      2.6216154340      0.6880668147
C      -0.4376220292     -1.2666789739      0.1482243112
H      -2.6105572849      0.2306243486     -0.8160808532
H       1.8776904293      2.8865338791      1.9509660332
H      -0.6379447133      2.8657933014     -0.8467948906
H       0.5324170738     -0.7402499622     -0.9214302777
H       0.5004148877     -2.0059341937      2.9459413160
H      -3.0665662337      0.1010798894      1.0844505745
12
Frame=147  time=74.000fs  energy=-306.19358012Ha  molecule=COOCCCHHHHHH
C      -0.0613988972     -0.0934226302     -0.5224449879
O       0.9940152625      0.0540195769     -0.2705728886
O       1.9339363524      0.5264999926      0.0231351265
C      -0.6919146665      1.5277354359     -0.3180783592
C       0.0609489852      2.6220808082      0.6925993343
C      -0.4349614679     -1.2664332878      0.1487200729
H      -2.6219708845      0.2225876765     -0.8219045590
H       1.8866019026      2.8882630279      1.9644109471
H      -0.6364815919      2.8604590125     -0.8535010676
H       0.5368421274     -0.7273637174     -0.9257725186
H       0.5119790022     -2.0099222199      2.9630440506
H      -3.0777663008      0.1125124398      1.0971515916
12
Frame=148  time=74.500fs  energy=-306.19358012Ha  molecule=COOCCCHHHHHH
C      -0.0619379354     -0.0948483552     -0.5257060653
O       0.9920102481      0.0556456907     -0.2723258064
O       1.9328574148      0.5239173326      0.0230234951
C      -0.6923713647      1.5289955527     -0.3195730581
C       0.0630783342      2.6225460321      0.6971303893
C      -0.4323017664     -1.2661876811      0.1492156744
H      -2.6333807962      0.2145536013     -0.8277263830
H       1.8955104964      2.8899916179      1.9778515166
H      -0.6350189433      2.8551264472     -0.8602050778
H       0.5412657510     -0.7144816365     -0.9301133565
H       0.5235393800     -2.0139089574      2.9801412590
H      -3.0889627490      0.1239412961      1.1098485046
12
Frame=149  time=75.000fs  energy=-306.19358012Ha  molecule=COOCCCHHHHHH
C      -0.0624767997     -0.0962736204     -0.5289660909
O       0.9900058804      0.0572712801     -0.2740781589
O       1.9317788252      0.5213355056      0.0229118997
C      -0.6928279155      1.5302552631     -0.3210672750
C       0.0652069963      2.6230111060      0.7016599830
C      -0.4296429226     -1.2659421536      0.1497111161
H      -2.6447870279      0.2065221172     -0.8335463293
H       1.9044162169      2.8917196505      1.9912877512
H      -0.6335567664      2.8497956017     -0.8669069257
H       0.5456879480     -0.7016037104     -0.9344527944
H       0.5350960294     -2.0178944091      2.9972329531
H      -3.1001555860      0.1353664663      1.1225413226
12
Frame=150  time=75.500fs  energy=-306.19358012Ha  molecule=COOCCCHHHHHH
C      -0.0630154905     -0.0976984268     -0.5322250671
O       0.9880021579      0.0588963461     -0.2758299472
O       1.9307005828      0.5187545097      0.0228003401
C      -0.6932843193      1.5315145679     -0.3225610108
C       0.0673349732      2.6234760301      0.7061881184
C      -0.4269849348     -1.2656967052      0.1502063983
H      -2.6561895876      0.1984932187     -0.8393644020
H       1.9133190704      2.8934471267      2.0047196604
H      -0.6320950602      2.8444664724     -0.8736066161
H       0.5501087214     -0.6887299300     -0.9387908353
H       0.5466489583     -2.0218785778      3.0143191449
H      -3.1113448197      0.1467879584      1.1352300544
12
Frame=151  time=76.000fs  energy=-306.19358012Ha  molecule=COOCCCHHHHHH
C      -0.0635540083     -0.0991227754     -0.5354829960
O       0.9859990793      0.0605208900     -0.2775811726
O       1.9296226869      0.5161743431      0.0226888165
C      -0.6937405765      1.5327734681     -0.3240542667
C       0.0694622663      2.6239408049      0.7107147989
C      -0.4243278011     -1.2654513356      0.1507015213
H      -2.6675884834      0.1904669001     -0.8451806053
H       1.9222190633      2.8951740479      2.0181472535
H      -0.6306338238      2.8391390555     -0.8803041537
H       0.5545280742     -0.6758602863     -0.9431274823
H       0.5581981750     -2.0258614663      3.0313998465
H      -3.1225304581      0.1582057805      1.1479147090
12
Frame=152  time=76.500fs  energy=-306.19358012Ha  molecule=COOCCCHHHHHH
C      -0.0640923533     -0.1005466671     -0.5387398800
O       0.9839966431      0.0621449128     -0.2793318364
O       1.9285451368      0.5135950041      0.0225773286
C      -0.6941966873      1.5340319646     -0.3255470436
C       0.0715888772      2.6244054305      0.7152400275
C      -0.4216715196     -1.2652060447      0.1511964855
H      -2.6789837232      0.1824431558     -0.8509949431
H       1.9311162016      2.8969004151      2.0315705400
H      -0.6291730559      2.8338133473     -0.8869995433
H       0.5589460096     -0.6629947703     -0.9474627384
H       0.5697436876     -2.0298430774      3.0484750698
H      -3.1337125089      0.1696199406      1.1605952953
12
Frame=153  time=77.000fs  energy=-306.19358012Ha  molecule=COOCCCHHHHHH
C      -0.0646305260     -0.1019701030     -0.5419957214
O       0.9819948480      0.0637684157     -0.2810819397
O       1.9274679315      0.5110164908      0.0224658764
C      -0.6946526522      1.5352900582     -0.3270393426
C       0.0737148072      2.6248699075      0.7197638075
C      -0.4190160884     -1.2649608324      0.1516912913
H      -2.6903753151      0.1744219801     -0.8568074195
H       1.9400104917      2.8986262298      2.0449895293
H      -0.6277127558      2.8284893440     -0.8936927894
H       0.5633625307     -0.6501333729     -0.9517966066
H       0.5812855040     -2.0338234138      3.0655448268
H      -3.1448909799      0.1810304467      1.1732718221
12
Frame=154  time=77.500fs  energy=-306.19358012Ha  molecule=COOCCCHHHHHH
C      -0.0651685268     -0.1033930841     -0.5452505224
O       0.9799936925      0.0653913998     -0.2828314838
O       1.9263910705      0.5084388014      0.0223544598
C      -0.6951084713      1.5365477497     -0.3285311648
C       0.0758400579      2.6253342360      0.7242861419
C      -0.4163615058     -1.2647156984      0.1521859390
H      -2.7017632669      0.1664033675     -0.8626180387
H       1.9489019397      2.9003514929      2.0584042307
H      -0.6262529222      2.8231670419     -0.9003838968
H       0.5677776406     -0.6372760852     -0.9561290900
H       0.5928236324     -2.0378024783      3.0826091294
H      -3.1560658790      0.1924373066      1.1859442983
12
Frame=155  time=78.000fs  energy=-306.19358012Ha  molecule=COOCCCHHHHHH
C      -0.0657063559     -0.1048156113     -0.5485042853
O       0.9779931753      0.0670138663     -0.2845804699
O       1.9253145530      0.5058619342      0.0222430787
C      -0.6955641451      1.5378050401     -0.3300225112
C       0.0779646308      2.6257984164      0.7288070340
C      -0.4137077698     -1.2644706426      0.1526804289
H      -2.7131475866      0.1583873123     -0.8684268046
H       1.9577905518      2.9020762058      2.0718146536
H      -0.6247935543      2.8178464373     -0.9070728701
H       0.5721913423     -0.6244228983     -0.9604601916
H       0.6043580808     -2.0417802738      3.0996679894
H      -3.1672372140      0.2038405285      1.1986127327
12
Frame=156  time=78.500fs  energy=-306.19358012Ha  molecule=COOCCCHHHHHH
C      -0.0662440138     -0.1062376856     -0.5517570124
O       0.9759932950      0.0686358163     -0.2863288992
O       1.9242383781      0.5032858873      0.0221317331
C      -0.6960196737      1.5390619303     -0.3315133828
C       0.0800885274      2.6262624490      0.7333264868
C      -0.4110548786     -1.2642256648      0.1531747613
H      -2.7245282821      0.1503738090     -0.8742337213
H       1.9666763343      2.9038003696      2.0852208073
H      -0.6233346509      2.8125275265     -0.9137597140
H       0.5766036389     -0.6115738032     -0.9647899143
H       0.6158888572     -2.0457568029      3.1167214188
H      -3.1784049926      0.2152401201      1.2112771341
12
Frame=157  time=79.000fs  energy=-306.19358012Ha  molecule=COOCCCHHHHHH
C      -0.0667815009     -0.1076593081     -0.5550087059
O       0.9739940501      0.0702572510     -0.2880767729
O       1.9231625452      0.5007106590      0.0220204229
C      -0.6964750577      1.5403184211     -0.3330037807
C       0.0822117490      2.6267263342      0.7378445036
C      -0.4084028304     -1.2639807649      0.1536689367
H      -2.7359053614      0.1423628521     -0.8800387928
H       1.9755592933      2.9055239856      2.0986227012
H      -0.6218762111      2.8072103058     -0.9204444331
H       0.5810145334     -0.5987287908     -0.9691182613
H       0.6274159697     -2.0497320685      3.1337694294
H      -3.1895692226      0.2266360895      1.2239375114
12
Frame=158  time=79.500fs  energy=-306.19358012Ha  molecule=COOCCCHHHHHH
C      -0.0673188175     -0.1090804797     -0.5582593682
O       0.9719954393      0.0718781713     -0.2898240923
O       1.9220870535      0.4981362474      0.0219091480
C      -0.6969302972      1.5415745134     -0.3344937059
C       0.0843342973      2.6271900723      0.7423610875
C      -0.4057516234     -1.2637359426      0.1541629554
H      -2.7472788323      0.1343544359     -0.8858420232
H       1.9844394350      2.9072470549      2.1120203445
H      -0.6204182339      2.8018947716     -0.9271270321
H       0.5854240290     -0.5858878525     -0.9734452356
H       0.6389394262     -2.0537060732      3.1508120330
H      -3.2007299118      0.2380284445      1.2365938733
12
Frame=159  time=80.000fs  energy=-306.19358012Ha  molecule=COOCCCHHHHHH
C      -0.0678559640     -0.1105012014     -0.5615090013
O       0.9699974612      0.0734985786     -0.2915708585
O       1.9210119023      0.4955626508      0.0217979083
C      -0.6973853926      1.5428302080     -0.3359831594
C       0.0864561736      2.6276536636      0.7468762415
C      -0.4031012556     -1.2634911978      0.1546568177
H      -2.7586487028      0.1263485550     -0.8916434164
H       1.9933167655      2.9089695788      2.1254137466
H      -0.6189607182      2.7965809200     -0.9338075156
H       0.5898321287     -0.5730509791     -0.9777708400
H       0.6504592348     -2.0576788200      3.1678492415
H      -3.2118870678      0.2494171931      1.2492462286
12
Frame=160  time=80.500fs  energy=-306.19358012Ha  molecule=COOCCCHHHHHH
C      -0.0683929408     -0.1119214742     -0.5647576077
O       0.9680001144      0.0751184738     -0.2933170728
O       1.9199370908      0.4929898674      0.0216867037
C      -0.6978403442      1.5440855059     -0.3374721423
C       0.0885773795      2.6281171083      0.7513899689
C      -0.4004517253     -1.2632465304      0.1551505239
H      -2.7700149806      0.1183452037     -0.8974429766
H       2.0021912909      2.9106915583      2.1388029166
H      -0.6175036630      2.7912687476     -0.9404858882
H       0.5942388356     -0.5602181620     -0.9820950776
H       0.6619754033     -2.0616503114      3.1848810666
H      -3.2230406984      0.2608023431      1.2618945860
12
Frame=161  time=81.000fs  energy=-306.19358012Ha  molecule=COOCCCHHHHHH
C      -0.0689297482     -0.1133412990     -0.5680051895
O       0.9660033975      0.0767378581     -0.2950627363
O       1.9188626183      0.4904178955      0.0215755343
C      -0.6982951523      1.5453404078     -0.3389606556
C       0.0906979163      2.6285804070      0.7559022727
C      -0.3978030306     -1.2630019401      0.1556440744
H      -2.7813776736      0.1103443766     -0.9032407076
H       2.0110630175      2.9124129948      2.1521878639
H      -0.6160470674      2.7859582505     -0.9471621545
H       0.5986441526     -0.5473893921     -0.9864179515
H       0.6734879399     -2.0656205503      3.2019075201
H      -3.2341908113      0.2721839024      1.2745389543
12
Frame=162  time=81.500fs  energy=-306.19358012Ha  molecule=COOCCCHHHHHH
C      -0.0694663867     -0.1147606769     -0.5712517489
O       0.9640073092      0.0783567327     -0.2968078504
O       1.9177884840      0.4878467331      0.0214643998
C      -0.6987498173      1.5465949147     -0.3404487003
C       0.0928177856      2.6290435597      0.7604131560
C      -0.3951551696     -1.2627574268      0.1561374696
H      -2.7927367897      0.1023460680     -0.9090366136
H       2.0199319513      2.9141338894      2.1655685976
H      -0.6145909303      2.7806494251     -0.9538363192
H       0.6030480829     -0.5345646606     -0.9907394645
H       0.6849968523     -2.0695895393      3.2189286137
H      -3.2453374142      0.2835618787      1.2871793422
12
Frame=163  time=82.000fs  energy=-306.19358012Ha  molecule=COOCCCHHHHHH
C      -0.0700028565     -0.1161796089     -0.5744972883
O       0.9620118481      0.0799750985     -0.2985524161
O       1.9167146873      0.4852763787      0.0213533002
C      -0.6992043394      1.5478490275     -0.3419362775
C       0.0949369889      2.6295065670      0.7649226220
C      -0.3925081407     -1.2625129904      0.1566307097
H      -2.8040923367      0.0943502727     -0.9148306984
H       2.0287980984      2.9158542432      2.1789451270
H      -0.6131352508      2.7753422678     -0.9605083868
H       0.6074506294     -0.5217439588     -0.9950596196
H       0.6965021485     -2.0735572813      3.2359443592
H      -3.2564805147      0.2949362801      1.2998157584
12
Frame=164  time=82.500fs  energy=-306.19358012Ha  molecule=COOCCCHHHHHH
C      -0.0705391581     -0.1175980958     -0.5777418098
O       0.9600170128      0.0815929569     -0.3002964346
O       1.9156412273      0.4827068303      0.0212422355
C      -0.6996587189      1.5491027469     -0.3434233881
C       0.0970555275      2.6299694290      0.7694306737
C      -0.3898619420     -1.2622686306      0.1571237952
H      -2.8154443224      0.0863569849     -0.9206229661
H       2.0376614649      2.9175740575      2.1923174613
H      -0.6116800278      2.7700367749     -0.9671783619
H       0.6118517952     -0.5089272778     -0.9993784199
H       0.7080038365     -2.0775237789      3.2529547683
H      -3.2676201206      0.3063071142      1.3124482116
12
Frame=165  time=83.000fs  energy=-306.19358012Ha  molecule=COOCCCHHHHHH
C      -0.0710752918     -0.1190161386     -0.5809853157
O       0.9580228019      0.0832103088     -0.3020399073
O       1.9145681033      0.4801380863      0.0211312056
C      -0.7001129562      1.5503560739     -0.3449100332
C       0.0991734030      2.6304321462      0.7739373142
C      -0.3872165715     -1.2620243473      0.1576167262
H      -2.8267927546      0.0783661993     -0.9264134206
H       2.0465220569      2.9192933335      2.2056856096
H      -0.6102252603      2.7647329428     -0.9738462492
H       0.6162515832     -0.4961146088     -1.0036958683
H       0.7195019241     -2.0814890349      3.2699598525
H      -3.2787562394      0.3176743889      1.3250767105
12
Frame=166  time=83.500fs  energy=-306.19358012Ha  molecule=COOCCCHHHHHH
C      -0.0716112580     -0.1204337385     -0.5842278081
O       0.9560292142      0.0848271553     -0.3037828352
O       1.9134953146      0.4775701449      0.0210202103
C      -0.7005670516      1.5516090093     -0.3463962138
C       0.1012906167      2.6308947187      0.7784425467
C      -0.3845720276     -1.2617801403      0.1581095033
H      -2.8381376410      0.0703779104     -0.9322020660
H       2.0553798804      2.9210120723      2.2190495812
H      -0.6087709473      2.7594307679     -0.9805120530
H       0.6206499966     -0.4833059431     -1.0080119677
H       0.7309964192     -2.0854530519      3.2869596237
H      -3.2898888789      0.3290381120      1.3377012636
12
Frame=167  time=84.000fs  energy=-306.19358012Ha  molecule=COOCCCHHHHHH
C      -0.0721470570     -0.1218508962     -0.5874692894
O       0.9540362481      0.0864434977     -0.3055252196
O       1.9124228605      0.4750030044      0.0209092497
C      -0.7010210053      1.5528615539     -0.3478819310
C       0.1034071702      2.6313571471      0.7829463742
C      -0.3819283084     -1.2615360095      0.1586021267
H      -2.8494789894      0.0623921126     -0.9379889061
H       2.0642349416      2.9227302751      2.2324093851
H      -0.6073170879      2.7541302465     -0.9871757781
H       0.6250470384     -0.4705012718     -1.0123267211
H       0.7424873296     -2.0894158328      3.3039540933
H      -3.3010180465      0.3403982912      1.3503218797
12
Frame=168  time=84.500fs  energy=-306.19358012Ha  molecule=COOCCCHHHHHH
C      -0.0726826893     -0.1232676128     -0.5907097617
O       0.9520439024      0.0880593369     -0.3072670616
O       1.9113507401      0.4724366629      0.0207983236
C      -0.7014748178      1.5541137087     -0.3493671857
C       0.1055230648      2.6318194314      0.7874487998
C      -0.3792854122     -1.2612919546      0.1590945968
H      -2.8608168076      0.0544088007     -0.9437739449
H       2.0730872464      2.9244479430      2.2457650304
H      -0.6058636810      2.7488313749     -0.9938374290
H       0.6294427114     -0.4577005863     -1.0166401314
H       0.7539746633     -2.0933773801      3.3209432730
H      -3.3121437499      0.3517549343      1.3629385674
12
Frame=169  time=85.000fs  energy=-306.19358012Ha  molecule=COOCCCHHHHHH
C      -0.0732181551     -0.1246838893     -0.5939492272
O       0.9500521757      0.0896746741     -0.3090083624
O       1.9102789529      0.4698711187      0.0206874319
C      -0.7019284893      1.5553654744     -0.3508519789
C       0.1076383021      2.6322815722      0.7919498266
C      -0.3766433370     -1.2610479756      0.1595869138
H      -2.8721511033      0.0464279690     -0.9495571864
H       2.0819368010      2.9261650773      2.2591165264
H      -0.6044107257      2.7435341497     -1.0004970102
H       0.6338370188     -0.4449038777     -1.0209522016
H       0.7654584279     -2.0973376967      3.3379271744
H      -3.3232659968      0.3631080491      1.3755513352
12
Frame=170  time=85.500fs  energy=-306.19358012Ha  molecule=COOCCCHHHHHH
C      -0.0737534549     -0.1260997265     -0.5971876881
O       0.9480610666      0.0912895104     -0.3107491232
O       1.9092074981      0.4673063701      0.0205765747
C      -0.7023820201      1.5566168520     -0.3523363117
C       0.1097528834      2.6327435696      0.7964494575
C      -0.3740020812     -1.2608040723      0.1600790782
H      -2.8834818842      0.0384496122     -0.9553386345
H       2.0907836113      2.9278816792      2.2724638820
H      -0.6029582210      2.7382385672     -1.0071545262
H       0.6382299635     -0.4321111375     -1.0252629347
H       0.7769386315     -2.1012967851      3.3549058091
H      -3.3343847945      0.3744576432      1.3881601918
12
Frame=171  time=86.000fs  energy=-306.19358012Ha  molecule=COOCCCHHHHHH
C      -0.0742885891     -0.1275151256     -0.6004251467
O       0.9460705738      0.0929038469     -0.3124893453
O       1.9081363749      0.4647424154      0.0204657517
C      -0.7028354105      1.5578678423     -0.3538201851
C       0.1118668102      2.6332054241      0.8009476958
C      -0.3713616429     -1.2605602444      0.1605710902
H      -2.8948091580      0.0304737249     -0.9611182932
H       2.0996276833      2.9295977497      2.2858071063
H      -0.6015061658      2.7329446237     -1.0138099816
H       0.6426215485     -0.4193223568     -1.0295723334
H       0.7884152817     -2.1052546482      3.3718791886
H      -3.3455001509      0.3858037244      1.4007651457
12
Frame=172  time=86.500fs  energy=-306.19358012Ha  molecule=COOCCCHHHHHH
C      -0.0748235579     -0.1289300873     -0.6036616051
O       0.9440806960      0.0945176846     -0.3142290297
O       1.9070655826      0.4621792527      0.0203549630
C      -0.7032886608      1.5591184460     -0.3553036000
C       0.1139800840      2.6336671358      0.8054445444
C      -0.3687220203     -1.2603164919      0.1610629503
H      -2.9061329324      0.0225003016     -0.9668961662
H       2.1084690231      2.9313132900      2.2991462085
H      -0.6000545592      2.7276523157     -1.0204633809
H       0.6470117767     -0.4065375271     -1.0338804009
H       0.7998883863     -2.1092112885      3.3888473243
H      -3.3566120732      0.3971463004      1.4133662054
12
Frame=173  time=87.000fs  energy=-306.19358012Ha  molecule=COOCCCHHHHHH
C      -0.0753583617     -0.1303446128     -0.6068970656
O       0.9420914317      0.0961310247     -0.3159681777
O       1.9059951204      0.4596168804      0.0202442085
C      -0.7037417714      1.5603686642     -0.3567865575
C       0.1160927061      2.6341287052      0.8099400063
C      -0.3660832116     -1.2600728146      0.1615546587
H      -2.9174532150      0.0145293369     -0.9726722577
H       2.1173076366      2.9330283013      2.3124811974
H      -0.5986034002      2.7223616397     -1.0271147286
H       0.6514006512     -0.3937566396     -1.0381871399
H       0.8113579532     -2.1131667087      3.4058102279
H      -3.3677205692      0.4084853788      1.4259633796
12
Frame=174  time=87.500fs  energy=-306.19358012Ha  molecule=COOCCCHHHHHH
C      -0.0758930009     -0.1317587029     -0.6101315302
O       0.9401027797      0.0977438682     -0.3177067905
O       1.9049249878      0.4570552968      0.0201334880
C      -0.7041947425      1.5616184975     -0.3582690587
C       0.1182046780      2.6345901326      0.8144340847
C      -0.3634452151     -1.2598292122      0.1620462157
H      -2.9287700136      0.0065608255     -0.9784465714
H       2.1261435298      2.9347427848      2.3258120823
H      -0.5971526879      2.7170725919     -1.0337640291
H       0.6557881750     -0.3809796858     -1.0424925535
H       0.8228239900     -2.1171209116      3.4227679107
H      -3.3788256462      0.4198209674      1.4385566767
12
Frame=175  time=88.000fs  energy=-306.19358012Ha  molecule=COOCCCHHHHHH
C      -0.0764274759     -0.1331723586     -0.6133650013
O       0.9381147386      0.0993562163     -0.3194448691
O       1.9038551838      0.4544945000      0.0200228016
C      -0.7046475745      1.5628679469     -0.3597511044
C       0.1203160011      2.6350514182      0.8189267825
C      -0.3608080290     -1.2595856847      0.1625376218
H      -2.9400833357     -0.0014052380     -0.9842191113
H       2.1349767087      2.9364567417      2.3391388719
H      -0.5957024212      2.7117851690     -1.0404112871
H       0.6601743509     -0.3682066569     -1.0467966444
H       0.8342865045     -2.1210738998      3.4397203842
H      -3.3899273119      0.4311530738      1.4511461052
12
Frame=176  time=88.500fs  energy=-306.19358012Ha  molecule=COOCCCHHHHHH
C      -0.0769617871     -0.1345855809     -0.6165974809
O       0.9361273070      0.1009680701     -0.3211824148
O       1.9027857079      0.4519344884      0.0199121491
C      -0.7051002676      1.5641170132     -0.3612326956
C       0.1224266769      2.6355125623      0.8234181028
C      -0.3581716515     -1.2593422318      0.1630288771
H      -2.9513931890     -0.0093688591     -0.9899898813
H       2.1438071793      2.9381701730      2.3524615754
H      -0.5942525991      2.7064993672     -1.0470565069
H       0.6645591820     -0.3554375445     -1.0510994157
H       0.8457455045     -2.1250256760      3.4566676599
H      -3.4010255736      0.4424817056      1.4637316736
12
Frame=177  time=89.000fs  energy=-306.19358012Ha  molecule=COOCCCHHHHHH
C      -0.0774959347     -0.1359983707     -0.6198289712
O       0.9341404837      0.1025794305     -0.3229194288
O       1.9017165593      0.4493752603      0.0198015305
C      -0.7055528222      1.5653656973     -0.3627138335
C       0.1245367067      2.6359735653      0.8279080486
C      -0.3555360808     -1.2590988534      0.1635199822
H      -2.9626995811     -0.0173300429     -0.9957588852
H       2.1526349474      2.9398830799      2.3657802017
H      -0.5928032208      2.7012151830     -1.0536996931
H       0.6689426711     -0.3426723398     -1.0554008701
H       0.8572009977     -2.1289762427      3.4736097492
H      -3.4121204389      0.4538068705      1.4763133904
12
Frame=178  time=89.500fs  energy=-306.19358012Ha  molecule=COOCCCHHHHHH
C      -0.0780299191     -0.1374107289     -0.6230594745
O       0.9321542672      0.1041902988     -0.3246559122
O       1.9006477373      0.4468168139      0.0196909456
C      -0.7060052386      1.5666139999     -0.3641945189
C       0.1266460920      2.6364344275      0.8323966229
C      -0.3529013151     -1.2588555494      0.1640109372
H      -2.9740025196     -0.0252887950     -1.0015261269
H       2.1614600190      2.9415954636      2.3790947597
H      -0.5913542852      2.6959326130     -1.0603408500
H       0.6733248213     -0.3299110343     -1.0597010107
H       0.8686529917     -2.1329256028      3.4905466634
H      -3.4232119152      0.4651285760      1.4888912641
12
Frame=179  time=90.000fs  energy=-306.19358012Ha  molecule=COOCCCHHHHHH
C      -0.0785637408     -0.1388226565     -0.6262889929
O       0.9301686563      0.1058006759     -0.3263918662
O       1.8995792411      0.4442591475      0.0195803945
C      -0.7064575170      1.5678619220     -0.3656747530
C       0.1287548342      2.6368951492      0.8368838288
C      -0.3502673528     -1.2586123196      0.1645017425
H      -2.9853020121     -0.0332451207     -1.0072916104
H       2.1702824000      2.9433073253      2.3924052584
H      -0.5899057913      2.6906516535     -1.0669799822
H       0.6777056355     -0.3171536194     -1.0639998402
H       0.8801014942     -2.1368737587      3.5074784139
H      -3.4343000100      0.4764468297      1.5014653030
12
Frame=180  time=90.500fs  energy=-306.19358012Ha  molecule=COOCCCHHHHHH
C      -0.0790974000     -0.1402341545     -0.6295175285
O       0.9281836496      0.1074105630     -0.3281272919
O       1.8985110701      0.4417022594      0.0194698770
C      -0.7069096578      1.5691094643     -0.3671545365
C       0.1308629347      2.6373557307      0.8413696692
C      -0.3476341919     -1.2583691638      0.1649923985
H      -2.9965980661     -0.0411990252     -1.0130553393
H       2.1791020964      2.9450186660      2.4057117067
H      -0.5884577383      2.6853723009     -1.0736170941
H       0.6820851165     -0.3044000867     -1.0682973616
H       0.8915465129     -2.1408207133      3.5244050120
H      -3.4453847306      0.4877616393      1.5140355157
12
Frame=181  time=91.000fs  energy=-306.19358012Ha  molecule=COOCCCHHHHHH
C      -0.0796308971     -0.1416452237     -0.6327450836
O       0.9261992459      0.1090199611     -0.3298621906
O       1.8974432235      0.4391461479      0.0193593931
C      -0.7073616612      1.5703566277     -0.3686338707
C       0.1329703950      2.6378161723      0.8458541471
C      -0.3450018308     -1.2581260818      0.1654829055
H      -3.0078906893     -0.0491505139     -1.0188173177
H       2.1879191140      2.9467294870      2.4190141135
H      -0.5870101250      2.6800945519     -1.0802521902
H       0.6864632675     -0.2916504275     -1.0725935777
H       0.9029880555     -2.1447664690      3.5413264691
H      -3.4564660845      0.4990730123      1.5266019104
12
Frame=182  time=91.500fs  energy=-306.19358012Ha  molecule=COOCCCHHHHHH
C      -0.0801642325     -0.1430558652     -0.6359716602
O       0.9242154437      0.1106288713     -0.3315965633
O       1.8963757006      0.4365908113      0.0192489426
C      -0.7078135277      1.5716034130     -0.3701127563
C       0.1350772163      2.6382764744      0.8503372655
C      -0.3423702677     -1.2578830735      0.1659732637
H      -3.0191798890     -0.0570995922     -1.0245775494
H       2.1967334587      2.9484397893      2.4323124877
H      -0.5855629506      2.6748184028     -1.0868852748
H       0.6908400911     -0.2789046334     -1.0768884914
H       0.9144261295     -2.1487110286      3.5582427964
H      -3.4675440791      0.5103809563      1.5391644956
12
Frame=183  time=92.000fs  energy=-306.19358012Ha  molecule=COOCCCHHHHHH
C      -0.0806974065     -0.1444660799     -0.6391972605
O       0.9222322417      0.1122372948     -0.3333304112
O       1.8953085007      0.4340362479      0.0191385256
C      -0.7082652574      1.5728498211     -0.3715911945
C       0.1371834002      2.6387366371      0.8548190275
C      -0.3397395009     -1.2576401388      0.1664634736
H      -3.0304656730     -0.0650462652     -1.0303360381
H       2.2055451364      2.9501495741      2.4456068381
H      -0.5841162140      2.6695438502     -1.0935163524
H       0.6952155905     -0.2661626959     -1.0811821056
H       0.9258607427     -2.1526543946      3.5751540053
H      -3.4786187217      0.5216854788      1.5517232797
12
Frame=184  time=92.500fs  energy=-306.19358012Ha  molecule=COOCCCHHHHHH
C      -0.0812304195     -0.1458758687     -0.6424218867
O       0.9202496387      0.1138452324     -0.3350637355
O       1.8942416231      0.4314824560      0.0190281420
C      -0.7087168507      1.5740958527     -0.3730691862
C       0.1392889480      2.6391966609      0.8592994360
C      -0.3371095285     -1.2573972774      0.1669535355
H      -3.0417480486     -0.0729905383     -1.0360927877
H       2.2143541529      2.9518588426      2.4588971735
H      -0.5826699144      2.6642708904     -1.1001454274
H       0.6995897684     -0.2534246065     -1.0854744231
H       0.9372919026     -2.1565965698      3.5920601069
H      -3.4896900198      0.5329865872      1.5642782710
12
Frame=185  time=93.000fs  energy=-306.19358012Ha  molecule=COOCCCHHHHHH
C      -0.0817632718     -0.1472852325     -0.6456455409
O       0.9182676333      0.1154526854     -0.3367965373
O       1.8931750671      0.4289294338      0.0189177916
C      -0.7091683079      1.5753415088     -0.3745467324
C       0.1413938611      2.6396565460      0.8637784939
C      -0.3344803489     -1.2571544892      0.1674434496
H      -3.0530270233     -0.0809324168     -1.0418478022
H       2.2231605142      2.9535675958      2.4721835029
H      -0.5812240507      2.6589995201     -1.1067725042
H       0.7039626279     -0.2406903567     -1.0897654468
H       0.9487196169     -2.1605375567      3.6089611125
H      -3.5007579807      0.5442842892      1.5768294779
12
Frame=186  time=93.500fs  energy=-306.19358012Ha  molecule=COOCCCHHHHHH
C      -0.0822959638     -0.1486941723     -0.6488682252
O       0.9162862242      0.1170596548     -0.3385288178
O       1.8921088320      0.4263771798      0.0188074744
C      -0.7096196292      1.5765867901     -0.3760238341
C       0.1434981409      2.6401162928      0.8682562043
C      -0.3318519604     -1.2569117741      0.1679332163
H      -3.0643026047     -0.0888719059     -1.0476010851
H       2.2319642260      2.9552758350      2.4854658350
H      -0.5797786220      2.6537297358     -1.1133975872
H       0.7083341717     -0.2279599380     -1.0940551795
H       0.9601438930     -2.1644773579      3.6258570334
H      -3.5118226117      0.5555785922      1.5893769086
12
Frame=187  time=94.000fs  energy=-306.19358012Ha  molecule=COOCCCHHHHHH
C      -0.0828284959     -0.1501026891     -0.6520899418
O       0.9143054100      0.1186661416     -0.3402605781
O       1.8910429171      0.4238256921      0.0186971903
C      -0.7100708150      1.5778316975     -0.3775004922
C       0.1456017889      2.6405759015      0.8727325701
C      -0.3292243610     -1.2566691318      0.1684228360
H      -3.0755748002     -0.0968090109     -1.0533526405
H       2.2407652942      2.9569835612      2.4987441786
H      -0.5783336274      2.6484615338     -1.1200206808
H       0.7127044029     -0.2152333422     -1.0983436241
H       0.9715647386     -2.1684159760      3.6427478807
H      -3.5228839202      0.5668695036      1.6019205716
12
Frame=188  time=94.500fs  energy=-306.19358012Ha  molecule=COOCCCHHHHHH
C      -0.0833608683     -0.1515107837     -0.6553106928
O       0.9123251896      0.1202721470     -0.3419918194
O       1.8899773216      0.4212749692      0.0185869393
C      -0.7105218656      1.5790762317     -0.3789767077
C       0.1477048064      2.6410353724      0.8772075942
C      -0.3265975492     -1.2564265623      0.1689123089
H      -3.0868436173     -0.1047437370     -1.0591024720
H       2.2495637246      2.9586907755      2.5120185425
H      -0.5768890658      2.6431949108     -1.1266417894
H       0.7170733242     -0.2025105607     -1.1026307833
H       0.9829821612     -2.1723534137      3.6596336655
H      -3.5339419134      0.5781570311      1.6144604750
12
Frame=189  time=95.000fs  energy=-306.19358012Ha  molecule=COOCCCHHHHHH
C      -0.0838930815     -0.1529184570     -0.6585304804
O       0.9103455615      0.1218776719     -0.3437225428
O       1.8889120449      0.4187250093      0.0184767213
C      -0.7109727813      1.5803203937     -0.3804524817
C       0.1498071947      2.6414947059      0.8816812797
C      -0.3239715232     -1.2561840653      0.1694016354
H      -3.0981090634     -0.1126760895     -1.0648505835
H       2.2583595230      2.9603974792      2.5252889355
H      -0.5754449364      2.6379298633     -1.1332609173
H       0.7214409385     -0.1897915851     -1.1069166601
H       0.9943961683     -2.1762896735      3.6765143991
H      -3.5449965987      0.5894411819      1.6269966272
12
Frame=190  time=95.500fs  energy=-306.19358012Ha  molecule=COOCCCHHHHHH
C      -0.0844251358     -0.1543257101     -0.6617493065
O       0.9083665245      0.1234827174     -0.3454527494
O       1.8878470863      0.4161758107      0.0183665361
C      -0.7114235623      1.5815641842     -0.3819278150
C       0.1519089554      2.6419539023      0.8861536295
C      -0.3213462813     -1.2559416407      0.1698908158
H      -3.1093711459     -0.1206060736     -1.0705969787
H       2.2671526952      2.9621036733      2.5385553662
H      -0.5740012382      2.6326663878     -1.1398780688
H       0.7258072488     -0.1770764071     -1.1112012572
H       1.0058067675     -2.1802247580      3.6933900925
H      -3.5560479833      0.6007219636      1.6395290365
12
Frame=191  time=96.000fs  energy=-306.19358012Ha  molecule=COOCCCHHHHHH
C      -0.0849570315     -0.1557325438     -0.6649671735
O       0.9063880773      0.1250872847     -0.3471824405
O       1.8867824450      0.4136273719      0.0182563838
C      -0.7118742090      1.5828076040     -0.3834027086
C       0.1540100897      2.6424129618      0.8906246465
C      -0.3187218217     -1.2556992884      0.1703798504
H      -3.1206298722     -0.1285336946     -1.0763416615
H       2.2759432469      2.9638093589      2.5518178435
H      -0.5725579702      2.6274044809     -1.1464932485
H       0.7301722580     -0.1643650183     -1.1154845774
H       1.0172139663     -2.1841586699      3.7102607568
H      -3.5670960746      0.6119993835      1.6520577109
12
Frame=192  time=96.500fs  energy=-306.19358012Ha  molecule=COOCCCHHHHHH
C      -0.0854887691     -0.1571389590     -0.6681840834
O       0.9044102185      0.1266913747     -0.3489116170
O       1.8857181204      0.4110796910      0.0181462643
C      -0.7123247217      1.5840506540     -0.3848771636
C       0.1561105990      2.6428718848      0.8950943336
C      -0.3160981427     -1.2554570082      0.1708687396
H      -3.1318852498     -0.1364589575     -1.0820846356
H       2.2847311840      2.9655145372      2.5650763760
H      -0.5711151315      2.6221441390     -1.1531064605
H       0.7345359688     -0.1516574103     -1.1197666237
H       1.0286177721     -2.1880914116      3.7271264032
H      -3.5781408797      0.6232734491      1.6645826589
12
Frame=193  time=97.000fs  energy=-306.19358012Ha  molecule=COOCCCHHHHHH
C      -0.0860203487     -0.1585449567     -0.6714000382
O       0.9024329469      0.1282949884     -0.3506402802
O       1.8846541118      0.4085327665      0.0180361775
C      -0.7127751006      1.5852933349     -0.3863511808
C       0.1582104848      2.6433306715      0.8995626938
C      -0.3134752427     -1.2552147999      0.1713574836
H      -3.1431372859     -0.1443818677     -1.0878259048
H       2.2935165123      2.9672192092      2.5783309724
H      -0.5696727211      2.6168853588     -1.1597177093
H       0.7388983841     -0.1389535749     -1.1240473987
H       1.0400181924     -2.1920229859      3.7439870426
H      -3.5891824060      0.6345441677      1.6771038886
12
Frame=194  time=97.500fs  energy=-306.19358012Ha  molecule=COOCCCHHHHHH
C      -0.0865517709     -0.1599505379     -0.6746150401
O       0.9004562612      0.1298981270     -0.3523684312
O       1.8835904184      0.4059865966      0.0179261233
C      -0.7132253461      1.5865356477     -0.3878247613
C       0.1603097484      2.6437893223      0.9040297300
C      -0.3108531197     -1.2549726634      0.1718460828
H      -3.1543859880     -0.1523024302     -1.0935654728
H       2.3022992374      2.9689233762      2.5915816414
H      -0.5682307381      2.6116281368     -1.1663269991
H       0.7432595069     -0.1262535037     -1.1283269053
H       1.0514152348     -2.1959533952      3.7608426862
H      -3.6002206606      0.6458115468      1.6896214081
12
Frame=195  time=98.000fs  energy=-306.19358012Ha  molecule=COOCCCHHHHHH
C      -0.0870830359     -0.1613557033     -0.6778290913
O       0.8984801601      0.1315007915     -0.3540960711
O       1.8825270396      0.4034411797      0.0178161016
C      -0.7136754584      1.5877775930     -0.3892979060
C       0.1624083911      2.6442478374      0.9084954451
C      -0.3082317723     -1.2547305984      0.1723345375
H      -3.1656313634     -0.1602206504     -1.0993033434
H       2.3110793650      2.9706270392      2.6048283917
H      -0.5667891815      2.6063724696     -1.1729343342
H       0.7476193398     -0.1135571884     -1.1326051463
H       1.0628089066     -2.1998826421      3.7776933448
H      -3.6112556507      0.6570755936      1.7021352258
12
Frame=196  time=98.500fs  energy=-306.19358012Ha  molecule=COOCCCHHHHHH
C      -0.0876141441     -0.1627604539     -0.6810421937
O       0.8965046422      0.1331029830     -0.3558232011
O       1.8814639747      0.4008965142      0.0177061124
C      -0.7141254378      1.5890191717     -0.3907706158
C       0.1645064144      2.6447062173      0.9129598420
C      -0.3056111986     -1.2544886049      0.1728228481
H      -3.1768734195     -0.1681365333     -1.1050395203
H       2.3198569011      2.9723301993      2.6180712318
H      -0.5653480505      2.6011183537     -1.1795397191
H       0.7519778859     -0.1008646207     -1.1368821245
H       1.0741992153     -2.2038107292      3.7945390296
H      -3.6222873836      0.6683363156      1.7146453497
12
Frame=197  time=99.000fs  energy=-306.19358012Ha  molecule=COOCCCHHHHHH
C      -0.0881450958     -0.1641647908     -0.6842543495
O       0.8945297064      0.1347047024     -0.3575498222
O       1.8804012230      0.3983525984      0.0175961556
C      -0.7145752847      1.5902603847     -0.3922428918
C       0.1666038195      2.6451644620      0.9174229237
C      -0.3029913970     -1.2542466828      0.1733110147
H      -3.1881121636     -0.1760500840     -1.1107740073
H       2.3286318511      2.9740328576      2.6313101705
H      -0.5639073441      2.5958657857     -1.1861431579
H       0.7563351479     -0.0881757924     -1.1411578426
H       1.0855861683     -2.2077376591      3.8113797515
H      -3.6333158665      0.6795937201      1.7271517880
12
Frame=198  time=99.500fs  energy=-306.19358012Ha  molecule=COOCCCHHHHHH
C      -0.0886758914     -0.1655687146     -0.6874655608
O       0.8925553513      0.1363059508     -0.3592759357
O       1.8793387838      0.3958094306      0.0174862312
C      -0.7150249993      1.5915012327     -0.3937147348
C       0.1687006079      2.6456225720      0.9218846931
C      -0.3003723657     -1.2540048317      0.1737990379
H      -3.1993476029     -0.1839613079     -1.1165068081
H       2.3374042210      2.9757350153      2.6445452164
H      -0.5624670612      2.5906147623     -1.1927446551
H       0.7606911287     -0.0754906952     -1.1454323035
H       1.0969697730     -2.2116634342      3.8282155214
H      -3.6443411064      0.6908478144      1.7396545487
12
Frame=199  time=100.000fs  energy=-306.19358012Ha  molecule=COOCCCHHHHHH
C      -0.0892065312     -0.1669722265     -0.6906758296
O       0.8905815756      0.1379067293     -0.3610015425
O       1.8782766564      0.3932670092      0.0173763390
C      -0.7154745819      1.5927417165     -0.3951861459
C       0.1707967810      2.6460805476      0.9263451529
C      -0.2977541030     -1.2537630516      0.1742869177
H      -3.2105797448     -0.1918702099     -1.1222379264
H       2.3461740162      2.9774366734      2.6577763779
H      -0.5610272011      2.5853652799     -1.1993442148
H       0.7650458310     -0.0628093208     -1.1497055099
H       1.1083500368     -2.2155880572      3.8450463502
H      -3.6553631106      0.7020986057      1.7521536402
12
Frame=200  time=100.500fs  energy=-306.19358012Ha  molecule=COOCCCHHHHHH
C      -0.0897370155     -0.1683753272     -0.6938851581
O       0.8886083781      0.1395070389     -0.3627266439
O       1.8772148401      0.3907253325      0.0172664790
C      -0.7159240329      1.5939818370     -0.3966571260
C       0.1728923400      2.6465383890      0.9308043063
C      -0.2951366073     -1.2535213424      0.1747746547
H      -3.2218085966     -0.1997767952     -1.1279673659
H       2.3549412426      2.9791378330      2.6710036637
H      -0.5595877628      2.5801173352     -1.2059418413
H       0.7693992577     -0.0501316612     -1.1539774645
H       1.1197269670     -2.2195115306      3.8618722489
H      -3.6663818862      0.7133461015      1.7646490703
12
Frame=201  time=101.000fs  energy=-306.19358012Ha  molecule=COOCCCHHHHHH
C      -0.0902673448     -0.1697780177     -0.6970935483
O       0.8866357575      0.1411068806     -0.3644512409
O       1.8761533342      0.3881843989      0.0171566511
C      -0.7163733524      1.5952215949     -0.3981276760
C       0.1749872864      2.6469960966      0.9352621559
C      -0.2925198769     -1.2532797038      0.1752622491
H      -3.2330341655     -0.2076810689     -1.1336951303
H       2.3637059058      2.9808384953      2.6842270824
H      -0.5581487452      2.5748709248     -1.2125375389
H       0.7737514117     -0.0374577080     -1.1582481702
H       1.1311005711     -2.2234338569      3.8786932284
H      -3.6773974404      0.7245903089      1.7771408473
12
Frame=202  time=101.500fs  energy=-306.19358012Ha  molecule=COOCCCHHHHHH
C      -0.0907975193     -0.1711802989     -0.7003010023
O       0.8846637124      0.1427062554     -0.3661753346
O       1.8750921381      0.3856442067      0.0170468552
C      -0.7168225408      1.5964609910     -0.3995977969
C       0.1770816215      2.6474536706      0.9397187047
C      -0.2899039100     -1.2530381358      0.1757497012
H      -3.2442564587     -0.2155830362     -1.1394212234
H       2.3724680115      2.9825386614      2.6974466425
H      -0.5567101476      2.5696260453     -1.2191313119
H       0.7781022957     -0.0247874530     -1.1625176297
H       1.1424708563     -2.2273550387      3.8955092995
H      -3.6884097802      0.7358312353      1.7896289792
12
Frame=203  time=102.000fs  energy=-306.19358012Ha  molecule=COOCCCHHHHHH
C      -0.0913275395     -0.1725821717     -0.7035075222
O       0.8826922418      0.1443051645     -0.3678989263
O       1.8740312511      0.3831047544      0.0169370914
C      -0.7172715984      1.5977000262     -0.4010674897
C       0.1791753466      2.6479111113      0.9441739556
C      -0.2872887050     -1.2527966380      0.1762370114
H      -3.2554754836     -0.2234827020     -1.1451456488
H       2.3812275653      2.9842383323      2.7106623525
H      -0.5552719690      2.5643826933     -1.2257231646
H       0.7824519126     -0.0121208882     -1.1667858458
H       1.1538378300     -2.2312750785      3.9123204731
H      -3.6994189127      0.7470688878      1.8021134740
12
Frame=204  time=102.500fs  energy=-306.19358012Ha  molecule=COOCCCHHHHHH
C      -0.0918574055     -0.1739836370     -0.7067131099
O       0.8807213442      0.1459036088     -0.3696220169
O       1.8729706724      0.3805660402      0.0168273594
C      -0.7177205254      1.5989387012     -0.4025367552
C       0.1812684631      2.6483684191      0.9486279114
C      -0.2846742602     -1.2525552105      0.1767241799
H      -3.2666912472     -0.2313800716     -1.1508684102
H       2.3899845728      2.9859375091      2.7238742209
H      -0.5538342084      2.5591408655     -1.2323131011
H       0.7868002651      0.0005419947     -1.1710528212
H       1.1652014996     -2.2351939788      3.9291267600
H      -3.7104248451      0.7583032737      1.8145943398
12
Frame=205  time=103.000fs  energy=-306.19358012Ha  molecule=COOCCCHHHHHH
C      -0.0923871178     -0.1753846957     -0.7099177677
O       0.8787510184      0.1475015894     -0.3713446076
O       1.8719104015      0.3780280626      0.0167176593
C      -0.7181693223      1.6001770168     -0.4040055945
C       0.1833609723      2.6488255942      0.9530805750
C      -0.2820605739     -1.2523138531      0.1772112070
H      -3.2779037570     -0.2392751500     -1.1565895113
H       2.3987390397      2.9876361929      2.7370822563
H      -0.5523968650      2.5539005585     -1.2389011256
H       0.7911473560      0.0132012038     -1.1753185586
H       1.1765618723     -2.2391117421      3.9459281709
H      -3.7214275844      0.7695344003      1.8270715846
12
Frame=206  time=103.500fs  energy=-306.19358012Ha  molecule=COOCCCHHHHHH
C      -0.0929166768     -0.1767853487     -0.7131214975
O       0.8767812631      0.1490991072     -0.3730666996
O       1.8708504375      0.3754908198      0.0166079910
C      -0.7186179891      1.6014149739     -0.4054740084
C       0.1854528756      2.6492826369      0.9575319493
C      -0.2794476444     -1.2520725655      0.1776980931
H      -3.2891130199     -0.2471679422     -1.1623089558
H       2.4074909716      2.9893343849      2.7502864670
H      -0.5509599377      2.5486617689     -1.2454872426
H       0.7954931882      0.0258567472     -1.1795830608
H       1.1879189554     -2.2430283709      3.9627247168
H      -3.7324271377      0.7807622747      1.8395452164
12
Frame=207  time=104.000fs  energy=-306.19358012Ha  molecule=COOCCCHHHHHH
C      -0.0934460827     -0.1781855969     -0.7163243014
O       0.8748120772      0.1506961633     -0.3747882938
O       1.8697907799      0.3729543104      0.0164983543
C      -0.7190665263      1.6026525732     -0.4069419980
C       0.1875441744      2.6497395475      0.9619820371
C      -0.2768354701     -1.2518313476      0.1781848385
H      -3.3003190432     -0.2550584533     -1.1680267473
H       2.4162403741      2.9910320861      2.7634868616
H      -0.5495234258      2.5434244933     -1.2520714560
H       0.7998377644      0.0385086330     -1.1838463305
H       1.1992727562     -2.2469438678      3.9795164082
H      -3.7434235120      0.7919869042      1.8520152431
12
Frame=208  time=104.500fs  energy=-306.19358012Ha  molecule=COOCCCHHHHHH
C      -0.0939753358     -0.1795854411     -0.7195261814
O       0.8728434592      0.1522927588     -0.3765093914
O       1.8687314280      0.3704185326      0.0163887493
C      -0.7195149341      1.6038898154     -0.4084095641
C       0.1896348699      2.6501963263      0.9664308413
C      -0.2742240493     -1.2515901994      0.1786714435
H      -3.3115218342     -0.2629466884     -1.1737428894
H       2.4249872528      2.9927292975      2.7766834484
H      -0.5480873282      2.5381887285     -1.2586537702
H       0.8041810874      0.0511568693     -1.1881083705
H       1.2106232819     -2.2508582353      3.9963032560
H      -3.7544167143      0.8032082958      1.8644816729
12
Frame=209  time=105.000fs  energy=-306.19358012Ha  molecule=COOCCCHHHHHH
C      -0.0945044366     -0.1809848824     -0.7227271396
O       0.8708754080      0.1538888946     -0.3782299935
O       1.8676723810      0.3678834849      0.0162791758
C      -0.7199632128      1.6051267015     -0.4098767077
C       0.1917249634      2.6506529737      0.9708783646
C      -0.2716133804     -1.2513491205      0.1791579085
H      -3.3227213998     -0.2708326524     -1.1794573859
H       2.4337316133      2.9944260204      2.7898762360
H      -0.5466516441      2.5329544710     -1.2652341894
H       0.8085231599      0.0638014642     -1.1923691834
H       1.2219705398     -2.2547714758      4.0130852709
H      -3.7654067517      0.8144264568      1.8769445136
12
Frame=210  time=105.500fs  energy=-306.19358012Ha  molecule=COOCCCHHHHHH
C      -0.0950333854     -0.1823839216     -0.7259271780
O       0.8689079223      0.1554845717     -0.3799501012
O       1.8666136384      0.3653491657      0.0161696338
C      -0.7204113627      1.6063632322     -0.4113434297
C       0.1938144564      2.6511094898      0.9753246100
C      -0.2690034616     -1.2511081109      0.1796442336
H      -3.3339177473     -0.2787163505     -1.1851702404
H       2.4424734611      2.9961222557      2.8030652327
H      -0.5452163725      2.5277217176     -1.2718127177
H       0.8128639847      0.0764424257     -1.1966287720
H       1.2333145372     -2.2586835919      4.0298624636
H      -3.7763936312      0.8256413944      1.8894037731
12
Frame=211  time=106.000fs  energy=-306.19358012Ha  molecule=COOCCCHHHHHH
C      -0.0955621825     -0.1837825595     -0.7291262987
O       0.8669410009      0.1570797912     -0.3816697156
O       1.8655551994      0.3628155732      0.0160601232
C      -0.7208593841      1.6075994082     -0.4128097311
C       0.1959033502      2.6515658749      0.9797695802
C      -0.2663942912     -1.2508671705      0.1801304192
H      -3.3451108838     -0.2865977875     -1.1908814564
H       2.4512128019      2.9978180045      2.8162504469
H      -0.5437815125      2.5224904649     -1.2783893594
H       0.8172035647      0.0890797620     -1.2008871390
H       1.2446552811     -2.2625945860      4.0466348447
H      -3.7873773597      0.8368531156      1.9018594594
12
Frame=212  time=106.500fs  energy=-306.19358012Ha  molecule=COOCCCHHHHHH
C      -0.0960908282     -0.1851807970     -0.7323245036
O       0.8649746425      0.1586745542     -0.3833888377
O       1.8644970634      0.3602827059      0.0159506440
C      -0.7213072772      1.6088352304     -0.4142756127
C       0.1979916460      2.6520221295      0.9842132781
C      -0.2637858678     -1.2506262990      0.1806164657
H      -3.3563008164     -0.2944769687     -1.1965910377
H       2.4599496411      2.9995132680      2.8294318870
H      -0.5423470632      2.5172607096     -1.2849641186
H       0.8215419025      0.1017134809     -1.2051442870
H       1.2559927790     -2.2665044607      4.0634024249
H      -3.7983579443      0.8480616275      1.9143115805
12
Frame=213  time=107.000fs  energy=-306.19358012Ha  molecule=COOCCCHHHHHH
C      -0.0966193229     -0.1865786352     -0.7355217949
O       0.8630088459      0.1602688615     -0.3851074688
O       1.8634392296      0.3577505623      0.0158411960
C      -0.7217550424      1.6100706996     -0.4157410756
C       0.2000793453      2.6524782537      0.9886557065
C      -0.2611781895     -1.2503854963      0.1811023734
H      -3.3674875522     -0.3023538988     -1.2022989879
H       2.4686839843      3.0012080471      2.8426095614
H      -0.5409130238      2.5120324483     -1.2915369994
H       0.8258790009      0.1143435906     -1.2094002189
H       1.2673270378     -2.2704132183      4.0801652149
H      -3.8093353918      0.8592669374      1.9267601441
12
Frame=214  time=107.500fs  energy=-306.19358012Ha  molecule=COOCCCHHHHHH
C      -0.0971476669     -0.1879760747     -0.7387181745
O       0.8610436097      0.1618627142     -0.3868256098
O       1.8623816975      0.3552191407      0.0157317793
C      -0.7222026799      1.6113058165     -0.4172061206
C       0.2021664492      2.6529342478      0.9930968682
C      -0.2585712548     -1.2501447623      0.1815881424
H      -3.3786710983     -0.3102285829     -1.2080053105
H       2.4774158371      3.0029023430      2.8557834783
H      -0.5394793932      2.5068056778     -1.2981080061
H       0.8302148626      0.1269700989     -1.2136549373
H       1.2786580649     -2.2743208614      4.0969232252
H      -3.8203097094      0.8704690522      1.9392051582
12
Frame=215  time=108.000fs  energy=-306.19358012Ha  molecule=COOCCCHHHHHH
C      -0.0976758605     -0.1893731166     -0.7419136445
O       0.8590789329      0.1634561133     -0.3885432618
O       1.8613244664      0.3526884394      0.0156223937
C      -0.7226501900      1.6125405818     -0.4186707487
C       0.2042529592      2.6533901122      0.9975367660
C      -0.2559650619     -1.2499040968      0.1820737733
H      -3.3898514617     -0.3181010261     -1.2137100092
H       2.4861452049      3.0045961567      2.8689536462
H      -0.5380461706      2.5015803948     -1.3046771428
H       0.8345494904      0.1395930140     -1.2179084448
H       1.2899858674     -2.2782273925      4.1136764664
H      -3.8312809038      0.8816679791      1.9516466307
12
Frame=216  time=108.500fs  energy=-306.19358012Ha  molecule=COOCCCHHHHHH
C      -0.0982039041     -0.1907697616     -0.7451082069
O       0.8571148140      0.1650490599     -0.3902604260
O       1.8602675355      0.3501584570      0.0155130391
C      -0.7230975730      1.6137749965     -0.4201349608
C       0.2063388766      2.6538458471      1.0019754027
C      -0.2533596093     -1.2496634997      0.1825592662
H      -3.4010286495     -0.3259712332     -1.2194130875
H       2.4948720933      3.0062894893      2.8821200732
H      -0.5366133551      2.4963565959     -1.3112444137
H       0.8388828870      0.1522123437     -1.2221607442
H       1.3013104523     -2.2821328140      4.1304249491
H      -3.8422489820      0.8928637251      1.9640845694
12
Frame=217  time=109.000fs  energy=-306.19358012Ha  molecule=COOCCCHHHHHH
C      -0.0987317980     -0.1921660107     -0.7483018636
O       0.8551512520      0.1666415549     -0.3919771034
O       1.8592109042      0.3476291918      0.0154037156
C      -0.7235448292      1.6150090612     -0.4215987578
C       0.2084242026      2.6543014528      1.0064127812
C      -0.2507548953     -1.2494229708      0.1830446215
H      -3.4122026687     -0.3338392092     -1.2251145491
H       2.5035965077      3.0079823419      2.8952827678
H      -0.5351809458      2.4911342778     -1.3178098228
H       0.8432150552      0.1648280961     -1.2264118381
H       1.3126318269     -2.2860371284      4.1471686839
H      -3.8532139509      0.9040562973      1.9765189821
12
Frame=218  time=109.500fs  energy=-306.19358012Ha  molecule=COOCCCHHHHHH
C      -0.0992595426     -0.1935618648     -0.7514946168
O       0.8531882456      0.1682335993     -0.3936932951
O       1.8581545720      0.3451006422      0.0152944230
C      -0.7239919588      1.6162427768     -0.4230621407
C       0.2105089386      2.6547569296      1.0108489041
C      -0.2481509183     -1.2491825099      0.1835298394
H      -3.4233735264     -0.3417049591     -1.2308143976
H       2.5123184537      3.0096747155      2.9084417382
H      -0.5337489418      2.4859134374     -1.3243733743
H       0.8475459976      0.1774402790     -1.2306617293
H       1.3239499983     -2.2899403380      4.1639076813
H      -3.8641758174      0.9152457027      1.9889498766
12
Frame=219  time=110.000fs  energy=-306.19358012Ha  molecule=COOCCCHHHHHH
C      -0.0997871381     -0.1949573247     -0.7546864683
O       0.8512257934      0.1698251941     -0.3954090021
O       1.8570985380      0.3425728066      0.0151851613
C      -0.7244389622      1.6174761440     -0.4245251103
C       0.2125930860      2.6552122777      1.0152837744
C      -0.2455476766     -1.2489421169      0.1840149204
H      -3.4345412296     -0.3495684877     -1.2365126365
H       2.5210379367      3.0113666112      2.9215969926
H      -0.5323173421      2.4806940713     -1.3309350724
H       0.8518757171      0.1900489003     -1.2349104203
H       1.3352649736     -2.2938424455      4.1806419518
H      -3.8751345884      0.9264319483      2.0013772608
12
Frame=220  time=110.500fs  energy=-306.19358012Ha  molecule=COOCCCHHHHHH
C      -0.1003145849     -0.1963523913     -0.7578774203
O       0.8492638944      0.1714163403     -0.3971242256
O       1.8560428016      0.3400456835      0.0150759303
C      -0.7248858395      1.6187091635     -0.4259876676
C       0.2146766459      2.6556674976      1.0197173947
C      -0.2429451686     -1.2487017917      0.1844998646
H      -3.4457057852     -0.3574298001     -1.2422092694
H       2.5297549621      3.0130580301      2.9347485394
H      -0.5308861460      2.4754761762     -1.3374949210
H       0.8562042162      0.2026539680     -1.2391579138
H       1.3465767598     -2.2977434532      4.1973715058
H      -3.8860902708      0.9376150412      2.0138011425
12
Frame=221  time=111.000fs  energy=-306.19358012Ha  molecule=COOCCCHHHHHH
C      -0.1008418834     -0.1977470655     -0.7610674746
O       0.8473025472      0.1730070390     -0.3988389666
O       1.8549873622      0.3375192712      0.0149667301
C      -0.7253325912      1.6199418362     -0.4274498134
C       0.2167596197      2.6561225893      1.0241497678
C      -0.2403433927     -1.2484615341      0.1849846724
H      -3.4568672003     -0.3652889012     -1.2479042998
H       2.5384695356      3.0147489731      2.9478963866
H      -0.5294553524      2.4702597489     -1.3440529245
H       0.8605314978      0.2152554900     -1.2434042126
H       1.3578853641     -2.3016433635      4.2140963539
H      -3.8970428714      0.9487949883      2.0262215293
12
Frame=222  time=111.500fs  energy=-306.19358012Ha  molecule=COOCCCHHHHHH
C      -0.1013690338     -0.1991413481     -0.7642566334
O       0.8453417507      0.1745972911     -0.4005532261
O       1.8539322192      0.3349935683      0.0148575605
C      -0.7257792175      1.6211741629     -0.4289115488
C       0.2188420087      2.6565775533      1.0285808966
C      -0.2377423473     -1.2482213439      0.1854693441
H      -3.4680254818     -0.3731457958     -1.2535977314
H       2.5471816623      3.0164394415      2.9610405426
H      -0.5280249605      2.4650447861     -1.3506090867
H       0.8648575644      0.2278534740     -1.2476493192
H       1.3691907934     -2.3055421789      4.2308165065
H      -3.9079923971      0.9599717967      2.0386384292
12
Frame=223  time=112.000fs  energy=-306.19358012Ha  molecule=COOCCCHHHHHH
C      -0.1018960365     -0.2005352400     -0.7674448985
O       0.8433815036      0.1761870975     -0.4022670054
O       1.8528773718      0.3324685730      0.0147484215
C      -0.7262257186      1.6224061442     -0.4303728746
C       0.2209238142      2.6570323899      1.0330107837
C      -0.2351420306     -1.2479812210      0.1859538799
H      -3.4791806367     -0.3810004888     -1.2592895676
H       2.5558913479      3.0181294361      2.9741810155
H      -0.5265949694      2.4598312845     -1.3571634119
H       0.8691824189      0.2404479281     -1.2518932363
H       1.3804930549     -2.3094399019      4.2475319740
H      -3.9189388546      0.9711454732      2.0510518497
12
Frame=224  time=112.500fs  energy=-306.19358012Ha  molecule=COOCCCHHHHHH
C      -0.1024228919     -0.2019287421     -0.7706322720
O       0.8414218048      0.1777764594     -0.4039803053
O       1.8518228193      0.3299442840      0.0146393131
C      -0.7266720948      1.6236377810     -0.4318337917
C       0.2230050376      2.6574870992      1.0374394320
C      -0.2325424412     -1.2477411653      0.1864382803
H      -3.4903326719     -0.3888529852     -1.2649798120
H       2.5645985978      3.0198189582      2.9873178135
H      -0.5251653783      2.4546192410     -1.3637159041
H       0.8735060639      0.2530388599     -1.2561359665
H       1.3917921557     -2.3133365348      4.2642427669
H      -3.9298822508      0.9823160249      2.0634617987
12
Frame=225  time=113.000fs  energy=-306.19358012Ha  molecule=COOCCCHHHHHH
C      -0.1029496001     -0.2033218553     -0.7738187558
O       0.8394626529      0.1793653777     -0.4056931271
O       1.8507685613      0.3274206994      0.0145302351
C      -0.7271183464      1.6248690740     -0.4332943010
C       0.2250856800      2.6579416816      1.0418668441
C      -0.2299435774     -1.2475011766      0.1869225455
H      -3.5014815944     -0.3967032898     -1.2706684682
H       2.5733034173      3.0215080086      3.0004509448
H      -0.5237361861      2.4494086523     -1.3702665674
H       0.8778285021      0.2656262774     -1.2603775125
H       1.4030881026     -2.3172320801      4.2809488954
H      -3.9408225925      0.9934834586      2.0758682838
12
Frame=226  time=113.500fs  energy=-306.19358012Ha  molecule=COOCCCHHHHHH
C      -0.1034761617     -0.2047145803     -0.7770043519
O       0.8375040468      0.1809538533     -0.4074054717
O       1.8497145969      0.3248978179      0.0144211875
C      -0.7275644738      1.6261000240     -0.4347544035
C       0.2271657428      2.6583961374      1.0462930229
C      -0.2273454375     -1.2472612548      0.1874066758
H      -3.5126274111     -0.4045514075     -1.2763555397
H       2.5820058118      3.0231965885      3.0135804175
H      -0.5223073921      2.4441995151     -1.3768154058
H       0.8821497361      0.2782101883     -1.2646178769
H       1.4143809027     -2.3211265402      4.2976503700
H      -3.9517598865      1.0046477814      2.0882713128
12
Frame=227  time=114.000fs  energy=-306.19358012Ha  molecule=COOCCCHHHHHH
C      -0.1040025768     -0.2061069182     -0.7801890624
O       0.8355459852      0.1825418872     -0.4091173402
O       1.8486609256      0.3223756379      0.0143121702
C      -0.7280104771      1.6273306318     -0.4362141000
C       0.2292452272      2.6588504668      1.0507179710
C      -0.2247480201     -1.2470213996      0.1878906714
H      -3.5237701288     -0.4123973432     -1.2820410299
H       2.5907057867      3.0248846990      3.0267062398
H      -0.5208789954      2.4389918262     -1.3833624234
H       0.8864697687      0.2907906004     -1.2688570624
H       1.4256705630     -2.3250199175      4.3143472010
H      -3.9626941395      1.0158090001      2.1006708932
12
Frame=228  time=114.500fs  energy=-306.19358012Ha  molecule=COOCCCHHHHHH
C      -0.1045288459     -0.2074988697     -0.7833728891
O       0.8335884670      0.1841294805     -0.4108287336
O       1.8476075466      0.3198541577      0.0142031832
C      -0.7284563566      1.6285608981     -0.4376733915
C       0.2313241347      2.6593046701      1.0551416913
C      -0.2221513234     -1.2467816110      0.1883745328
H      -3.5349097545     -0.4202411016     -1.2877249425
H       2.5994033475      3.0265723410      3.0398284197
H      -0.5194509950      2.4337855824     -1.3899076242
H       0.8907886025      0.3033675216     -1.2730950715
H       1.4369570905     -2.3289122144      4.3310393987
H      -3.9736253583      1.0269671217      2.1130670329
12
Frame=229  time=115.000fs  energy=-306.19358012Ha  molecule=COOCCCHHHHHH
C      -0.1050549692     -0.2088904356     -0.7865558340
O       0.8316314910      0.1857166341     -0.4125396531
O       1.8465544594      0.3173333759      0.0140942263
C      -0.7289021126      1.6297908237     -0.4391322788
C       0.2334024663      2.6597587477      1.0595641863
C      -0.2195553458     -1.2465418888      0.1888582601
H      -3.5460462950     -0.4280826877     -1.2934072809
H       2.6080984994      3.0282595156      3.0529469654
H      -0.5180233901      2.4285807805     -1.3964510123
H       0.8951062402      0.3159409595     -1.2773319068
H       1.4482404922     -2.3328034333      4.3477269735
H      -3.9845535497      1.0381221529      2.1254597395
12
Frame=230  time=115.500fs  energy=-306.19358012Ha  molecule=COOCCCHHHHHH
C      -0.1055809471     -0.2102816170     -0.7897378991
O       0.8296750559      0.1873033490     -0.4142500997
O       1.8455016633      0.3148132908      0.0139852996
C      -0.7293477454      1.6310204092     -0.4405907628
C       0.2354802235      2.6602126997      1.0639854590
C      -0.2169600858     -1.2463022329      0.1893418538
H      -3.5571797573     -0.4359221063     -1.2990880486
H       2.6167912479      3.0299462238      3.0660618849
H      -0.5165961799      2.4233774173     -1.4029925918
H       0.8994226844      0.3285109220     -1.2815675711
H       1.4595207750     -2.3366935767      4.3644099355
H      -3.9954787204      1.0492741008      2.1378490205
12
Frame=231  time=116.000fs  energy=-306.19358012Ha  molecule=COOCCCHHHHHH
C      -0.1061067799     -0.2116724145     -0.7929190864
O       0.8277191605      0.1888896262     -0.4159600744
O       1.8444491576      0.3122939010      0.0138764029
C      -0.7297932553      1.6322496556     -0.4420488445
C       0.2375574075      2.6606665265      1.0684055119
C      -0.2143655418     -1.2460626431      0.1898253140
H      -3.5683101480     -0.4437593621     -1.3047672491
H       2.6254815982      3.0316324667      3.0791731864
H      -0.5151693633      2.4181754896     -1.4095323666
H       0.9037379378      0.3410774167     -1.2858020668
H       1.4707979458     -2.3405826468      4.3810882952
H      -4.0064008771      1.0604229721      2.1502348835
12
Frame=232  time=116.500fs  energy=-306.19358012Ha  molecule=COOCCCHHHHHH
C      -0.1066324679     -0.2130628291     -0.7960993978
O       0.8257638036      0.1904754666     -0.4176695782
O       1.8433969418      0.3097752049      0.0137675362
C      -0.7302386425      1.6334785635     -0.4435065247
C       0.2396340195      2.6611202284      1.0728243478
C      -0.2117717122     -1.2458231193      0.1903086411
H      -3.5794374742     -0.4515944601     -1.3104448859
H       2.6341695558      3.0333182453      3.0922808778
H      -0.5137429397      2.4129749942     -1.4160703407
H       0.9080520031      0.3536404514     -1.2900353966
H       1.4820720116     -2.3444706461      4.3977620626
H      -4.0173200265      1.0715687737      2.1626173363
12
Frame=233  time=117.000fs  energy=-306.19358012Ha  molecule=COOCCCHHHHHH
C      -0.1071580114     -0.2144528616     -0.7992788352
O       0.8238089841      0.1920608712     -0.4193786123
O       1.8423450150      0.3072572009      0.0136586994
C      -0.7306839074      1.6347071337     -0.4449638044
C       0.2417100609      2.6615738056      1.0772419694
C      -0.2091785954     -1.2455836613      0.1907918354
H      -3.5905617426     -0.4594274050     -1.3161209625
H       2.6428551259      3.0350035607      3.1053849671
H      -0.5123169080      2.4077759279     -1.4226065182
H       0.9123648828      0.3662000337     -1.2942675631
H       1.4933429793     -2.3483575770      4.4144312481
H      -4.0282361753      1.0827115124      2.1749963864
12
Frame=234  time=117.500fs  energy=-306.19358012Ha  molecule=COOCCCHHHHHH
C      -0.1076834108     -0.2158425128     -0.8024574006
O       0.8218547007      0.1936458409     -0.4210871777
O       1.8412933768      0.3047398875      0.0135498924
C      -0.7311290501      1.6359353670     -0.4464206844
C       0.2437855329      2.6620272583      1.0816583794
C      -0.2065861897     -1.2453442689      0.1912748972
H      -3.6016829599     -0.4672582015     -1.3217954824
H       2.6515383139      3.0366884139      3.1184854626
H      -0.5108912674      2.4025782875     -1.4291409030
H       0.9166765797      0.3787561714     -1.2984985688
H       1.5046108557     -2.3522434419      4.4310958618
H      -4.0391493302      1.0938511950      2.1873720414
12
Frame=235  time=118.000fs  energy=-306.19358012Ha  molecule=COOCCCHHHHHH
C      -0.1082086664     -0.2172317837     -0.8056350959
O       0.8199009523      0.1952303769     -0.4227952754
O       1.8402420264      0.3022232632      0.0134411153
C      -0.7315740709      1.6371632640     -0.4478771655
C       0.2458604368      2.6624805870      1.0860735805
C      -0.2039944937     -1.2451049421      0.1917578267
H      -3.6128011331     -0.4750868546     -1.3274684489
H       2.6602191250      3.0383728058      3.1315823720
H      -0.5094660170      2.3973820698     -1.4356734992
H       0.9209870964      0.3913088721     -1.3027284164
H       1.5158756478     -2.3561282431      4.4477559140
H      -4.0500594979      1.1049878284      2.1997443088
12
Frame=236  time=118.500fs  energy=-306.19358012Ha  molecule=COOCCCHHHHHH
C      -0.1087337785     -0.2186206751     -0.8088119231
O       0.8179477376      0.1968144799     -0.4245029064
O       1.8391909633      0.2997073263      0.0133323678
C      -0.7320189702      1.6383908256     -0.4493332488
C       0.2479347739      2.6629337918      1.0904875754
C      -0.2014035057     -1.2448656807      0.1922406243
H      -3.6239162688     -0.4829133689     -1.3331398657
H       2.6688975646      3.0400567376      3.1446757034
H      -0.5080411560      2.3921872717     -1.4422043107
H       0.9252964354      0.4038581435     -1.3069571084
H       1.5271373624     -2.3600119829      4.4644114147
H      -4.0609666850      1.1161214193      2.2121131961
12
Frame=237  time=119.000fs  energy=-306.19358012Ha  molecule=COOCCCHHHHHH
C      -0.1092587474     -0.2200091877     -0.8119878841
O       0.8159950555      0.1983981510     -0.4262100719
O       1.8381401867      0.2971920755      0.0132236501
C      -0.7324637482      1.6396180525     -0.4507889351
C       0.2500085453      2.6633868730      1.0949003668
C      -0.1988132242     -1.2446264845      0.1927232903
H      -3.6350283739     -0.4907377492     -1.3388097361
H       2.6775736379      3.0417402103      3.1577654648
H      -0.5066166836      2.3869938900     -1.4487333415
H       0.9296045995      0.4164039932     -1.3111846475
H       1.5383960064     -2.3638946639      4.4810623741
H      -4.0718708981      1.1272519746      2.2244787110
12
Frame=238  time=119.500fs  energy=-306.19358012Ha  molecule=COOCCCHHHHHH
C      -0.1097835734     -0.2213973225     -0.8151629809
O       0.8140429047      0.1999813912     -0.4279167728
O       1.8370896961      0.2946775092      0.0131149619
C      -0.7329084051      1.6408449455     -0.4522442252
C       0.2520817524      2.6638398309      1.0993119573
C      -0.1962236475     -1.2443873534      0.1932058249
H      -3.6461374551     -0.4985600003     -1.3444780635
H       2.6862473502      3.0434232248      3.1708516641
H      -0.5051925987      2.3818019216     -1.4552605957
H       0.9339115912      0.4289464289     -1.3154110361
H       1.5496515866     -2.3677762882      4.4977088024
H      -4.0827721439      1.1383795009      2.2368408608
12
Frame=239  time=120.000fs  energy=-306.19358012Ha  molecule=COOCCCHHHHHH
C      -0.1103082569     -0.2227850803     -0.8183372153
O       0.8120912842      0.2015642014     -0.4296230101
O       1.8360394908      0.2921636258      0.0130063032
C      -0.7333529413      1.6420715052     -0.4536991201
C       0.2541543965      2.6642926659      1.1037223497
C      -0.1936347742     -1.2441482873      0.1936882285
H      -3.6572435192     -0.5063801270     -1.3501448515
H       2.6949187068      3.0451057823      3.1839343093
H      -0.5037689007      2.3766113633     -1.4617860770
H       0.9382174131      0.4414854581     -1.3196362768
H       1.5609041099     -2.3716568583      4.5143507095
H      -4.0936704289      1.1495040051      2.2491996532
12
Frame=240  time=120.500fs  energy=-306.19358012Ha  molecule=COOCCCHHHHHH
C      -0.1108327982     -0.2241724619     -0.8215105893
O       0.8101401926      0.2031465825     -0.4313287850
O       1.8349895702      0.2896504238      0.0128976739
C      -0.7337973570      1.6432977324     -0.4551536206
C       0.2562264787      2.6647453780      1.1081315466
C      -0.1910466026     -1.2439092859      0.1941705013
H      -3.6683465728     -0.5141981339     -1.3558101034
H       2.7035877129      3.0467878836      3.1970134083
H      -0.5023455885      2.3714222120     -1.4683097895
H       0.9425220679      0.4540210884     -1.3238603723
H       1.5721535830     -2.3755363766      4.5309881057
H      -4.1045657599      1.1606254938      2.2615550956
12
Frame=241  time=121.000fs  energy=-306.19358012Ha  molecule=COOCCCHHHHHH
C      -0.1113571976     -0.2255594682     -0.8246831048
O       0.8081896289      0.2047285355     -0.4330340983
O       1.8339399336      0.2871379017      0.0127890741
C      -0.7342416524      1.6445236279     -0.4566077276
C       0.2582980004      2.6651979677      1.1125395506
C      -0.1884591312     -1.2436703492      0.1946526436
H      -3.6794466227     -0.5220140257     -1.3614738227
H       2.7122543738      3.0484695299      3.2100889690
H      -0.5009226614      2.3662344645     -1.4748317372
H       0.9468255582      0.4665533275     -1.3280833250
H       1.5834000128     -2.3794148453      4.5476210010
H      -4.1154581433      1.1717439738      2.2739071954
12
Frame=242  time=121.500fs  energy=-306.19358012Ha  molecule=COOCCCHHHHHH
C      -0.1118814554     -0.2269461000     -0.8278547637
O       0.8062395918      0.2063100614     -0.4347389513
O       1.8328905804      0.2846260580      0.0126805036
C      -0.7346858279      1.6457491924     -0.4580614420
C       0.2603689628      2.6656504352      1.1169463645
C      -0.1858723584     -1.2434314771      0.1951346558
H      -3.6905436755     -0.5298278073     -1.3671360128
H       2.7209186947      3.0501507222      3.2231609992
H      -0.4995001185      2.3610481176     -1.4813519239
H       0.9511278865      0.4790821828     -1.3323051375
H       1.5946434061     -2.3832922668      4.5642494053
H      -4.1263475858      1.1828594518      2.2862559602
12
Frame=243  time=122.000fs  energy=-306.19358012Ha  molecule=COOCCCHHHHHH
C      -0.1124055719     -0.2283323581     -0.8310255680
O       0.8042900803      0.2078911612     -0.4364433448
O       1.8318415100      0.2821148912      0.0125719623
C      -0.7351298837      1.6469744267     -0.4595147647
C       0.2624393671      2.6661027808      1.1213519909
C      -0.1832862827     -1.2431926692      0.1956165381
H      -3.7016377380     -0.5376394833     -1.3727966771
H       2.7295806808      3.0518314614      3.2362295070
H      -0.4980779589      2.3558631684     -1.4878703537
H       0.9554290554      0.4916076620     -1.3365258123
H       1.6058837696     -2.3871686435      4.5808733288
H      -4.1372340939      1.1939719345      2.2986013973
12
Frame=244  time=122.500fs  energy=-306.19358012Ha  molecule=COOCCCHHHHHH
C      -0.1129295475     -0.2297182434     -0.8341955194
O       0.8023410930      0.2094718357     -0.4381472800
O       1.8307927217      0.2796043997      0.0124634502
C      -0.7355738201      1.6481993315     -0.4609676965
C       0.2645092145      2.6665550047      1.1257564324
C      -0.1807009025     -1.2429539257      0.1960982907
H      -3.7127288169     -0.5454490584     -1.3784558190
H       2.7382403373      3.0535117486      3.2492945000
H      -0.4966561818      2.3506796136     -1.4943870303
H       0.9597290676      0.5041297725     -1.3407453520
H       1.6171211101     -2.3910439777      4.5974927814
H      -4.1481176742      1.2050814286      2.3109435142
12
Frame=245  time=123.000fs  energy=-306.19358012Ha  molecule=COOCCCHHHHHH
C      -0.1134533824     -0.2311037567     -0.8373646201
O       0.8003926289      0.2110520859     -0.4398507578
O       1.8297442149      0.2770945821      0.0123549673
C      -0.7360176373      1.6494239074     -0.4624202384
C       0.2665785064      2.6670071072      1.1301596917
C      -0.1781162162     -1.2427152462      0.1965799141
H      -3.7238169187     -0.5532565373     -1.3841134419
H       2.7468976694      3.0551915848      3.2623559862
H      -0.4952347863      2.3454974501     -1.5009019578
H       0.9640279256      0.5166485220     -1.3449637591
H       1.6283554343     -2.3949182716      4.6141077731
H      -4.1589983331      1.2161879408      2.3232823183
12
Frame=246  time=123.500fs  energy=-306.19358012Ha  molecule=COOCCCHHHHHH
C      -0.1139770770     -0.2324888989     -0.8405328717
O       0.7984446867      0.2126319128     -0.4415537792
O       1.8286959890      0.2745854368      0.0122465134
C      -0.7364613356      1.6506481553     -0.4638723911
C       0.2686472440      2.6674590886      1.1345617715
C      -0.1755322224     -1.2424766306      0.1970614085
H      -3.7349020502     -0.5610619247     -1.3897695492
H       2.7555526824      3.0568709710      3.2754139734
H      -0.4938137716      2.3403166749     -1.5074151400
H       0.9683256320      0.5291639178     -1.3491810362
H       1.6395867490     -2.3987915277      4.6307183139
H      -4.1698760772      1.2272914777      2.3356178171
12
Frame=247  time=124.000fs  energy=-306.19358012Ha  molecule=COOCCCHHHHHH
C      -0.1145006316     -0.2338736707     -0.8437002763
O       0.7964972653      0.2142113173     -0.4432563454
O       1.8276480434      0.2720769624      0.0121380885
C      -0.7369049153      1.6518720759     -0.4653241555
C       0.2707154285      2.6679109492      1.1389626743
C      -0.1729489194     -1.2422380788      0.1975427741
H      -3.7459842180     -0.5688652252     -1.3954241442
H       2.7642053813      3.0585499081      3.2884684695
H      -0.4923931369      2.3351372848     -1.5139265809
H       0.9726221894      0.5416759675     -1.3533971858
H       1.6508150608     -2.4026637483      4.6473244137
H      -4.1807509131      1.2383920459      2.3479500178
12
Frame=248  time=124.500fs  energy=-306.19358012Ha  molecule=COOCCCHHHHHH
C      -0.1150240465     -0.2352580730     -0.8468668358
O       0.7945503636      0.2157903004     -0.4449584572
O       1.8266003774      0.2695691573      0.0120296926
C      -0.7373483766      1.6530956699     -0.4667755326
C       0.2727830611      2.6683626892      1.1433624028
C      -0.1703663057     -1.2419995907      0.1980240112
H      -3.7570634287     -0.5766664436     -1.4010772305
H       2.7728557714      3.0602283973      3.3015194821
H      -0.4909728812      2.3299592768     -1.5204362842
H       0.9769176003      0.5541846786     -1.3576122103
H       1.6620403766     -2.4065349355      4.6639260824
H      -4.1916228472      1.2494896521      2.3602789278
12
Frame=249  time=125.000fs  energy=-306.19358012Ha  molecule=COOCCCHHHHHH
C      -0.1155473220     -0.2366421067     -0.8500325519
O       0.7926039803      0.2173688630     -0.4466601158
O       1.8255529904      0.2670620201      0.0119213255
C      -0.7377917198      1.6543189381     -0.4682265232
C       0.2748501430      2.6688143089      1.1477609595
C      -0.1677843798     -1.2417611661      0.1985051202
H      -3.7681396888     -0.5844655844     -1.4067288112
H       2.7815038579      3.0619064395      3.3145670191
H      -0.4895530037      2.3247826477     -1.5269442540
H       0.9812118672      0.5666900584     -1.3618261123
H       1.6732627030     -2.4104050919      4.6805233299
H      -4.2024918860      1.2605843029      2.3726045545
12
Frame=250  time=125.500fs  energy=-306.19358012Ha  molecule=COOCCCHHHHHH
C      -0.1160704584     -0.2380257724     -0.8531974266
O       0.7906581144      0.2189470060     -0.4483613220
O       1.8245058817      0.2645555492      0.0118129872
C      -0.7382349452      1.6555418811     -0.4696771281
C       0.2769166756      2.6692658086      1.1521583473
C      -0.1652031401     -1.2415228049      0.1989861014
H      -3.7792130051     -0.5922626523     -1.4123788899
H       2.7901496458      3.0635840357      3.3276110883
H      -0.4881335036      2.3196073945     -1.5334504941
H       0.9855049929      0.5791921145     -1.3660388944
H       1.6844820466     -2.4142742196      4.6971161661
H      -4.2133580360      1.2716760049      2.3849269053
12
Frame=251  time=126.000fs  energy=-306.19358012Ha  molecule=COOCCCHHHHHH
C      -0.1165934560     -0.2394090712     -0.8563614619
O       0.7887127647      0.2205247304     -0.4500620770
O       1.8234590509      0.2620497432      0.0117046776
C      -0.7386780530      1.6567644998     -0.4711273482
C       0.2789826600      2.6697171885      1.1565545685
C      -0.1626225851     -1.2412845069      0.1994669549
H      -3.7902833840     -0.6000576519     -1.4180274698
H       2.7987931403      3.0652611869      3.3406516974
H      -0.4867143800      2.3144335140     -1.5399550083
H       0.9897969797      0.5916908543     -1.3702505589
H       1.6956984142     -2.4181423210      4.7137046008
H      -4.2242213035      1.2827647647      2.3972459874
12
Frame=252  time=126.500fs  energy=-306.19358012Ha  molecule=COOCCCHHHHHH
C      -0.1171163152     -0.2407920037     -0.8595246594
O       0.7867679299      0.2221020372     -0.4517623818
O       1.8224124971      0.2595446006      0.0115963968
C      -0.7391210436      1.6579867947     -0.4725771844
C       0.2810480975      2.6701684489      1.1609496259
C      -0.1600427133     -1.2410462720      0.1999476812
H      -3.8013508322     -0.6078505879     -1.4236745543
H       2.8074343465      3.0669378940      3.3536888542
H      -0.4852956322      2.3092610033     -1.5464578005
H       0.9940878303      0.6041862852     -1.3744611085
H       1.7069118124     -2.4220093984      4.7302886440
H      -4.2350816952      1.2938505889      2.4095618081
12
Frame=253  time=127.000fs  energy=-306.19358012Ha  molecule=COOCCCHHHHHH
C      -0.1176390362     -0.2421745709     -0.8626870213
O       0.7848236090      0.2236789271     -0.4534622373
O       1.8213662199      0.2570401199      0.0114881445
C      -0.7395639170      1.6592087667     -0.4740266376
C       0.2831129892      2.6706195901      1.1653435221
C      -0.1574635232     -1.2408081000      0.2004282804
H      -3.8124153562     -0.6156414649     -1.4293201468
H       2.8160732696      3.0686141582      3.3667225663
H      -0.4838772592      2.3040898593     -1.5529588745
H       0.9983775471      0.6166784146     -1.3786705455
H       1.7181222478     -2.4258754540      4.7468683053
H      -4.2459392174      1.3049334840      2.4218743748
12
Frame=254  time=127.500fs  energy=-306.19358012Ha  molecule=COOCCCHHHHHH
C      -0.1181616194     -0.2435567734     -0.8658485492
O       0.7828798008      0.2252554013     -0.4551616445
O       1.8203202186      0.2545362996      0.0113799208
C      -0.7400066737      1.6604304165     -0.4754757085
C       0.2851773364      2.6710706123      1.1697362596
C      -0.1548850131     -1.2405699908      0.2009087529
H      -3.8234769625     -0.6234302874     -1.4349642505
H       2.8247099146      3.0702899803      3.3797528414
H      -0.4824592602      2.2989200789     -1.5594582343
H       1.0026661328      0.6291672499     -1.3828788726
H       1.7293297270     -2.4297404901      4.7634435947
H      -4.2567938764      1.3160134566      2.4341836948
12
Frame=255  time=128.000fs  energy=-306.19358012Ha  molecule=COOCCCHHHHHH
C      -0.1186840651     -0.2449386122     -0.8690092450
O       0.7809365042      0.2268314605     -0.4568606045
O       1.8192744926      0.2520331382      0.0112717255
C      -0.7404493139      1.6616517448     -0.4769243980
C       0.2872411404      2.6715215158      1.1741278411
C      -0.1523071817     -1.2403319443      0.2013890990
H      -3.8345356576     -0.6312170602     -1.4406068689
H       2.8333442867      3.0719653615      3.3927796874
H      -0.4810416344      2.2937516590     -1.5659558836
H       1.0069535898      0.6416527984     -1.3870860921
H       1.7405342567     -2.4336045091      4.7800145219
H      -4.2676456788      1.3270905132      2.4464897752
12
Frame=256  time=128.500fs  energy=-306.19358012Ha  molecule=COOCCCHHHHHH
C      -0.1192063735     -0.2463200881     -0.8721691107
O       0.7789937180      0.2284071058     -0.4585591183
O       1.8182290412      0.2495306343      0.0111635587
C      -0.7408918378      1.6628727523     -0.4783727071
C       0.2893044022      2.6719723008      1.1785182690
C      -0.1497300273     -1.2400939604      0.2018693189
H      -3.8455914481     -0.6390017877     -1.4462480052
H       2.8419763909      3.0736403025      3.4058031117
H      -0.4796243810      2.2885845966     -1.5724518262
H       1.0112399207      0.6541350676     -1.3912922065
H       1.7517358435     -2.4374675131      4.7965810966
H      -4.2784946310      1.3381646604      2.4587926234
12
Frame=257  time=129.000fs  energy=-306.19358012Ha  molecule=COOCCCHHHHHH
C      -0.1197285451     -0.2477012018     -0.8753281481
O       0.7770514410      0.2299823381     -0.4602571868
O       1.8171838639      0.2470287865      0.0110554203
C      -0.7413342457      1.6640934397     -0.4798206365
C       0.2913671233      2.6724229678      1.1829075461
C      -0.1471535486     -1.2398560388      0.2023494129
H      -3.8566443406     -0.6467844745     -1.4518876627
H       2.8506062323      3.0753148045      3.4188231222
H      -0.4782074990      2.2834188888     -1.5789460660
H       1.0155251280      0.6666140646     -1.3954972184
H       1.7629344940     -2.4413295046      4.8131433286
H      -4.2893407392      1.3492359046      2.4710922466
12
Frame=258  time=129.500fs  energy=-306.19358012Ha  molecule=COOCCCHHHHHH
C      -0.1202505800     -0.2490819542     -0.8784863590
O       0.7751096722      0.2315571583     -0.4619548111
O       1.8161389600      0.2445275931      0.0109473101
C      -0.7417765378      1.6653138077     -0.4812681871
C       0.2934293046      2.6728735168      1.1872956749
C      -0.1445777438     -1.2396181794      0.2028293813
H      -3.8676943413     -0.6545651252     -1.4575258448
H       2.8592338160      3.0769888684      3.4318397263
H      -0.4767909878      2.2782545323     -1.5854386068
H       1.0198092142      0.6790897970     -1.3997011302
H       1.7741302147     -2.4451904856      4.8297012277
H      -4.3001840098      1.3603042524      2.4833886519
12
Frame=259  time=130.000fs  energy=-306.19358012Ha  molecule=COOCCCHHHHHH
C      -0.1207724786     -0.2504623461     -0.8816437453
O       0.7731684104      0.2331315672     -0.4636519922
O       1.8150943289      0.2420270528      0.0108392281
C      -0.7422187145      1.6665338571     -0.4827153597
C       0.2954909476      2.6733239481      1.1916826579
C      -0.1420026116     -1.2393803822      0.2033092243
H      -3.8787414569     -0.6623437445     -1.4631625548
H       2.8678591470      3.0786624952      3.4448529319
H      -0.4753748464      2.2730915243     -1.5919294524
H       1.0240921818      0.6915622719     -1.4039039444
H       1.7853230122     -2.4490504586      4.8462548035
H      -4.3110244493      1.3713697103      2.4956818467
12
Frame=260  time=130.500fs  energy=-306.19358012Ha  molecule=COOCCCHHHHHH
C      -0.1212942412     -0.2518423783     -0.8848003089
O       0.7712276545      0.2347055659     -0.4653487309
O       1.8140499701      0.2395271641      0.0107311743
C      -0.7426607760      1.6677535886     -0.4841621552
C       0.2975520533      2.6737742621      1.1960684978
C      -0.1394281505     -1.2391426469      0.2037889424
H      -3.8897856938     -0.6701203367     -1.4687977959
H       2.8764822305      3.0803356859      3.4578627464
H      -0.4739590740      2.2679298617     -1.5984186066
H       1.0283740334      0.7040314967     -1.4081056633
H       1.7965128930     -2.4529094257      4.8628040657
H      -4.3218620640      1.3824322847      2.5079718381
12
Frame=261  time=131.000fs  energy=-306.19358012Ha  molecule=COOCCCHHHHHH
C      -0.1218158681     -0.2532220516     -0.8879560515
O       0.7692874033      0.2362791553     -0.4670450285
O       1.8130058828      0.2370279256      0.0106231487
C      -0.7431027225      1.6689730029     -0.4856085745
C       0.2996126230      2.6742244590      1.2004531970
C      -0.1368543589     -1.2389049735      0.2042685357
H      -3.9008270585     -0.6778949065     -1.4744315715
H       2.8851030713      3.0820084415      3.4708691774
H      -0.4725436698      2.2627695414     -1.6049060732
H       1.0326547714      0.7164974787     -1.4123062896
H       1.8076998637     -2.4567673892      4.8793490239
H      -4.3326968601      1.3934919820      2.5202586332
12
Frame=262  time=131.500fs  energy=-306.19358012Ha  molecule=COOCCCHHHHHH
C      -0.1223373597     -0.2546013667     -0.8911109751
O       0.7673476557      0.2378523362     -0.4687408857
O       1.8119620666      0.2345293357      0.0105151510
C      -0.7435445542      1.6701921007     -0.4870546183
C       0.3016726578      2.6746745390      1.2048367582
C      -0.1342812353     -1.2386673617      0.2047480045
H      -3.9118655574     -0.6856674583     -1.4800638848
H       2.8937216746      3.0836807628      3.4838722326
H      -0.4711286330      2.2576105606     -1.6113918559
H       1.0369343983      0.7289602250     -1.4165058255
H       1.8188839307     -2.4606243514      4.8958896879
H      -4.3435288441      1.4045488088      2.5325422392
12
Frame=263  time=132.000fs  energy=-306.19358012Ha  molecule=COOCCCHHHHHH
C      -0.1228587161     -0.2559803246     -0.8942650814
O       0.7654084105      0.2394251097     -0.4704363036
O       1.8109185207      0.2320313931      0.0104071813
C      -0.7439862716      1.6714108827     -0.4885002876
C       0.3037321590      2.6751245025      1.2092191839
C      -0.1317087782     -1.2384298115      0.2052273491
H      -3.9229011968     -0.6934379968     -1.4856947392
H       2.9023380453      3.0853526510      3.4968719196
H      -0.4697139627      2.2524529161     -1.6178759586
H       1.0412129166      0.7414197431     -1.4207042736
H       1.8300651007     -2.4644803145      4.9124260672
H      -4.3543580221      1.4156027715      2.5448226634
12
Frame=264  time=132.500fs  energy=-306.19358012Ha  molecule=COOCCCHHHHHH
C      -0.1233799378     -0.2573589260     -0.8974183722
O       0.7634696667      0.2409974765     -0.4721312833
O       1.8098752447      0.2295340962      0.0102992396
C      -0.7444278747      1.6726293496     -0.4899455831
C       0.3057911278      2.6755743496      1.2136004766
C      -0.1291369862     -1.2381923227      0.2057065698
H      -3.9339339833     -0.7012065265     -1.4913241378
H       2.9109521885      3.0870241070      3.5098682458
H      -0.4682996582      2.2472966049     -1.6243583849
H       1.0454903289      0.7538760401     -1.4249016363
H       1.8412433801     -2.4683352807      4.9289581715
H      -4.3651844005      1.4266538764      2.5570999127
12
Frame=265  time=133.000fs  energy=-306.19358012Ha  molecule=COOCCCHHHHHH
C      -0.1239010249     -0.2587371717     -0.9005708496
O       0.7615314231      0.2425694376     -0.4738258256
O       1.8088322378      0.2270374437      0.0101913257
C      -0.7448693639      1.6738475021     -0.4913905057
C       0.3078495654      2.6760240807      1.2179806389
C      -0.1265658578     -1.2379548952      0.2061856668
H      -3.9449639232     -0.7089730517     -1.4969520840
H       2.9195641091      3.0886951317      3.5228612188
H      -0.4668857185      2.2421416242     -1.6308391388
H       1.0497666375      0.7663291232     -1.4290979161
H       1.8524187754     -2.4721892523      4.9454860103
H      -4.3760079857      1.4377021300      2.5693739944
12
Frame=266  time=133.500fs  energy=-306.19358012Ha  molecule=COOCCCHHHHHH
C      -0.1244219779     -0.2601150625     -0.9037225151
O       0.7595936786      0.2441409939     -0.4755199315
O       1.8077894994      0.2245414340      0.0100834396
C      -0.7453107394      1.6750653410     -0.4928350563
C       0.3099074729      2.6764736959      1.2223596733
C      -0.1239953914     -1.2377175288      0.2066646405
H      -3.9559910229     -0.7167375771     -1.5025785810
H       2.9281738122      3.0903657261      3.5358508461
H      -0.4654721430      2.2369879709     -1.6373182238
H       1.0540418449      0.7787789996     -1.4332931153
H       1.8635912930     -2.4760422315      4.9620095931
H      -4.3868287837      1.4487475387      2.5816449155
12
Frame=267  time=134.000fs  energy=-306.19358012Ha  molecule=COOCCCHHHHHH
C      -0.1249427971     -0.2614925992     -0.9068733707
O       0.7576564321      0.2457121464     -0.4772136021
O       1.8067470291      0.2220460658      0.0099755812
C      -0.7457520015      1.6762828668     -0.4942792356
C       0.3119648516      2.6769231956      1.2267375823
C      -0.1214255856     -1.2374802234      0.2071434911
H      -3.9670152888     -0.7245001071     -1.5082036321
H       2.9367813027      3.0920358912      3.5488371352
H      -0.4640589307      2.2318356420     -1.6437956438
H       1.0583159537      0.7912256766     -1.4374872363
H       1.8747609394     -2.4798942205      4.9785289297
H      -4.3976468009      1.4597901089      2.5939126831
12
Frame=268  time=134.500fs  energy=-306.19358012Ha  molecule=COOCCCHHHHHH
C      -0.1254634826     -0.2628697826     -0.9100234182
O       0.7557196825      0.2472828959     -0.4789068383
O       1.8057048261      0.2195513376      0.0098677505
C      -0.7461931504      1.6775000805     -0.4957230445
C       0.3140217025      2.6773725800      1.2311143685
C      -0.1188564389     -1.2372429789      0.2076222188
H      -3.9780367272     -0.7322606462     -1.5138272404
H       2.9453865855      3.0937056280      3.5618200937
H      -0.4626460809      2.2266846345     -1.6502714025
H       1.0625889663      0.8036691613     -1.4416802817
H       1.8859277210     -2.4837452216      4.9950440294
H      -4.4084620436      1.4708298469      2.6061773044
12
Frame=269  time=135.000fs  energy=-306.19358012Ha  molecule=COOCCCHHHHHH
C      -0.1259840349     -0.2642466134     -0.9131726594
O       0.7537834285      0.2488532434     -0.4805996411
O       1.8046628899      0.2170572480      0.0097599473
C      -0.7466341864      1.6787169825     -0.4971664838
C       0.3160780270      2.6778218494      1.2354900344
C      -0.1162879498     -1.2370057951      0.2081008241
H      -3.9890553444     -0.7400191988     -1.5194494093
H       2.9539896657      3.0953749373      3.5747997290
H      -0.4612335927      2.2215349455     -1.6567455036
H       1.0668608851      0.8161094609     -1.4458722538
H       1.8970916444     -2.4875952369      5.0115549018
H      -4.4192745179      1.4818667591      2.6184387863
12
Frame=270  time=135.500fs  energy=-306.19358012Ha  molecule=COOCCCHHHHHH
C      -0.1265044542     -0.2656230926     -0.9163210960
O       0.7518476693      0.2504231897     -0.4822920115
O       1.8036212199      0.2145637955      0.0096521717
C      -0.7470751097      1.6799335737     -0.4986095545
C       0.3181338262      2.6782710040      1.2398645825
C      -0.1137201168     -1.2367686719      0.2085793070
H      -4.0000711469     -0.7477757695     -1.5250701420
H       2.9625905482      3.0970438202      3.5877760485
H      -0.4598214654      2.2163865721     -1.6632179509
H       1.0711317127      0.8285465825     -1.4500631551
H       1.9082527158     -2.4914442688      5.0280615563
H      -4.4300842301      1.4929008519      2.6306971359
12
Frame=271  time=136.000fs  energy=-306.19358012Ha  molecule=COOCCCHHHHHH
C      -0.1270247408     -0.2669992208     -0.9194687300
O       0.7499124035      0.2519927357     -0.4839839504
O       1.8025798154      0.2120709787      0.0095444236
C      -0.7475159206      1.6811498547     -0.5000522572
C       0.3201891013      2.6787200441      1.2442380153
C      -0.1111529385     -1.2365316091      0.2090576680
H      -4.0110841410     -0.7555303626     -1.5306894417
H       2.9711892379      3.0987122777      3.6007490597
H      -0.4584096981      2.2112395112     -1.6696887480
H       1.0754014513      0.8409805333     -1.4542529879
H       1.9194109417     -2.4952923193      5.0445640025
H      -4.4408911864      1.5039321315      2.6429523603
12
Frame=272  time=136.500fs  energy=-306.19358012Ha  molecule=COOCCCHHHHHH
C      -0.1275448950     -0.2683749989     -0.9226155631
O       0.7479776302      0.2535618824     -0.4856754588
O       1.8015386759      0.2095787962      0.0094367029
C      -0.7479566194      1.6823658262     -0.5014945928
C       0.3222438534      2.6791689700      1.2486103354
C      -0.1085864134     -1.2362946067      0.2095359073
H      -4.0220943328     -0.7632829826     -1.5363073116
H       2.9797857397      3.1003803106      3.6137187700
H      -0.4569982900      2.2060937600     -1.6761578986
H       1.0796701036      0.8534113203     -1.4584417546
H       1.9305663285     -2.4991393907      5.0610622498
H      -4.4516953929      1.5149606043      2.6552044664
12
Frame=273  time=137.000fs  energy=-306.19358012Ha  molecule=COOCCCHHHHHH
C      -0.1280649171     -0.2697504276     -0.9257615971
O       0.7460433481      0.2551306307     -0.4873665377
O       1.8004978008      0.2070872465      0.0093290096
C      -0.7483972062      1.6835814890     -0.5029365621
C       0.3242980838      2.6796177819      1.2529815451
C      -0.1060205400     -1.2360576645      0.2100140251
H      -4.0331017288     -0.7710336340     -1.5419237549
H       2.9883800586      3.1020479199      3.6266851869
H      -0.4555872403      2.2009493154     -1.6826254066
H       1.0839376720      0.8658389508     -1.4626294576
H       1.9417188825     -2.5029854852      5.0775563077
H      -4.4624968559      1.5259862766      2.6674534613
12
Frame=274  time=137.500fs  energy=-306.19358012Ha  molecule=COOCCCHHHHHH
C      -0.1285848075     -0.2711255078     -0.9289068338
O       0.7441095563      0.2566989813     -0.4890571880
O       1.7994571894      0.2045963283      0.0092213435
C      -0.7488376814      1.6847968437     -0.5043781661
C       0.3263517935      2.6800664800      1.2573516471
C      -0.1034553169     -1.2358207823      0.2104920217
H      -4.0441063352     -0.7787823212     -1.5475387749
H       2.9969721994      3.1037151066      3.6396483177
H      -0.4541765482      2.1958061746     -1.6890912755
H       1.0882041588      0.8782634317     -1.4668160993
H       1.9528686102     -2.5068306051      5.0940461854
H      -4.4732955815      1.5370091547      2.6796993519
12
Frame=275  time=138.000fs  energy=-306.19358012Ha  molecule=COOCCCHHHHHH
C      -0.1291045663     -0.2725002401     -0.9320512751
O       0.7421762535      0.2582669353     -0.4907474106
O       1.7984168413      0.2021060401      0.0091137047
C      -0.7492780452      1.6860118910     -0.5058194054
C       0.3284049839      2.6805150646      1.2617206437
C      -0.1008907426     -1.2355839600      0.2109698975
H      -4.0551081583     -0.7865290485     -1.5531523746
H       3.0055621671      3.1053818716      3.6526081699
H      -0.4527662128      2.1906643346     -1.6955555090
H       1.0924695665      0.8906847703     -1.4710016822
H       1.9640155179     -2.5106747523      5.1105318925
H      -4.4840915758      1.5480292448      2.6919421453
12
Frame=276  time=138.500fs  energy=-306.19358012Ha  molecule=COOCCCHHHHHH
C      -0.1296241940     -0.2738746255     -0.9351949226
O       0.7402434388      0.2598344935     -0.4924372067
O       1.7973767558      0.1996163804      0.0090060931
C      -0.7497182978      1.6872266316     -0.5072602809
C       0.3304576559      2.6809635360      1.2660885376
C      -0.0983268157     -1.2353471975      0.2114476526
H      -4.0661072043     -0.7942738204     -1.5587645575
H       3.0141499666      3.1070482160      3.6655647507
H      -0.4513562335      2.1855237925     -1.7020181108
H       1.0967338975      0.9031029734     -1.4751862085
H       1.9751596119     -2.5145179293      5.1270134383
H      -4.4948848450      1.5590465533      2.7041818484
12
Frame=277  time=139.000fs  energy=-306.19358012Ha  molecule=COOCCCHHHHHH
C      -0.1301436908     -0.2752486646     -0.9383377781
O       0.7383111109      0.2614016568     -0.4941265771
O       1.7963369323      0.1971273480      0.0088985085
C      -0.7501584395      1.6884410661     -0.5087007934
C       0.3325098109      2.6814118944      1.2704553311
C      -0.0957635346     -1.2351104946      0.2119252874
H      -4.0771034795     -0.8020166413     -1.5643753265
H       3.0227356026      3.1087141405      3.6785180676
H      -0.4499466094      2.1803845454     -1.7084790846
H       1.1009971544      0.9155180482     -1.4793696807
H       1.9863008985     -2.5183601381      5.1434908322
H      -4.5056753953      1.5700610863      2.7164184681
12
Frame=278  time=139.500fs  energy=-306.19358012Ha  molecule=COOCCCHHHHHH
C      -0.1306630569     -0.2766223583     -0.9414798435
O       0.7363792689      0.2629684261     -0.4958155227
O       1.7952973702      0.1946389413      0.0087909510
C      -0.7505984706      1.6896551954     -0.5101409438
C       0.3345614499      2.6818601401      1.2748210267
C      -0.0932008980     -1.2348738512      0.2124028021
H      -4.0880969902     -0.8097575156     -1.5699846849
H       3.0313190801      3.1103796462      3.6914681279
H      -0.4485373397      2.1752465903     -1.7149384340
H       1.1052593393      0.9279300017     -1.4835521012
H       1.9974393841     -2.5222013810      5.1599640835
H      -4.5164632327      1.5810728502      2.7286520115
12
Frame=279  time=140.000fs  energy=-306.19358012Ha  molecule=COOCCCHHHHHH
C      -0.1311822928     -0.2779957073     -0.9446211206
O       0.7344479116      0.2645348023     -0.4975040446
O       1.7942580689      0.1921511590      0.0086834205
C      -0.7510383912      1.6908690200     -0.5115807328
C       0.3366125742      2.6823082733      1.2791856270
C      -0.0906389044     -1.2346372673      0.2128801970
H      -4.0990877424     -0.8174964476     -1.5755926359
H       3.0399004040      3.1120447340      3.7044149390
H      -0.4471284236      2.1701099244     -1.7213961628
H       1.1095204549      0.9403388410     -1.4877334722
H       2.0085750750     -2.5260416600      5.1764332015
H      -4.5272483633      1.5920818511      2.7408824853
12
Frame=280  time=140.500fs  energy=-306.19358012Ha  molecule=COOCCCHHHHHH
C      -0.1317013986     -0.2793687124     -0.9477616111
O       0.7325170379      0.2661007863     -0.4991921436
O       1.7932190279      0.1896639996      0.0085759170
C      -0.7514782017      1.6920825407     -0.5130201613
C       0.3386631848      2.6827562944      1.2835491343
C      -0.0880775523     -1.2344007425      0.2133574723
H      -4.1100757425     -0.8252334417     -1.5811991826
H       3.0484795790      3.1137094049      3.7173585080
H      -0.4457198602      2.1649745448     -1.7278522745
H       1.1137805034      0.9527445730     -1.4919137962
H       2.0197079774     -2.5298809774      5.1928981955
H      -4.5380307932      1.6030880953      2.7531098965
12
Frame=281  time=141.000fs  energy=-306.19358012Ha  molecule=COOCCCHHHHHH
C      -0.1322203747     -0.2807413744     -0.9509013167
O       0.7305866467      0.2676663789     -0.5008798208
O       1.7921802466      0.1871774618      0.0084684402
C      -0.7519179023      1.6932957581     -0.5144592301
C       0.3407132830      2.6832042034      1.2879115512
C      -0.0855168403     -1.2341642769      0.2138346284
H      -4.1210609967     -0.8329685023     -1.5868043282
H       3.0570566100      3.1153736598      3.7302988424
H      -0.4443116489      2.1598404485     -1.7343067727
H       1.1180394874      0.9651472048     -1.4960930754
H       2.0308380976     -2.5337193353      5.2093590748
H      -4.5488105286      1.6140915890      2.7653342520
12
Frame=282  time=141.500fs  energy=-306.19358012Ha  molecule=COOCCCHHHHHH
C      -0.1327392213     -0.2821136940     -0.9540402392
O       0.7286567370      0.2692315811     -0.5025670771
O       1.7911417243      0.1846915442      0.0083609903
C      -0.7523574932      1.6945086729     -0.5158979400
C       0.3427628699      2.6836520008      1.2922728801
C      -0.0829567669     -1.2339278702      0.2143116654
H      -4.1320435110     -0.8407016338     -1.5924080759
H       3.0656315019      3.1170374996      3.7432359494
H      -0.4429037888      2.1547076327     -1.7407596612
H       1.1222974091      0.9775467432     -1.5002713124
H       2.0419654419     -2.5375567360      5.2258158487
H      -4.5595875754      1.6250923383      2.7775555587
12
Frame=283  time=142.000fs  energy=-306.19358012Ha  molecule=COOCCCHHHHHH
C      -0.1332579388     -0.2834856721     -0.9571783805
O       0.7267273077      0.2707963936     -0.5042539134
O       1.7901034605      0.1822062453      0.0082535672
C      -0.7527969747      1.6957212858     -0.5173362917
C       0.3448119466      2.6840996866      1.2966331234
C      -0.0803973308     -1.2336915224      0.2147885838
H      -4.1430232918     -0.8484328404     -1.5980104287
H       3.0742042594      3.1187009252      3.7561698362
H      -0.4414962791      2.1495760944     -1.7472109435
H       1.1265542710      0.9899431954     -1.5044485094
H       2.0530900165     -2.5413931814      5.2422685263
H      -4.5703619398      1.6360903495      2.7897738234
12
Frame=284  time=142.500fs  energy=-306.19358012Ha  molecule=COOCCCHHHHHH
C      -0.1337765275     -0.2848573093     -0.9603157422
O       0.7247983577      0.2723608175     -0.5059403306
O       1.7890654546      0.1797215638      0.0081461707
C      -0.7532363470      1.6969335975     -0.5187742862
C       0.3468605143      2.6845472613      1.3009922836
C      -0.0778385304     -1.2334552333      0.2152653836
H      -4.1540003451     -0.8561621265     -1.6036113899
H       3.0827748874      3.1203639377      3.7691005102
H      -0.4400891191      2.1444458309     -1.7536606232
H       1.1308100755      1.0023365681     -1.5086246687
H       2.0642118277     -2.5452286739      5.2587171171
H      -4.5811336277      1.6470856287      2.8019890530
12
Frame=285  time=143.000fs  energy=-306.19358012Ha  molecule=COOCCCHHHHHH
C      -0.1342949876     -0.2862286065     -0.9634523262
O       0.7228698858      0.2739248535     -0.5076263298
O       1.7880277061      0.1772374982      0.0080388008
C      -0.7536756104      1.6981456087     -0.5202119242
C       0.3489085741      2.6849947250      1.3053503631
C      -0.0752803644     -1.2332190028      0.2157420653
H      -4.1649746770     -0.8638894965     -1.6092109625
H       3.0913433907      3.1220265378      3.7820279786
H      -0.4386823079      2.1393168392     -1.7601087041
H       1.1350648249      1.0147268685     -1.5127997927
H       2.0753308817     -2.5490632155      5.2751616300
H      -4.5919026452      1.6580781821      2.8142012544
12
Frame=286  time=143.500fs  energy=-306.19358012Ha  molecule=COOCCCHHHHHH
C      -0.1348133194     -0.2875995644     -0.9665881341
O       0.7209418911      0.2754885026     -0.5093119119
O       1.7869902143      0.1747540473      0.0079314576
C      -0.7541147652      1.6993573200     -0.5216492065
C       0.3509561273      2.6854420780      1.3097073643
C      -0.0727228314     -1.2329828307      0.2162186290
H      -4.1759462938     -0.8716149546     -1.6148091498
H       3.0999097740      3.1236887266      3.7949522485
H      -0.4372758448      2.1341891166     -1.7665551896
H       1.1393185216      1.0271141033     -1.5169738837
H       2.0864471847     -2.5528968084      5.2916020744
H      -4.6026689984      1.6690680157      2.8264104343
12
Frame=287  time=144.000fs  energy=-306.19358012Ha  molecule=COOCCCHHHHHH
C      -0.1353315233     -0.2889701839     -0.9697231677
O       0.7190143724      0.2770517655     -0.5109970778
O       1.7859529787      0.1722712095      0.0078241408
C      -0.7545538115      1.7005687321     -0.5230861339
C       0.3530031748      2.6858893206      1.3140632898
C      -0.0701659298     -1.2327467170      0.2166950750
H      -4.1869152015     -0.8793385052     -1.6204059547
H       3.1084740421      3.1253505050      3.8078733272
H      -0.4358697289      2.1290626600     -1.7730000833
H       1.1435711680      1.0394982795     -1.5211469441
H       2.0975607430     -2.5567294548      5.3080384593
H      -4.6134326931      1.6800551358      2.8386165995
12
Frame=288  time=144.500fs  energy=-306.19358012Ha  molecule=COOCCCHHHHHH
C      -0.1358495994     -0.2903404655     -0.9728574288
O       0.7170873287      0.2786146433     -0.5126818284
O       1.7849159987      0.1697889836      0.0077168504
C      -0.7549927496      1.7017798456     -0.5245227072
C       0.3550497180      2.6863364529      1.3184181418
C      -0.0676096583     -1.2325106614      0.2171714036
H      -4.1978814062     -0.8870601526     -1.6260013805
H       3.1170361998      3.1270118739      3.8207912219
H      -0.4344639596      2.1239374667     -1.7794433889
H       1.1478227665      1.0518794040     -1.5253189761
H       2.1086715626     -2.5605611567      5.3244707941
H      -4.6241937355      1.6910395485      2.8508197569
12
Frame=289  time=145.000fs  energy=-306.19358012Ha  molecule=COOCCCHHHHHH
C      -0.1363675481     -0.2917104102     -0.9759909192
O       0.7151607590      0.2801771367     -0.5143661647
O       1.7838792737      0.1673073681      0.0076095865
C      -0.7554315797      1.7029906614     -0.5259589272
C       0.3570957578      2.6867834753      1.3227719229
C      -0.0650540154     -1.2322746639      0.2176476151
H      -4.2088449141     -0.8947799009     -1.6315954303
H       3.1255962519      3.1286728343      3.8337059398
H      -0.4330585359      2.1188135338     -1.7858851099
H       1.1520733194      1.0642574836     -1.5294899822
H       2.1197796497     -2.5643919162      5.3408990876
H      -4.6349521314      1.7020212598      2.8630199133
12
Frame=290  time=145.500fs  energy=-306.19358012Ha  molecule=COOCCCHHHHHH
C      -0.1368853698     -0.2930800187     -0.9791236404
O       0.7132346620      0.2817392466     -0.5160500875
O       1.7828428032      0.1648263617      0.0075023489
C      -0.7558703022      1.7042011799     -0.5273947947
C       0.3591412955      2.6872303879      1.3271246354
C      -0.0624989998     -1.2320387243      0.2181237098
H      -4.2198057312     -0.9024977547     -1.6371881071
H       3.1341542030      3.1303333869      3.8466174880
H      -0.4316534572      2.1136908584     -1.7923252499
H       1.1563228291      1.0766325253     -1.5336599645
H       2.1308850106     -2.5682217356      5.3573233492
H      -4.6457078869      1.7130002758      2.8752170753
12
Frame=291  time=146.000fs  energy=-306.19358012Ha  molecule=COOCCCHHHHHH
C      -0.1374030645     -0.2944492916     -0.9822555943
O       0.7113090369      0.2833009739     -0.5177335980
O       1.7818065865      0.1623459630      0.0073951375
C      -0.7563089172      1.7054114020     -0.5288303105
C       0.3611863321      2.6876771911      1.3314762818
C      -0.0599446100     -1.2318028425      0.2185996878
H      -4.2307638636     -0.9102137180     -1.6427794140
H       3.1427100580      3.1319935329      3.8595258736
H      -0.4302487227      2.1085694379     -1.7987638125
H       1.1605712979      1.0890045359     -1.5378289255
H       2.1419876514     -2.5720506169      5.3737435878
H      -4.6564610079      1.7239766027      2.8874112498
12
Frame=292  time=146.500fs  energy=-306.19358012Ha  molecule=COOCCCHHHHHH
C      -0.1379206328     -0.2958182299     -0.9853867827
O       0.7093838824      0.2848623194     -0.5194166969
O       1.7807706231      0.1598661705      0.0072879523
C      -0.7567474249      1.7066213282     -0.5302654754
C       0.3632308689      2.6881238851      1.3358268645
C      -0.0573908446     -1.2315670183      0.2190755494
H      -4.2417193173     -0.9179277952     -1.6483693541
H       3.1512638216      3.1336532730      3.8724311039
H      -0.4288443315      2.1034492692     -1.8052008012
H       1.1648187282      1.1013735222     -1.5419968674
H       2.1530875782     -2.5758785623      5.3901598126
H      -4.6672115004      1.7349502464      2.8996024435
12
Frame=293  time=147.000fs  energy=-306.19358012Ha  molecule=COOCCCHHHHHH
C      -0.1384380747     -0.2971868342     -0.9885172071
O       0.7074591976      0.2864232840     -0.5210993852
O       1.7797349125      0.1573869831      0.0071807933
C      -0.7571858257      1.7078309593     -0.5317002902
C       0.3652749068      2.6885704701      1.3401763858
C      -0.0548377023     -1.2313312517      0.2195512950
H      -4.2526720984     -0.9256399905     -1.6539579306
H       3.1598154984      3.1353126082      3.8853331859
H      -0.4274402829      2.0983303496     -1.8116362196
H       1.1690651223      1.1137394910     -1.5461637925
H       2.1641847972     -2.5797055738      5.4065720326
H      -4.6779593702      1.7459212131      2.9117906631
12
Frame=294  time=147.500fs  energy=-306.19358012Ha  molecule=COOCCCHHHHHH
C      -0.1389553907     -0.2985551054     -0.9916468695
O       0.7055349814      0.2879838686     -0.5227816638
O       1.7786994540      0.1549083992      0.0070736604
C      -0.7576241198      1.7090402959     -0.5331347557
C       0.3673184471      2.6890169464      1.3445248482
C      -0.0522851815     -1.2310955425      0.2200269247
H      -4.2636222129     -0.9333503082     -1.6595451465
H       3.1683650932      3.1369715395      3.8982321267
H      -0.4260365762      2.0932126762     -1.8180700712
H       1.1733104826      1.1261024492     -1.5503297031
H       2.1752793143     -2.5835316536      5.4229802568
H      -4.6887046233      1.7568895088      2.9239759153
12
Frame=295  time=148.000fs  energy=-306.19358012Ha  molecule=COOCCCHHHHHH
C      -0.1394725810     -0.2999230440     -0.9947757714
O       0.7036112327      0.2895440741     -0.5244635337
O       1.7776642471      0.1524304176      0.0069665535
C      -0.7580623074      1.7102493386     -0.5345688727
C       0.3693614909      2.6894633142      1.3488722540
C      -0.0497332809     -1.2308598905      0.2205024389
H      -4.2745696668     -0.9410587525     -1.6651310048
H       3.1769126107      3.1386300676      3.9111279335
H      -0.4246332105      2.0880962463     -1.8245023596
H       1.1775548114      1.1384624036     -1.5544946015
H       2.1863711359     -2.5873568038      5.4393844944
H      -4.6994472657      1.7678551395      2.9361582069
12
Frame=296  time=148.500fs  energy=-306.19358012Ha  molecule=COOCCCHHHHHH
C      -0.1399896459     -0.3012906510     -0.9979039146
O       0.7016879505      0.2911039012     -0.5261449958
O       1.7766292912      0.1499530368      0.0068594726
C      -0.7585003887      1.7114580881     -0.5360026419
C       0.3714040393      2.6899095738      1.3532186056
C      -0.0471819990     -1.2306242957      0.2209778378
H      -4.2855144662     -0.9487653277     -1.6707155086
H       3.1854580556      3.1402881936      3.9240206132
H      -0.4232301852      2.0829810571     -1.8309330882
H       1.1817981110      1.1508193609     -1.5586584900
H       2.1974602678     -2.5911810264      5.4557847541
H      -4.7101873031      1.7788181113      2.9483375445
12
Frame=297  time=149.000fs  energy=-306.19358012Ha  molecule=COOCCCHHHHHH
C      -0.1405065857     -0.3026579270     -1.0010313008
O       0.6997651337      0.2926633508     -0.5278260510
O       1.7755945858      0.1474762555      0.0067524176
C      -0.7589383640      1.7126665452     -0.5374360641
C       0.3734460935      2.6903557253      1.3575639055
C      -0.0446313346     -1.2303887579      0.2214531216
H      -4.2964566170     -0.9564700379     -1.6762986611
H       3.1940014326      3.1419459184      3.9369101730
H      -0.4218274993      2.0778671057     -1.8373622607
H       1.1860403838      1.1631733279     -1.5628213708
H       2.2085467163     -2.5950043236      5.4721810452
H      -4.7209247416      1.7897784301      2.9605139347
12
Frame=298  time=149.500fs  energy=-306.19358012Ha  molecule=COOCCCHHHHHH
C      -0.1410234006     -0.3040248728     -1.0041579318
O       0.6978427813      0.2942224238     -0.5295067002
O       1.7745601302      0.1450000724      0.0066453885
C      -0.7593762335      1.7138747104     -0.5388691402
C       0.3754876544      2.6908017692      1.3619081559
C      -0.0420812862     -1.2301532770      0.2219282906
H      -4.3073961252     -0.9641728874     -1.6818804652
H       3.2025427463      3.1436032428      3.9497966199
H      -0.4204251522      2.0727543893     -1.8437898804
H       1.1902816321      1.1755243113     -1.5669832464
H       2.2196304873     -2.5988266975      5.4885733764
H      -4.7316595868      1.8007361019      2.9726873843
12
Frame=299  time=150.000fs  energy=-306.19358012Ha  molecule=COOCCCHHHHHH
C      -0.1415400910     -0.3053914891     -1.0072838091
O       0.6959208922      0.2957811211     -0.5311869443
O       1.7735259240      0.1425244861      0.0065383851
C      -0.7598139975      1.7150825844     -0.5403018708
C       0.3775287233      2.6912477055      1.3662513593
C      -0.0395318524     -1.2299178528      0.2224033451
H      -4.3183329968     -0.9718738803     -1.6874609240
H       3.2110820014      3.1452601678      3.9626799610
H      -0.4190231431      2.0676429052     -1.8502159511
H       1.1945218581      1.1878723179     -1.5711441188
H       2.2307115870     -2.6026481501      5.5049617568
H      -4.7423918448      1.8116911327      2.9848578999
12
Frame=300  time=150.500fs  energy=-306.19358012Ha  molecule=COOCCCHHHHHH
C      -0.1420566570     -0.3067577768     -1.0104089346
O       0.6939994653      0.2973394434     -0.5328667843
O       1.7724919665      0.1400494953      0.0064314075
C      -0.7602516562      1.7162901679     -0.5417342569
C       0.3795693013      2.6916935345      1.3705935181
C      -0.0369830318     -1.2296824853      0.2228782854
H      -4.3292672378     -0.9795730210     -1.6930400405
H       3.2196192025      3.1469166942      3.9755602032
H      -0.4176214712      2.0625326506     -1.8566404760
H       1.1987610642      1.2002173545     -1.5753039904
H       2.2417900213     -2.6064686835      5.5213461953
H      -4.7531215214      1.8226435285      2.9970254881
12
Frame=301  time=151.000fs  energy=-306.19358012Ha  molecule=COOCCCHHHHHH
C      -0.1425730991     -0.3081237364     -1.0135333100
O       0.6920784997      0.2988973917     -0.5345462210
O       1.7714582572      0.1375750985      0.0063244556
C      -0.7606892099      1.7174974615     -0.5431662991
C       0.3816093894      2.6921392566      1.3749346345
C      -0.0344348230     -1.2294471743      0.2233531116
H      -4.3401988540     -0.9872703135     -1.6986178177
H       3.2281543543      3.1485728230      3.9884373536
H      -0.4162201358      2.0574236226     -1.8630634588
H       1.2029992527      1.2125594277     -1.5794628634
H       2.2528657963     -2.6102882998      5.5377267008
H      -4.7638486224      1.8335932952      3.0091901556
12
Frame=302  time=151.500fs  energy=-306.19358012Ha  molecule=COOCCCHHHHHH
C      -0.1430894175     -0.3094893689     -1.0166569368
O       0.6901579943      0.3004549667     -0.5362252554
O       1.7704247956      0.1351012946      0.0062175293
C      -0.7611266587      1.7187044659     -0.5445979983
C       0.3836489888      2.6925848718      1.3792747110
C      -0.0318872247     -1.2292119196      0.2238278241
H      -4.3511278515     -0.9949657620     -1.7041942588
H       3.2366874615      3.1502285550      4.0013114191
H      -0.4148191361      2.0523158186     -1.8694849028
H       1.2072364259      1.2248985442     -1.5836207402
H       2.2639389179     -2.6141070011      5.5541032822
H      -4.7745731536      1.8445404388      3.0213519088
12
Frame=303  time=152.000fs  energy=-306.19358012Ha  molecule=COOCCCHHHHHH
C      -0.1436056124     -0.3108546748     -1.0197798169
O       0.6882379481      0.3020121694     -0.5379038884
O       1.7693915810      0.1326280820      0.0061106285
C      -0.7615640030      1.7199111817     -0.5460293551
C       0.3856881006      2.6930303806      1.3836137498
C      -0.0293402354     -1.2289767212      0.2243024232
H      -4.3620542361     -1.0026593708     -1.7097693666
H       3.2452185285      3.1518838912      4.0141824068
H      -0.4134184713      2.0472092357     -1.8759048117
H       1.2114725862      1.2372347108     -1.5877776229
H       2.2750093923     -2.6179247895      5.5704759483
H      -4.7852951208      1.8554849652      3.0335107545
12
Frame=304  time=152.500fs  energy=-306.19358012Ha  molecule=COOCCCHHHHHH
C      -0.1441216842     -0.3122196550     -1.0229019519
O       0.6863183599      0.3035690006     -0.5395821209
O       1.7683586130      0.1301554595      0.0060037533
C      -0.7620012429      1.7211176096     -0.5474603705
C       0.3877267259      2.6934757830      1.3879517534
C      -0.0267938539     -1.2287415789      0.2247769089
H      -4.3729780138     -1.0103511439     -1.7153431443
H       3.2537475602      3.1535388324      4.0270503235
H      -0.4120181407      2.0421038712     -1.8823231889
H       1.2157077357      1.2495679340     -1.5919335138
H       2.2860772254     -2.6217416669      5.5868447081
H      -4.7960145298      1.8664268803      3.0456666992
12
Frame=305  time=153.000fs  energy=-306.19358012Ha  molecule=COOCCCHHHHHH
C      -0.1446376330     -0.3135843102     -1.0260233435
O       0.6843992288      0.3051254610     -0.5412599538
O       1.7673258909      0.1276834258      0.0058969035
C      -0.7624383786      1.7223237503     -0.5488910451
C       0.3897648657      2.6939210794      1.3922887241
C      -0.0242480786     -1.2285064926      0.2252512817
H      -4.3838991904     -1.0180410855     -1.7209155949
H       3.2622745610      3.1551933796      4.0399151763
H      -0.4106181436      2.0369997224     -1.8887400377
H       1.2199418767      1.2618982206     -1.5960884151
H       2.2971424231     -2.6255576355      5.6032095703
H      -4.8067313865      1.8773661901      3.0578197495
12
Frame=306  time=153.500fs  energy=-306.19358012Ha  molecule=COOCCCHHHHHH
C      -0.1451534593     -0.3149486411     -1.0291439933
O       0.6824805538      0.3066815516     -0.5429373880
O       1.7662934142      0.1252119795      0.0057900791
C      -0.7628754106      1.7235296043     -0.5503213798
C       0.3918025213      2.6943662699      1.3966246642
C      -0.0217029083     -1.2282714621      0.2257255418
H      -4.3948177719     -1.0257291998     -1.7264867212
H       3.2707995356      3.1568475336      4.0527769721
H      -0.4092184791      2.0318967864     -1.8951553618
H       1.2241750117      1.2742255773     -1.6002423292
H       2.3082049914     -2.6293726973      5.6195705438
H      -4.8174456965      1.8883029004      3.0699699119
12
Frame=307  time=154.000fs  energy=-306.19358012Ha  molecule=COOCCCHHHHHH
C      -0.1456691633     -0.3163126485     -1.0322639031
O       0.6805623337      0.3082372732     -0.5446144243
O       1.7652611824      0.1227411193      0.0056832800
C      -0.7633123388      1.7247351724     -0.5517513752
C       0.3938396936      2.6948113549      1.4009595761
C      -0.0191583416     -1.2280364874      0.2261996894
H      -4.4057337641     -1.0334154909     -1.7320565264
H       3.2793224885      3.1585012954      4.0656357177
H      -0.4078191465      2.0267950606     -1.9015691645
H       1.2284071427      1.2865500105     -1.6043952581
H       2.3192649362     -2.6331868545      5.6359276374
H      -4.8281574657      1.8992370171      3.0821171929
12
Frame=308  time=154.500fs  energy=-306.19358012Ha  molecule=COOCCCHHHHHH
C      -0.1461847452     -0.3176763330     -1.0353830745
O       0.6786445676      0.3097926265     -0.5462910638
O       1.7642291948      0.1202708439      0.0055765062
C      -0.7637491637      1.7259404551     -0.5531810322
C       0.3958763838      2.6952563346      1.4052934620
C      -0.0166143771     -1.2278015683      0.2266737248
H      -4.4166471728     -1.0410999629     -1.7376250134
H       3.2878434243      3.1601546657      4.0784914202
H      -0.4064201452      2.0216945421     -1.9079814492
H       1.2326382722      1.2988715270     -1.6085472043
H       2.3303222636     -2.6370001089      5.6522808598
H      -4.8388666998      1.9101685461      3.0942615991
12
Frame=309  time=155.000fs  energy=-306.19358012Ha  molecule=COOCCCHHHHHH
C      -0.1467002053     -0.3190396955     -1.0385015093
O       0.6767272545      0.3113476126     -0.5479673073
O       1.7631974510      0.1178011519      0.0054697576
C      -0.7641858854      1.7271454532     -0.5546103516
C       0.3979125930      2.6957012091      1.4096263244
C      -0.0140710134     -1.2275667047      0.2271476482
H      -4.4275580040     -1.0487826200     -1.7431921853
H       3.2963623476      3.1618076456      4.0913440863
H      -0.4050214742      2.0165952283     -1.9143922195
H       1.2368684024      1.3111901333     -1.6126981697
H       2.3413769794     -2.6408124627      5.6686302199
H      -4.8495734045      1.9210974933      3.1064031370
12
Frame=310  time=155.500fs  energy=-306.19358012Ha  molecule=COOCCCHHHHHH
C      -0.1472155439     -0.3204027366     -1.0416192090
O       0.6748103933      0.3129022321     -0.5496431557
O       1.7621659504      0.1153320420      0.0053630342
C      -0.7646225042      1.7283501673     -0.5560393341
C       0.3999483222      2.6961459788      1.4139581654
C      -0.0115282492     -1.2273318964      0.2276214599
H      -4.4384662634     -1.0564634663     -1.7487580449
H       3.3048792630      3.1634602358      4.1041937230
H      -0.4036231329      2.0114971165     -1.9208014787
H       1.2410975354      1.3235058360     -1.6168481568
H       2.3524290896     -2.6446239179      5.6849757263
H      -4.8602775857      1.9320238644      3.1185418131
12
Frame=311  time=156.000fs  energy=-306.19358012Ha  molecule=COOCCCHHHHHH
C      -0.1477307613     -0.3217654571     -1.0447361753
O       0.6728939830      0.3144564859     -0.5513186099
O       1.7611346924      0.1128635130      0.0052563359
C      -0.7650590202      1.7295545980     -0.5574679804
C       0.4019835725      2.6965906439      1.4182889875
C      -0.0089860831     -1.2270971434      0.2280951602
H      -4.4493719570     -1.0641425058     -1.7543225953
H       3.3133941749      3.1651124373      4.1170403371
H      -0.4022251206      2.0064002038     -1.9272092303
H       1.2453256737      1.3358186418     -1.6209971677
H       2.3634786000     -2.6484344766      5.7013173878
H      -4.8709792489      1.9429476653      3.1306776338
12
Frame=312  time=156.500fs  energy=-306.19358012Ha  molecule=COOCCCHHHHHH
C      -0.1482458578     -0.3231278577     -1.0478524099
O       0.6709780225      0.3160103749     -0.5529936708
O       1.7601036765      0.1103955634      0.0051496626
C      -0.7654954338      1.7307587459     -0.5588962914
C       0.4040183451      2.6970352046      1.4226187930
C      -0.0064445138     -1.2268624455      0.2285687492
H      -4.4602750904     -1.0718197426     -1.7598858394
H       3.3219070880      3.1667642510      4.1298839355
H      -0.4008274364      2.0013044877     -1.9336154777
H       1.2495528195      1.3481285572     -1.6251452046
H       2.3745255166     -2.6522441407      5.7176552132
H      -4.8816783999      1.9538689019      3.1428106056
12
Frame=313  time=157.000fs  energy=-306.19358012Ha  molecule=COOCCCHHHHHH
C      -0.1487608336     -0.3244899391     -1.0509679145
O       0.6690625110      0.3175638998     -0.5546683393
O       1.7590729022      0.1079281920      0.0050430144
C      -0.7659317451      1.7319626118     -0.5603242677
C       0.4060526410      2.6974796611      1.4269475841
C      -0.0039035400     -1.2266278025      0.2290422274
H      -4.4711756695     -1.0794951809     -1.7654477802
H       3.3304180068      3.1684156777      4.1427245249
H      -0.3994300796      1.9962099653     -1.9400202243
H       1.2537789749      1.3604355887     -1.6292922698
H       2.3855698451     -2.6560529124      5.7339892110
H      -4.8923750444      1.9647875800      3.1549407350
12
Frame=314  time=157.500fs  energy=-306.19358012Ha  molecule=COOCCCHHHHHH
C      -0.1492756890     -0.3258517021     -1.0540826907
O       0.6671474472      0.3191170615     -0.5563426162
O       1.7580423688      0.1054613974      0.0049363910
C      -0.7663679545      1.7331661962     -0.5617519102
C       0.4080864613      2.6979240137      1.4312753631
C      -0.0013631602     -1.2263932145      0.2295155948
H      -4.4820737001     -1.0871688247     -1.7710084206
H       3.3389269357      3.1700667183      4.1555621123
H      -0.3980330496      1.9911166341     -1.9464234735
H       1.2580041422      1.3727397428     -1.6334383653
H       2.3966115916     -2.6598607935      5.7503193900
H      -4.9030691880      1.9757037053      3.1670680285
12
Frame=315  time=158.000fs  energy=-306.19358012Ha  molecule=COOCCCHHHHHH
C      -0.1497904243     -0.3272131473     -1.0571967401
O       0.6652328303      0.3206698609     -0.5580165025
O       1.7570120759      0.1029951784      0.0048297926
C      -0.7668040620      1.7343694997     -0.5631792196
C       0.4101198071      2.6983682627      1.4356021324
C       0.0011766269     -1.2261586811      0.2299888518
H      -4.4929691880     -1.0948406781     -1.7765677637
H       3.3474338793      3.1717173736      4.1683967045
H      -0.3966363455      1.9860244912     -1.9528252287
H       1.2622283238      1.3850410262     -1.6375834936
H       2.4076507617     -2.6636677862      5.7666457589
H      -4.9137608365      1.9866172837      3.1791924924
12
Frame=316  time=158.500fs  energy=-306.19358012Ha  molecule=COOCCCHHHHHH
C      -0.1503050397     -0.3285742756     -1.0603100645
O       0.6633186592      0.3222222987     -0.5596899990
O       1.7559820229      0.1005295336      0.0047232189
C      -0.7672400680      1.7355725231     -0.5646061967
C       0.4121526794      2.6988124082      1.4399278942
C       0.0037158226     -1.2259242024      0.2304619985
H      -4.5038621389     -1.1025107451     -1.7821258122
H       3.3559388422      3.1733676447      4.1812283081
H      -0.3952399667      1.9809335340     -1.9592254932
H       1.2664515218      1.3973394452     -1.6417276566
H       2.4186873615     -2.6674738925      5.7829683262
H      -4.9244499955      1.9975283209      3.1913141331
12
Frame=317  time=159.000fs  energy=-306.19358012Ha  molecule=COOCCCHHHHHH
C      -0.1508195355     -0.3299350875     -1.0634226654
O       0.6614049329      0.3237743757     -0.5613631067
O       1.7549522092      0.0980644618      0.0046166700
C      -0.7676759727      1.7367752670     -0.5660328421
C       0.4141850793      2.6992564505      1.4442526508
C       0.0062544283     -1.2256897781      0.2309350354
H      -4.5147525586     -1.1101790298     -1.7876825692
H       3.3644418287      3.1750175322      4.1940569301
H      -0.3938439123      1.9758437597     -1.9656242705
H       1.2706737384      1.4096350065     -1.6458708566
H       2.4297213967     -2.6712791143      5.7992871006
H      -4.9351366707      2.0084368226      3.2034329572
12
Frame=318  time=159.500fs  energy=-306.19358012Ha  molecule=COOCCCHHHHHH
C      -0.1513339120     -0.3312955839     -1.0665345445
O       0.6594916504      0.3253260928     -0.5630358264
O       1.7539226343      0.0955999617      0.0045101459
C      -0.7681117763      1.7379777319     -0.5674591567
C       0.4162170079      2.6997003898      1.4485764045
C       0.0087924453     -1.2254554083      0.2314079625
H      -4.5256404528     -1.1178455363     -1.7932380377
H       3.3729428433      3.1766670371      4.2068825771
H      -0.3924481816      1.9707551658     -1.9720215640
H       1.2748949758      1.4219277164     -1.6500130959
H       2.4407528730     -2.6750834537      5.8156020907
H      -4.9458208676      2.0193427947      3.2155489709
12
Frame=319  time=160.000fs  energy=-306.19358012Ha  molecule=COOCCCHHHHHH
C      -0.1518481695     -0.3326557654     -1.0696457034
O       0.6575788106      0.3268774508     -0.5647081589
O       1.7528932978      0.0931360319      0.0044036464
C      -0.7685474791      1.7391799185     -0.5688851413
C       0.4182484662      2.7001442264      1.4528991576
C       0.0113298749     -1.2252210926      0.2318807802
H      -4.5365258273     -1.1255102685     -1.7987922204
H       3.3814418907      3.1783161603      4.2197052559
H      -0.3910527740      1.9656677496     -1.9784173769
H       1.2791152364      1.4342175814     -1.6541543765
H       2.4517817964     -2.6788869127      5.8319133051
H      -4.9565025919      2.0302462429      3.2276621806
12
Frame=320  time=160.500fs  energy=-306.19358012Ha  molecule=COOCCCHHHHHH
C      -0.1523623082     -0.3340156328     -1.0727561438
O       0.6556664127      0.3284284505     -0.5663801053
O       1.7518641989      0.0906726711      0.0042971714
C      -0.7689830812      1.7403818275     -0.5703107965
C       0.4202794554      2.7005879605      1.4572209123
C       0.0138667184     -1.2249868311      0.2323534887
H      -4.5474086877     -1.1331732305     -1.8043451204
H       3.3899389751      3.1799649026      4.2325249732
H      -0.3896576886      1.9605815082     -1.9848117127
H       1.2833345223      1.4465046081     -1.6582947007
H       2.4628081727     -2.6826894933      5.8482207524
H      -4.9671818492      2.0411471729      3.2397725928
12
Frame=321  time=161.000fs  energy=-306.19358012Ha  molecule=COOCCCHHHHHH
C      -0.1528763284     -0.3353751868     -1.0758658673
O       0.6537544555      0.3299790928     -0.5680516662
O       1.7508353372      0.0882098781      0.0041907211
C      -0.7694185829      1.7415834595     -0.5717361231
C       0.4223099765      2.7010315923      1.4615416710
C       0.0164029773     -1.2247526235      0.2328260882
H      -4.5582890399     -1.1408344264     -1.8098967405
H       3.3984341011      3.1816132650      4.2453417359
H      -0.3882629248      1.9554964392     -1.9912045747
H       1.2875528357      1.4587888028     -1.6624340706
H       2.4738320075     -2.6864911974      5.8645244410
H      -4.9778586451      2.0520455904      3.2518802137
12
Frame=322  time=161.500fs  energy=-306.19358012Ha  molecule=COOCCCHHHHHH
C      -0.1533902304     -0.3367344280     -1.0789748755
O       0.6518429381      0.3315293783     -0.5697228427
O       1.7498067122      0.0857476516      0.0040842952
C      -0.7698539845      1.7427848151     -0.5731611219
C       0.4243400305      2.7014751221      1.4658614358
C       0.0189386528     -1.2245184699      0.2332985790
H      -4.5691668894     -1.1484938600     -1.8154470837
H       3.4069272731      3.1832612481      4.2581555505
H      -0.3868684818      1.9504125398     -1.9975959663
H       1.2917701789      1.4710701720     -1.6665724884
H       2.4848533067     -2.6902920271      5.8808243796
H      -4.9885329853      2.0629415011      3.2639850497
12
Frame=323  time=162.000fs  energy=-306.19358012Ha  molecule=COOCCCHHHHHH
C      -0.1539040144     -0.3380933573     -1.0820831701
O       0.6499318595      0.3330793080     -0.5713936356
O       1.7487783233      0.0832859903      0.0039778937
C      -0.7702892861      1.7439858949     -0.5745857935
C       0.4263696186      2.7019185501      1.4701802090
C       0.0214737463     -1.2242843700      0.2337709614
H      -4.5800422419     -1.1561515355     -1.8209961528
H       3.4154184955      3.1849088530      4.2709664238
H      -0.3854743589      1.9453298074     -2.0039858908
H       1.2959865540      1.4833487221     -1.6707099562
H       2.4958720760     -2.6940919843      5.8971205767
H      -4.9992048751      2.0738349107      3.2760871071
12
Frame=324  time=162.500fs  energy=-306.19358012Ha  molecule=COOCCCHHHHHH
C      -0.1544176807     -0.3394519752     -1.0851907526
O       0.6480212186      0.3346288827     -0.5730640457
O       1.7477501700      0.0808248929      0.0038715166
C      -0.7707244880      1.7451866996     -0.5760101388
C       0.4283987417      2.7023618764      1.4744979929
C       0.0240082590     -1.2240503237      0.2342432356
H      -4.5909151032     -1.1638074568     -1.8265439508
H       3.4239077728      3.1865560805      4.2837743624
H      -0.3840805553      1.9402482393     -2.0103743515
H       1.3002019632      1.4956244594     -1.6748464763
H       2.5068883213     -2.6978910710      5.9134130407
H      -5.0098743204      2.0847258249      3.2881863922
12
Frame=325  time=163.000fs  energy=-306.19358012Ha  molecule=COOCCCHHHHHH
C      -0.1549312296     -0.3408102826     -1.0882976247
O       0.6461110146      0.3361781031     -0.5747340740
O       1.7467222517      0.0783643581      0.0037651638
C      -0.7711595904      1.7463872297     -0.5774341585
C       0.4304274010      2.7028051015      1.4788147897
C       0.0265421923     -1.2238163309      0.2347154018
H      -4.6017854789     -1.1714616279     -1.8320904805
H       3.4323951094      3.1882029314      4.2965793730
H      -0.3826870704      1.9351678329     -2.0167613517
H       1.3044164087      1.5078973905     -1.6789820507
H       2.5179020481     -2.7016892893      5.9297017801
H      -5.0205413265      2.0956142494      3.3002829113
12
Frame=326  time=163.500fs  energy=-306.19358012Ha  molecule=COOCCCHHHHHH
C      -0.1554446614     -0.3421682800     -1.0914037880
O       0.6442012463      0.3377269701     -0.5764037213
O       1.7456945680      0.0759043846      0.0036588353
C      -0.7715945936      1.7475874860     -0.5788578533
C       0.4324555974      2.7032482254      1.4831306017
C       0.0290755475     -1.2235823915      0.2351874603
H      -4.6126533746     -1.1791140528     -1.8376357448
H       3.4408805098      3.1898494066      4.3093814623
H      -0.3812939034      1.9300885856     -2.0231468948
H       1.3086298928      1.5201675216     -1.6831166816
H       2.5289132622     -2.7054866410      5.9459868034
H      -5.0312058991      2.1065001898      3.3123766708
12
Frame=327  time=164.000fs  energy=-306.19358012Ha  molecule=COOCCCHHHHHH
C      -0.1559579762     -0.3435259683     -1.0945092441
O       0.6422919128      0.3392754844     -0.5780729884
O       1.7446671182      0.0734449712      0.0035525310
C      -0.7720294977      1.7487874690     -0.5802812240
C       0.4344833321      2.7036912484      1.4874454312
C       0.0316083260     -1.2233485053      0.2356594113
H      -4.6235187960     -1.1867647354     -1.8431797467
H       3.4493639782      3.1914955069      4.3221806370
H      -0.3799010535      1.9250104946     -2.0295309841
H       1.3128424176      1.5324348591     -1.6872503712
H       2.5399219694     -2.7092831282      5.9622681191
H      -5.0418680436      2.1173836518      3.3244676768
12
Frame=328  time=164.500fs  energy=-306.19358012Ha  molecule=COOCCCHHHHHH
C      -0.1564711744     -0.3448833481     -1.0976139947
O       0.6403830132      0.3408236469     -0.5797418763
O       1.7436399018      0.0709861166      0.0034462509
C      -0.7724643030      1.7499871794     -0.5817042713
C       0.4365106060      2.7041341708      1.4917592802
C       0.0341405290     -1.2231146723      0.2361312550
H      -4.6343817487     -1.1944136798     -1.8487224889
H       3.4578455191      3.1931412332      4.3349769035
H      -0.3785085202      1.9199335575     -2.0359136229
H       1.3170539852      1.5446994094     -1.6913831216
H       2.5509281754     -2.7130787528      5.9785457355
H      -5.0525277656      2.1282646409      3.3365559356
12
Frame=329  time=165.000fs  energy=-306.19358012Ha  molecule=COOCCCHHHHHH
C      -0.1569842563     -0.3462404202     -1.1007180412
O       0.6384745464      0.3423714584     -0.5814103858
O       1.7426129184      0.0685278196      0.0033399948
C      -0.7728990097      1.7511866177     -0.5831269959
C       0.4385374203      2.7045769928      1.4960721511
C       0.0366721578     -1.2228808924      0.2366029918
H      -4.6452422383     -1.2020608898     -1.8542639743
H       3.4663251369      3.1947865864      4.3477702686
H      -0.3771163026      1.9148577714     -2.0422948145
H       1.3212645980      1.5569611788     -1.6955149349
H       2.5619318858     -2.7168735167      5.9948196611
H      -5.0631850706      2.1391431629      3.3486414536
12
Frame=330  time=165.500fs  energy=-306.19358012Ha  molecule=COOCCCHHHHHH
C      -0.1574972220     -0.3475971851     -1.1038213854
O       0.6365665114      0.3439189196     -0.5830785177
O       1.7415861673      0.0660700788      0.0032337628
C      -0.7733336180      1.7523857847     -0.5845493986
C       0.4405637759      2.7050197145      1.5003840461
C       0.0392032138     -1.2226471653      0.2370746219
H      -4.6561002705     -1.2097063694     -1.8598042058
H       3.4748028359      3.1964315672      4.3605607389
H      -0.3757244000      1.9097831340     -2.0486745622
H       1.3254742579      1.5692201736     -1.6996458132
H       2.5729331062     -2.7206674220      6.0110899043
H      -5.0738399641      2.1500192233      3.3607242368
12
Frame=331  time=166.000fs  energy=-306.19358012Ha  molecule=COOCCCHHHHHH
C      -0.1580100719     -0.3489536437     -1.1069240288
O       0.6346589073      0.3454660314     -0.5847462729
O       1.7405596481      0.0636128930      0.0031275548
C      -0.7737681282      1.7535846808     -0.5859714801
C       0.4425896740      2.7054623363      1.5046949674
C       0.0417336982     -1.2224134910      0.2375461454
H      -4.6669558507     -1.2173501226     -1.8653431862
H       3.4832786206      3.1980761766      4.3733483209
H      -0.3743328117      1.9047096424     -2.0550528692
H       1.3296829672      1.5814764002     -1.7037757588
H       2.5839318425     -2.7244604706      6.0273564735
H      -5.0844924515      2.1608928278      3.3728042916
12
Frame=332  time=166.500fs  energy=-306.19358012Ha  molecule=COOCCCHHHHHH
C      -0.1585228062     -0.3503097966     -1.1100259730
O       0.6327517330      0.3470127946     -0.5864136523
O       1.7395333603      0.0611562609      0.0030213707
C      -0.7742025405      1.7547833068     -0.5873932411
C       0.4446151156      2.7059048583      1.5090049173
C       0.0442636124     -1.2221798693      0.2380175627
H      -4.6778089846     -1.2249921532     -1.8708809184
H       3.4917524952      3.1997204154      4.3861330211
H      -0.3729415370      1.8996372942     -2.0614297389
H       1.3338907282      1.5937298649     -1.7079047737
H       2.5949281001     -2.7282526644      6.0436193769
H      -5.0951425384      2.1717639818      3.3848816241
12
Frame=333  time=167.000fs  energy=-306.19358012Ha  molecule=COOCCCHHHHHH
C      -0.1590354253     -0.3516656445     -1.1131272196
O       0.6308449877      0.3485592099     -0.5880806567
O       1.7385073032      0.0587001813      0.0029152105
C      -0.7746368551      1.7559816632     -0.5888146824
C       0.4466401016      2.7063472808      1.5133138979
C       0.0467929576     -1.2219463002      0.2384888740
H      -4.6886596777     -1.2326324652     -1.8764174053
H       3.5002244641      3.2013642844      4.3989148463
H      -0.3715505752      1.8945660867     -2.0678051744
H       1.3380975428      1.6059805738     -1.7120328600
H       2.6059218849     -2.7320440054      6.0598786230
H      -5.1057902302      2.1826326911      3.3969562406
12
Frame=334  time=167.500fs  energy=-306.19358012Ha  molecule=COOCCCHHHHHH
C      -0.1595479293     -0.3530211882     -1.1162277703
O       0.6289386703      0.3501052781     -0.5897472870
O       1.7374814764      0.0562446529      0.0028090741
C      -0.7750710722      1.7571797507     -0.5902358047
C       0.4486646332      2.7067896040      1.5176219114
C       0.0493217352     -1.2217127835      0.2389600795
H      -4.6995079356     -1.2402710625     -1.8819526496
H       3.5086945317      3.2030077845      4.4116938028
H      -0.3701599256      1.8894960173     -2.0741791792
H       1.3423034133      1.6182285333     -1.7161600198
H       2.6169132023     -2.7358344955      6.0761342200
H      -5.1164355324      2.1934989611      3.4090281472
12
Frame=335  time=168.000fs  energy=-306.19358012Ha  molecule=COOCCCHHHHHH
C      -0.1600603185     -0.3543764282     -1.1193276264
O       0.6270327799      0.3516510001     -0.5914135441
O       1.7364558794      0.0537896744      0.0027029615
C      -0.7755051920      1.7583775698     -0.5916566087
C       0.4506887113      2.7072318282      1.5219289601
C       0.0518499464     -1.2214793192      0.2394311794
H      -4.7103537639     -1.2479079490     -1.8874866541
H       3.5171627023      3.2046509165      4.4244698972
H      -0.3687695874      1.8844270834     -2.0805517563
H       1.3465083418      1.6304737497     -1.7202862553
H       2.6279020580     -2.7396241366      6.0923861763
H      -5.1270784504      2.2043627974      3.4210973500
12
Frame=336  time=168.500fs  energy=-306.19358012Ha  molecule=COOCCCHHHHHH
C      -0.1605725931     -0.3557313653     -1.1224267898
O       0.6251273154      0.3531963766     -0.5930794287
O       1.7354305116      0.0513352447      0.0025968726
C      -0.7759392149      1.7595751212     -0.5930770951
C       0.4527123371      2.7076739535      1.5262350461
C       0.0543775925     -1.2212459070      0.2399021741
H      -4.7211971681     -1.2555431286     -1.8930194218
H       3.5256289801      3.2062936812      4.4372431362
H      -0.3673795600      1.8793592825     -2.0869229092
H       1.3507123305      1.6427162292     -1.7244115686
H       2.6388884576     -2.7434129307      6.1086345002
H      -5.1377189896      2.2152242056      3.4331638553
12
Frame=337  time=169.000fs  energy=-306.19358012Ha  molecule=COOCCCHHHHHH
C      -0.1610847536     -0.3570860002     -1.1255252619
O       0.6232222759      0.3547414084     -0.5947449417
O       1.7344053725      0.0488813624      0.0024908074
C      -0.7763731409      1.7607724055     -0.5944972647
C       0.4547355114      2.7081159802      1.5305401716
C       0.0569046749     -1.2210125468      0.2403730637
H      -4.7320381536     -1.2631766052     -1.8985509554
H       3.5340933696      3.2079360795      4.4500135260
H      -0.3659898426      1.8742926119     -2.0932926410
H       1.3549153815      1.6549559781     -1.7285359617
H       2.6498724067     -2.7472008798      6.1248791999
H      -5.1483571554      2.2260831911      3.4452276692
12
Frame=338  time=169.500fs  energy=-306.19358012Ha  molecule=COOCCCHHHHHH
C      -0.1615968000     -0.3584403336     -1.1286230443
O       0.6213176605      0.3562860963     -0.5964100840
O       1.7333804615      0.0464280264      0.0023847658
C      -0.7768069703      1.7619694233     -0.5959171181
C       0.4567582355      2.7085579085      1.5348443389
C       0.0594311947     -1.2207792386      0.2408438485
H      -4.7428767261     -1.2708083827     -1.9040812578
H       3.5425558750      3.2095781122      4.4627810733
H      -0.3646004346      1.8692270692     -2.0996609549
H       1.3591174969      1.6671930025     -1.7326594367
H       2.6608539109     -2.7509879857      6.1411202837
H      -5.1589929533      2.2369397596      3.4572887978
12
Frame=339  time=170.000fs  energy=-306.19358012Ha  molecule=COOCCCHHHHHH
C      -0.1621087326     -0.3597943662     -1.1317201386
O       0.6194134682      0.3578304411     -0.5980748565
O       1.7323557783      0.0439752353      0.0022787477
C      -0.7772407034      1.7631661752     -0.5973366562
C       0.4587805102      2.7089997386      1.5391475501
C       0.0619571534     -1.2205459822      0.2413145287
H      -4.7537128909     -1.2784384649     -1.9096103317
H       3.5510165006      3.2112197802      4.4755457845
H      -0.3632113352      1.8641626516     -2.1060278542
H       1.3633186789      1.6794273086     -1.7367819958
H       2.6718329757     -2.7547742503      6.1573577599
H      -5.1696263886      2.2477939164      3.4693472473
12
Frame=340  time=170.500fs  energy=-306.19358012Ha  molecule=COOCCCHHHHHH
C      -0.1626205518     -0.3611480985     -1.1348165463
O       0.6175096979      0.3593744435     -0.5997392598
O       1.7313313222      0.0415229879      0.0021727532
C      -0.7776743403      1.7643626618     -0.5987558796
C       0.4608023367      2.7094414708      1.5434498073
C       0.0644825520     -1.2203127776      0.2417851046
H      -4.7645466537     -1.2860668556     -1.9151381799
H       3.5594752507      3.2128610843      4.4883076661
H      -0.3618225437      1.8590993567     -2.1123933422
H       1.3675189296      1.6916589027     -1.7409036410
H       2.6828096068     -2.7585596756      6.1735916365
H      -5.1802574668      2.2586456671      3.4814030237
12
Frame=341  time=171.000fs  energy=-306.19358012Ha  molecule=COOCCCHHHHHH
C      -0.1631322578     -0.3625015315     -1.1379122690
O       0.6156063489      0.3609181043     -0.6014032950
O       1.7303070927      0.0390712830      0.0020667820
C      -0.7781078813      1.7655588838     -0.6001747890
C       0.4628237158      2.7098831053      1.5477511129
C       0.0670073920     -1.2200796245      0.2422555763
H      -4.7753780198     -1.2936935589     -1.9206648053
H       3.5679321295      3.2145020253      4.5010667245
H      -0.3604340594      1.8540371819     -2.1187574219
H       1.3717182511      1.7038877909     -1.7450243745
H       2.6937838096     -2.7623442636      6.1898219220
H      -5.1908861931      2.2694950173      3.4934561331
12
Frame=342  time=171.500fs  energy=-306.19358012Ha  molecule=COOCCCHHHHHH
C      -0.1636438508     -0.3638546656     -1.1410073084
O       0.6137034200      0.3624614244     -0.6030669629
O       1.7292830893      0.0366201194      0.0019608343
C      -0.7785413266      1.7667548416     -0.6015933852
C       0.4648446488      2.7103246422      1.5520514688
C       0.0695316747     -1.2198465229      0.2427259443
H      -4.7862069947     -1.3013185784     -1.9261902106
H       3.5763871414      3.2161426040      4.5138229661
H      -0.3590458817      1.8489761247     -2.1251200968
H       1.3759166456      1.7161139795     -1.7491441982
H       2.7047555897     -2.7661280160      6.2060486243
H      -5.2015125731      2.2803419723      3.5055065816
12
Frame=343  time=172.000fs  energy=-306.19358012Ha  molecule=COOCCCHHHHHH
C      -0.1641553311     -0.3652075016     -1.1441016658
O       0.6118009103      0.3640044045     -0.6047302642
O       1.7282593116      0.0341694957      0.0018549099
C      -0.7789746764      1.7679505360     -0.6030116689
C       0.4668651364      2.7107660819      1.5563508773
C       0.0720554012     -1.2196134726      0.2431962085
H      -4.7970335839     -1.3089419181     -1.9317143985
H       3.5848402905      3.2177828213      4.5265763975
H      -0.3576580098      1.8439161825     -2.1314813698
H       1.3801141151      1.7283374745     -1.7532631143
H       2.7157249526     -2.7699109348      6.2222717518
H      -5.2121366119      2.2911865376      3.5175543752
12
Frame=344  time=172.500fs  energy=-306.19358012Ha  molecule=COOCCCHHHHHH
C      -0.1646666989     -0.3665600402     -1.1471953430
O       0.6098988190      0.3655470453     -0.6063931998
O       1.7272357589      0.0317194109      0.0017490089
C      -0.7794079309      1.7691459675     -0.6044296407
C       0.4688851799      2.7112074246      1.5606493406
C       0.0745785728     -1.2193804736      0.2436663694
H      -4.8078577928     -1.3165635818     -1.9372373720
H       3.5932915812      3.2194226780      4.5393270249
H      -0.3562704431      1.8388573527     -2.1378412443
H       1.3843106618      1.7405582821     -1.7573811248
H       2.7266919039     -2.7736930219      6.2384913126
H      -5.2227583150      2.3020287186      3.5295995202
12
Frame=345  time=173.000fs  energy=-306.19358012Ha  molecule=COOCCCHHHHHH
C      -0.1651779546     -0.3679122820     -1.1502883413
O       0.6079971449      0.3670893477     -0.6080557706
O       1.7262124308      0.0292698636      0.0016431310
C      -0.7798410903      1.7703411367     -0.6058473015
C       0.4709047802      2.7116486704      1.5649468608
C       0.0771011908     -1.2191475257      0.2441364272
H      -4.8186796269     -1.3241835732     -1.9427591337
H       3.6017410176      3.2210621749      4.5520748549
H      -0.3548831807      1.8337996328     -2.1441997234
H       1.3885062878      1.7527764084     -1.7614982318
H       2.7376564489     -2.7774742792      6.2547073147
H      -5.2333776876      2.3128685209      3.5416420223
12
Frame=346  time=173.500fs  energy=-306.19358012Ha  molecule=COOCCCHHHHHH
C      -0.1656890983     -0.3692642278     -1.1533806625
O       0.6060958872      0.3686313124     -0.6097179773
O       1.7251893267      0.0268208526      0.0015372763
C      -0.7802741550      1.7715360442     -0.6072646518
C       0.4729239383      2.7120898196      1.5692434401
C       0.0796232566     -1.2189146289      0.2446063820
H      -4.8294990915     -1.3318018962     -1.9482796864
H       3.6101886041      3.2227013128      4.5648198936
H      -0.3534962222      1.8287430203     -2.1505568104
H       1.3927009951      1.7649918596     -1.7656144374
H       2.7486185933     -2.7812547087      6.2709197663
H      -5.2439947352      2.3237059498      3.5536818878
12
Frame=347  time=174.000fs  energy=-306.19358012Ha  molecule=COOCCCHHHHHH
C      -0.1662001303     -0.3706158782     -1.1564723080
O       0.6041950450      0.3701729401     -0.6113798209
O       1.7241664462      0.0243723768      0.0014314448
C      -0.7807071250      1.7727306906     -0.6086816925
C       0.4749426552      2.7125308724      1.5735390805
C       0.0821447712     -1.2186817829      0.2450762341
H      -4.8403161922     -1.3394185547     -1.9537990329
H       3.6186343448      3.2243400926      4.5775621477
H      -0.3521095666      1.8236875127     -2.1569125083
H       1.3968947859      1.7772046417     -1.7697297436
H       2.7595783425     -2.7850343121      6.2871286756
H      -5.2546094629      2.3345410107      3.5657191226
12
Frame=348  time=174.500fs  energy=-306.19358012Ha  molecule=COOCCCHHHHHH
C      -0.1667110509     -0.3719672338     -1.1595632794
O       0.6022946172      0.3717142318     -0.6130413021
O       1.7231437887      0.0219244348      0.0013256363
C      -0.7811400005      1.7739250766     -0.6100984242
C       0.4769609319      2.7129718291      1.5778337843
C       0.0846657361     -1.2184489876      0.2455459838
H      -4.8511309341     -1.3470335524     -1.9593171760
H       3.6270782439      3.2259785150      4.5903016233
H      -0.3507232134      1.8186331074     -2.1632668204
H       1.4010876623      1.7894147609     -1.7738441525
H       2.7705357020     -2.7888130913      6.3033340506
H      -5.2652218761      2.3453737091      3.5777537327
12
Frame=349  time=175.000fs  energy=-306.19358012Ha  molecule=COOCCCHHHHHH
C      -0.1672218603     -0.3733182954     -1.1626535782
O       0.6003946029      0.3732551880     -0.6147024218
O       1.7221213538      0.0194770255      0.0012198509
C      -0.7815727819      1.7751192026     -0.6115148476
C       0.4789787695      2.7134126898      1.5821275536
C       0.0871861524     -1.2182162431      0.2460156313
H      -4.8619433228     -1.3546468930     -1.9648341182
H       3.6355203056      3.2276165809      4.6030383268
H      -0.3493371619      1.8135798019     -2.1696197498
H       1.4052796263      1.8016222231     -1.7779576661
H       2.7814906771     -2.7925910484      6.3195358993
H      -5.2758319801      2.3562040503      3.5897857242
12
Frame=350  time=175.500fs  energy=-306.19358012Ha  molecule=COOCCCHHHHHH
C      -0.1677325588     -0.3746690636     -1.1657432060
O       0.5984950012      0.3747958097     -0.6163631807
O       1.7210991409      0.0170301476      0.0011140884
C      -0.7820054694      1.7763130694     -0.6129309634
C       0.4809961689      2.7138534547      1.5864203906
C       0.0897060214     -1.2179835490      0.2464851768
H      -4.8727533637     -1.3622585805     -1.9703498625
H       3.6439605342      3.2292542911      4.6157722647
H      -0.3479514114      1.8085275938     -2.1759712997
H       1.4094706800      1.8138270346     -1.7820702864
H       2.7924432734     -2.7963681850      6.3357342298
H      -5.2864397802      2.3670320398      3.6018151029
12
Frame=351  time=176.000fs  energy=-306.19358012Ha  molecule=COOCCCHHHHHH
C      -0.1682431466     -0.3760195391     -1.1688321642
O       0.5965958112      0.3763360974     -0.6180235798
O       1.7200771494      0.0145838000      0.0010083488
C      -0.7824380630      1.7775066774     -0.6143467724
C       0.4830131311      2.7142941242      1.5907122972
C       0.0922253443     -1.2177509054      0.2469546205
H      -4.8835610620     -1.3698686185     -1.9758644116
H       3.6523989337      3.2308916465      4.6285034431
H      -0.3465659611      1.8034764804     -2.1823214732
H       1.4136608255      1.8260292013     -1.7861820156
H       2.8033934964     -2.8001445032      6.3519290502
H      -5.2970452816      2.3778576829      3.6138418749
12
Frame=352  time=176.500fs  energy=-306.19358012Ha  molecule=COOCCCHHHHHH
C      -0.1687536240     -0.3773697226     -1.1719204544
O       0.5946970319      0.3778760521     -0.6196836198
O       1.7190553790      0.0121379814      0.0009026322
C      -0.7828705631      1.7787000273     -0.6157622751
C       0.4850296572      2.7147346983      1.5950032758
C       0.0947441225     -1.2175183121      0.2474239628
H      -4.8943664232     -1.3774770109     -1.9813777681
H       3.6608355085      3.2325286477      4.6412318683
H      -0.3451808105      1.7984264594     -2.1886702735
H       1.4178500649      1.8382287293     -1.7902928556
H       2.8143413513     -2.8039200047      6.3681203685
H      -5.3076484895      2.3886809849      3.6258660460
12
Frame=353  time=177.000fs  energy=-306.19358012Ha  molecule=COOCCCHHHHHH
C      -0.1692639913     -0.3787196147     -1.1750080782
O       0.5927986623      0.3794156745     -0.6213433016
O       1.7180338291      0.0096926906      0.0007969383
C      -0.7833029699      1.7798931197     -0.6171774725
C       0.4870457481      2.7151751774      1.5992933283
C       0.0972623570     -1.2172857690      0.2478932037
H      -4.9051694525     -1.3850837613     -1.9868899349
H       3.6692702627      3.2341652957      4.6539575468
H      -0.3437959588      1.7933775282     -2.1950177037
H       1.4220384003      1.8504256246     -1.7944028085
H       2.8252868437     -2.8076946915      6.3843081926
H      -5.3182494092      2.3995019512      3.6378876224
12
Frame=354  time=177.500fs  energy=-306.19358012Ha  molecule=COOCCCHHHHHH
C      -0.1697742486     -0.3800692161     -1.1780950371
O       0.5909007015      0.3809549653     -0.6230026260
O       1.7170124992      0.0072479264      0.0006912672
C      -0.7837352835      1.7810859552     -0.6185923650
C       0.4890614048      2.7156155616      1.6035824570
C       0.0997800493     -1.2170532760      0.2483623436
H      -4.9159701553     -1.3926888736     -1.9924009145
H       3.6777032003      3.2358015913      4.6666804847
H      -0.3424114053      1.7883296842     -2.2013637670
H       1.4262258337      1.8626198932     -1.7985118762
H       2.8362299788     -2.8114685653      6.4004925306
H      -5.3288480460      2.4103205871      3.6499066098
12
Frame=355  time=178.000fs  energy=-306.19358012Ha  molecule=COOCCCHHHHHH
C      -0.1702843963     -0.3814185274     -1.1811813325
O       0.5890031487      0.3824939253     -0.6246615937
O       1.7159913888      0.0048036876      0.0005856188
C      -0.7841675043      1.7822785343     -0.6200069535
C       0.4910766283      2.7160558512      1.6078706638
C       0.1022972005     -1.2168208329      0.2488313827
H      -4.9267685370     -1.4002923514     -1.9979107098
H       3.6861343257      3.2374375351      4.6794006883
H      -0.3410271493      1.7832829251     -2.2077084664
H       1.4304123671      1.8748115412     -1.8026200609
H       2.8471707622     -2.8152416281      6.4166733904
H      -5.3394444050      2.4211368980      3.6619230142
12
Frame=356  time=178.500fs  energy=-306.19358012Ha  molecule=COOCCCHHHHHH
C      -0.1707944346     -0.3827675494     -1.1842669660
O       0.5871060028      0.3840325552     -0.6263202057
O       1.7149704974      0.0023599730      0.0004799930
C      -0.7845996323      1.7834708576     -0.6214212386
C       0.4930914196      2.7164960463      1.6121579510
C       0.1048138119     -1.2165884397      0.2493003211
H      -4.9375646028     -1.4078941986     -2.0034193234
H       3.6945636429      3.2390731281      4.6921181639
H      -0.3396431903      1.7782372484     -2.2140518051
H       1.4345980027      1.8870005744     -1.8067273645
H       2.8581091992     -2.8190138818      6.4328507800
H      -5.3500384914      2.4319508892      3.6739368415
12
Frame=357  time=179.000fs  energy=-306.19358012Ha  molecule=COOCCCHHHHHH
C      -0.1713043637     -0.3841162826     -1.1873519392
O       0.5852092629      0.3855708559     -0.6279784627
O       1.7139498244     -0.0000832186      0.0003743899
C      -0.7850316679      1.7846629258     -0.6228352210
C       0.4951057798      2.7169361473      1.6164443207
C       0.1073298846     -1.2163560962      0.2497691592
H      -4.9483583580     -1.4154944188     -2.0089267581
H       3.7029911560      3.2407083711      4.7048329176
H      -0.3382595274      1.7731926516     -2.2203937862
H       1.4387827425      1.8991869990     -1.8108337891
H       2.8690452951     -2.8227853281      6.4490247073
H      -5.3606303105      2.4427625660      3.6859480976
12
Frame=358  time=179.500fs  energy=-306.19358012Ha  molecule=COOCCCHHHHHH
C      -0.1718141839     -0.3854647278     -1.1904362534
O       0.5833129281      0.3871088280     -0.6296363655
O       1.7129293695     -0.0025258883      0.0002688093
C      -0.7854636112      1.7858547394     -0.6242489014
C       0.4971197097      2.7173761542      1.6207297748
C       0.1098454200     -1.2161238024      0.2502378972
H      -4.9591498079     -1.4230930158     -2.0144330165
H       3.7114168692      3.2423432648      4.7175449558
H      -0.3368761601      1.7681491321     -2.2267344128
H       1.4429665885      1.9113708208     -1.8149393366
H       2.8799790553     -2.8265559689      6.4651951802
H      -5.3712198675      2.4535719336      3.6979567884
12
Frame=359  time=180.000fs  energy=-306.19358012Ha  molecule=COOCCCHHHHHH
C      -0.1723238954     -0.3868128856     -1.1935199103
O       0.5814169975      0.3886464723     -0.6312939149
O       1.7119091320     -0.0049680375      0.0001632512
C      -0.7858954624      1.7870462989     -0.6256622805
C       0.4991332103      2.7178160674      1.6250143156
C       0.1123604192     -1.2158915580      0.2507065353
H      -4.9699389577     -1.4306899933     -2.0199381014
H       3.7198407866      3.2439778101      4.7302542846
H      -0.3354930876      1.7631066876     -2.2330736880
H       1.4471495428      1.9235520459     -1.8190440091
H       2.8909104852     -2.8303258060      6.4813622066
H      -5.3818071674      2.4643789974      3.7099629197
12
Frame=360  time=180.500fs  energy=-306.19358012Ha  molecule=COOCCCHHHHHH
C      -0.1728334986     -0.3881607566     -1.1966029113
O       0.5795214702      0.3901837895     -0.6329511119
O       1.7108891116     -0.0074096672      0.0000577156
C      -0.7863272218      1.7882376050     -0.6270753590
C       0.5011462827      2.7182558870      1.6292979451
C       0.1148748835     -1.2156593631      0.2511750737
H      -4.9807258129     -1.4382853550     -2.0254420153
H       3.7282629122      3.2456120077      4.7429609103
H      -0.3341103092      1.7580653156     -2.2394116149
H       1.4513316074      1.9357306801     -1.8231478086
H       2.9018395900     -2.8340948413      6.4975257945
H      -5.3923922155      2.4751837627      3.7219664974
12
Frame=361  time=181.000fs  energy=-306.19358012Ha  molecule=COOCCCHHHHHH
C      -0.1733429935     -0.3895083416     -1.1996852580
O       0.5776263451      0.3917207805     -0.6346079570
O       1.7098693076     -0.0098507787     -0.0000477976
C      -0.7867588895      1.7894286583     -0.6284881376
C       0.5031589279      2.7186956132      1.6335806654
C       0.1173888141     -1.2154272174      0.2516435126
H      -4.9915103785     -1.4458791045     -2.0309447611
H       3.7366832503      3.2472458585      4.7556648390
H      -0.3327278244      1.7530250136     -2.2457481966
H       1.4555127844      1.9479067293     -1.8272507371
H       2.9127663752     -2.8378630767      6.5136859516
H      -5.4029750169      2.4859862346      3.7339675274
12
Frame=362  time=181.500fs  energy=-306.19358012Ha  molecule=COOCCCHHHHHH
C      -0.1738523806     -0.3908556411     -1.2027669518
O       0.5757316215      0.3932574459     -0.6362644513
O       1.7088497197     -0.0122913731     -0.0001532885
C      -0.7871904658      1.7906194592     -0.6299006169
C       0.5051711467      2.7191352463      1.6378624786
C       0.1199022122     -1.2151951209      0.2521118524
H      -5.0022926598     -1.4534712456     -2.0364463413
H       3.7451018049      3.2488793631      4.7683660768
H      -0.3313456324      1.7479857792     -2.2520834361
H       1.4596930758      1.9600801996     -1.8313527965
H       2.9236908459     -2.8416305139      6.5298426858
H      -5.4135555768      2.4967864184      3.7459660154
12
Frame=363  time=182.000fs  energy=-306.19358012Ha  molecule=COOCCCHHHHHH
C      -0.1743616600     -0.3922026558     -1.2058479942
O       0.5738372984      0.3947937865     -0.6379205954
O       1.7078303473     -0.0147314517     -0.0002587571
C      -0.7876219509      1.7918100085     -0.6313127977
C       0.5071829402      2.7195747865      1.6421433867
C       0.1224150791     -1.2149630735      0.2525800931
H      -5.0130726621     -1.4610617820     -2.0419467586
H       3.7535185801      3.2505125226      4.7810646300
H      -0.3299637325      1.7429476100     -2.2584173365
H       1.4638724835      1.9722510968     -1.8354539888
H       2.9346130075     -2.8453971548      6.5459960050
H      -5.4241339003      2.5075843195      3.7579619673
12
Frame=364  time=182.500fs  energy=-306.19358012Ha  molecule=COOCCCHHHHHH
C      -0.1748708319     -0.3935493865     -1.2089283867
O       0.5719433748      0.3963298030     -0.6395763901
O       1.7068111898     -0.0171710156     -0.0003642034
C      -0.7880533450      1.7930003067     -0.6327246806
C       0.5091943094      2.7200142340      1.6464233919
C       0.1249274159     -1.2147310750      0.2530482351
H      -5.0238503905     -1.4686507173     -2.0474460158
H       3.7619335799      3.2521453375      4.7937605047
H      -0.3285821241      1.7379105034     -2.2647499009
H       1.4680510098      1.9844194267     -1.8395543161
H       2.9455328653     -2.8491630011      6.5621459170
H      -5.4347099925      2.5183799429      3.7699553889
12
Frame=365  time=183.000fs  energy=-306.19358012Ha  molecule=COOCCCHHHHHH
C      -0.1753798967     -0.3948958336     -1.2120081308
O       0.5700498499      0.3978654963     -0.6412318364
O       1.7057922469     -0.0196100659     -0.0004696276
C      -0.7884846482      1.7941903543     -0.6341362663
C       0.5112052552      2.7204535890      1.6507024962
C       0.1274392239     -1.2144991254      0.2535162785
H      -5.0346258504     -1.4762380552     -2.0529441154
H       3.7703468084      3.2537778087      4.8064537070
H      -0.3272008065      1.7328744571     -2.2710811324
H       1.4722286564      1.9965851953     -1.8436537803
H       2.9564504246     -2.8529280548      6.5782924295
H      -5.4452838585      2.5291732939      3.7819462860
12
Frame=366  time=183.500fs  energy=-306.19358012Ha  molecule=COOCCCHHHHHH
C      -0.1758888546     -0.3962419979     -1.2150872280
O       0.5681567227      0.3994008669     -0.6428869349
O       1.7047735181     -0.0220486040     -0.0005750296
C      -0.7889158609      1.7953801519     -0.6355475555
C       0.5132157786      2.7208928516      1.6549807016
C       0.1299505043     -1.2142672244      0.2539842236
H      -5.0453990468     -1.4838237993     -2.0584410601
H       3.7787582697      3.2554099371      4.8191442431
H      -0.3258197791      1.7278394687     -2.2774110340
H       1.4764054256      2.0087484085     -1.8477523834
H       2.9673656906     -2.8566923177      6.5944355505
H      -5.4558555034      2.5399643778      3.7939346643
12
Frame=367  time=184.000fs  energy=-306.19358012Ha  molecule=COOCCCHHHHHH
C      -0.1763977057     -0.3975878801     -1.2181656798
O       0.5662639924      0.4009359157     -0.6445416865
O       1.7037550027     -0.0244866309     -0.0006804095
C      -0.7893469832      1.7965697002     -0.6369585489
C       0.5152258805      2.7213320222      1.6592580102
C       0.1324612583     -1.2140353721      0.2544520706
H      -5.0561699849     -1.4914079534     -2.0639368525
H       3.7871679678      3.2570417233      4.8318321190
H      -0.3244390412      1.7228055356     -2.2837396087
H       1.4805813192      2.0209090721     -1.8518501274
H       2.9782786686     -2.8604557915      6.6105752875
H      -5.4664249324      2.5507531996      3.8059205297
12
Frame=368  time=184.500fs  energy=-306.19358012Ha  molecule=COOCCCHHHHHH
C      -0.1769064505     -0.3989334807     -1.2212434876
O       0.5643716580      0.4024706434     -0.6461960919
O       1.7027367005     -0.0269241478     -0.0007857674
C      -0.7897780153      1.7977589996     -0.6383692471
C       0.5172355620      2.7217711010      1.6635344241
C       0.1349714871     -1.2138035683      0.2549198198
H      -5.0669386700     -1.4989905209     -2.0694314953
H       3.7955759068      3.2586731681      4.8445173408
H      -0.3230585921      1.7177726556     -2.2900668596
H       1.4847563393      2.0330671918     -1.8559470142
H       2.9891893638     -2.8642184780      6.6267116485
H      -5.4769921504      2.5615397647      3.8179038879
12
Frame=369  time=185.000fs  energy=-306.19358012Ha  molecule=COOCCCHHHHHH
C      -0.1774150890     -0.4002788004     -1.2243206530
O       0.5624797186      0.4040050508     -0.6478501520
O       1.7017186108     -0.0293611559     -0.0008911032
C      -0.7902089574      1.7989480507     -0.6397796509
C       0.5192448239      2.7222100881      1.6678099453
C       0.1374811919     -1.2135718129      0.2553874713
H      -5.0777051072     -1.5065715057     -2.0749249912
H       3.8039820906      3.2603042725      4.8571999147
H      -0.3216784312      1.7127408262     -2.2963927897
H       1.4889304879      2.0452227737     -1.8600430457
H       3.0000977815     -2.8679803791      6.6428446410
H      -5.4875571626      2.5723240781      3.8298847446
12
Frame=370  time=185.500fs  energy=-306.19358012Ha  molecule=COOCCCHHHHHH
C      -0.1779236216     -0.4016238399     -1.2273971773
O       0.5605881733      0.4055391385     -0.6495038675
O       1.7007007331     -0.0317976563     -0.0009964171
C      -0.7906398097      1.8001368542     -0.6411897608
C       0.5212536674      2.7226489837      1.6720845759
C       0.1399903739     -1.2133401057      0.2558550254
H      -5.0884693017     -1.5141509113     -2.0804173427
H       3.8123865234      3.2619350370      4.8698798467
H      -0.3202985577      1.7077100449     -2.3027174021
H       1.4931037669      2.0573758234     -1.8641382241
H       3.0110039268     -2.8717414966      6.6589742729
H      -5.4981199740      2.5831061450      3.8418631056
12
Frame=371  time=186.000fs  energy=-306.19358012Ha  molecule=COOCCCHHHHHH
C      -0.1784320484     -0.4029685998     -1.2304730621
O       0.5586970212      0.4070729073     -0.6511572393
O       1.6996830671     -0.0342336502     -0.0011017092
C      -0.7910705725      1.8013254105     -0.6425995776
C       0.5232620932      2.7230877881      1.6763583179
C       0.1424990343     -1.2131084467      0.2563224823
H      -5.0992312585     -1.5217287413     -2.0859085525
H       3.8207892091      3.2635654626      4.8825571429
H      -0.3189189711      1.7026803094     -2.3090406997
H       1.4972761785      2.0695263468     -1.8682325512
H       3.0219078051     -2.8755018322      6.6751005519
H      -5.5086805896      2.5938859706      3.8538389766
12
Frame=372  time=186.500fs  energy=-306.19358012Ha  molecule=COOCCCHHHHHH
C      -0.1789403698     -0.4043130807     -1.2335483089
O       0.5568062614      0.4086063580     -0.6528102681
O       1.6986656122     -0.0366691388     -0.0012069794
C      -0.7915012459      1.8025137203     -0.6440091020
C       0.5252701024      2.7235265015      1.6806311734
C       0.1450071743     -1.2128768358      0.2567898423
H      -5.1099909828     -1.5293049993     -2.0913986232
H       3.8291901517      3.2651955499      4.8952318092
H      -0.3175396707      1.6976516173     -2.3153626857
H       1.5014477245      2.0816743497     -1.8723260289
H       3.0328094213     -2.8792613878      6.6912234856
H      -5.5192390145      2.6046635600      3.8658123633
12
Frame=373  time=187.000fs  energy=-306.19358012Ha  molecule=COOCCCHHHHHH
C      -0.1794485860     -0.4056572833     -1.2366229190
O       0.5549158931      0.4101394912     -0.6544629547
O       1.6976483679     -0.0391041233     -0.0013122278
C      -0.7919318302      1.8037017840     -0.6454183346
C       0.5272776959      2.7239651240      1.6849031443
C       0.1475147951     -1.2126452728      0.2572571055
H      -5.1207484798     -1.5368796890     -2.0968875574
H       3.8375893552      3.2668252998      4.9079038518
H      -0.3161606558      1.6926239662     -2.3216833629
H       1.5056184070      2.0938198378     -1.8764186592
H       3.0437087809     -2.8830201651      6.7073430816
H      -5.5297952537      2.6154389184      3.8777832714
12
Frame=374  time=187.500fs  energy=-306.19358012Ha  molecule=COOCCCHHHHHH
C      -0.1799566972     -0.4070012082     -1.2396968940
O       0.5530259152      0.4116723077     -0.6561152999
O       1.6966313337     -0.0415386047     -0.0014174544
C      -0.7923623255      1.8048896024     -0.6468272760
C       0.5292848747      2.7244036560      1.6891742328
C       0.1500218978     -1.2124137576      0.2577242721
H      -5.1315037546     -1.5444528140     -2.1023753577
H       3.8459868237      3.2684547130      4.9205732766
H      -0.3147819258      1.6875973536     -2.3280027344
H       1.5097882279      2.1059628169     -1.8805104441
H       3.0546058889     -2.8867781659      6.7234593478
H      -5.5403493123      2.6262120508      3.8897517065
12
Frame=375  time=188.000fs  energy=-306.19358012Ha  molecule=COOCCCHHHHHH
C      -0.1804647036     -0.4083448561     -1.2427702353
O       0.5511363269      0.4132048082     -0.6577673044
O       1.6956145092     -0.0439725843     -0.0015226594
C      -0.7927927321      1.8060771759     -0.6482359271
C       0.5312916397      2.7248420975      1.6934444407
C       0.1525284838     -1.2121822902      0.2581913425
H      -5.1422568122     -1.5520243777     -2.1078620267
H       3.8543825611      3.2700837903      4.9332400897
H      -0.3134034800      1.6825717773     -2.3343208032
H       1.5139571892      2.1181032929     -1.8846013855
H       3.0655007505     -2.8905353920      6.7395722917
H      -5.5509011952      2.6369829624      3.9017176745
12
Frame=376  time=188.500fs  energy=-306.19358012Ha  molecule=COOCCCHHHHHH
C      -0.1809726055     -0.4096882275     -1.2458429444
O       0.5492471274      0.4147369934     -0.6594189691
O       1.6945978939     -0.0464060632     -0.0016278427
C      -0.7932230502      1.8072645051     -0.6496442883
C       0.5332979919      2.7252804489      1.6977137703
C       0.1550345541     -1.2119508704      0.2586583168
H      -5.1530076577     -1.5595943839     -2.1133475670
H       3.8627765713      3.2717125325      4.9459042970
H      -0.3120253178      1.6775472348     -2.3406375723
H       1.5181252929      2.1302412713     -1.8886914853
H       3.0763933709     -2.8942918452      6.7556819208
H      -5.5614509074      2.6477516583      3.9136811808
12
Frame=377  time=189.000fs  energy=-306.19358012Ha  molecule=COOCCCHHHHHH
C      -0.1814804032     -0.4110313232     -1.2489150227
O       0.5473583157      0.4162688641     -0.6610702948
O       1.6935814872     -0.0488390425     -0.0017330044
C      -0.7936532799      1.8084515905     -0.6510523604
C       0.5353039322      2.7257187102      1.7019822234
C       0.1575401099     -1.2117194981      0.2591251952
H      -5.1637562962     -1.5671628361     -2.1188319812
H       3.8711688584      3.2733409403      4.9585659045
H      -0.3106474385      1.6725237238     -2.3469530446
H       1.5222925409      2.1423767580     -1.8927807455
H       3.0872837552     -2.8980475273      6.7717882429
H      -5.5719984539      2.6585181435      3.9256422312
12
Frame=378  time=189.500fs  energy=-306.19358012Ha  molecule=COOCCCHHHHHH
C      -0.1819880968     -0.4123741438     -1.2519864717
O       0.5454698909      0.4178004211     -0.6627212822
O       1.6925652888     -0.0512715234     -0.0018381446
C      -0.7940834214      1.8096384328     -0.6524601441
C       0.5373094616      2.7261568818      1.7062498020
C       0.1600451525     -1.2114881732      0.2595919780
H      -5.1745027328     -1.5747297378     -2.1243152719
H       3.8795594262      3.2749690146      4.9712249183
H      -0.3092698414      1.6675012419     -2.3532672232
H       1.5264589353      2.1545097587     -1.8968691680
H       3.0981719085     -2.9018024400      6.7878912656
H      -5.5825438397      2.6692824231      3.9376008314
12
Frame=379  time=190.000fs  energy=-306.19358012Ha  molecule=COOCCCHHHHHH
C      -0.1824956867     -0.4137166898     -1.2550572928
O       0.5435818522      0.4193316649     -0.6643719320
O       1.6915492981     -0.0537035070     -0.0019432633
C      -0.7945134751      1.8108250324     -0.6538676400
C       0.5393145811      2.7265949638      1.7105165083
C       0.1625496830     -1.2112568956      0.2600586653
H      -5.1852469726     -1.5822950927     -2.1297974417
H       3.8879482788      3.2765967560      4.9838813442
H      -0.3078925260      1.6624797867     -2.3595801110
H       1.5306244779      2.1666402790     -1.9009567547
H       3.1090578360     -2.9055565851      6.8039909963
H      -5.5930870697      2.6800445022      3.9495569868
12
Frame=380  time=190.500fs  energy=-306.19358012Ha  molecule=COOCCCHHHHHH
C      -0.1830031730     -0.4150589620     -1.2581274874
O       0.5416941986      0.4208625963     -0.6660222452
O       1.6905335147     -0.0561349945     -0.0020483606
C      -0.7949434410      1.8120113900     -0.6552748487
C       0.5413192914      2.7270329565      1.7147823442
C       0.1650537025     -1.2110256651      0.2605252575
H      -5.1959890205     -1.5898589042     -2.1352784931
H       3.8963354201      3.2782241654      4.9965351881
H      -0.3065154915      1.6574593559     -2.3658917109
H       1.5347891708      2.1787683247     -1.9050435075
H       3.1199415427     -2.9093099643      6.8200874427
H      -5.6036281488      2.6908043858      3.9615107032
12
Frame=381  time=191.000fs  energy=-306.19358012Ha  molecule=COOCCCHHHHHH
C      -0.1835105560     -0.4164009609     -1.2611970570
O       0.5398069293      0.4223932161     -0.6676722223
O       1.6895179381     -0.0585659870     -0.0021534364
C      -0.7953733193      1.8131975061     -0.6566817710
C       0.5433235937      2.7274708600      1.7190473116
C       0.1675572123     -1.2107944818      0.2609917546
H      -5.2067288816     -1.5974211759     -2.1407584287
H       3.9047208540      3.2798512435      5.0091864561
H      -0.3051387374      1.6524399471     -2.3722020260
H       1.5389530158      2.1908939015     -1.9091294284
H       3.1308230339     -2.9130625795      6.8361806123
H      -5.6141670822      2.7015620790      3.9734619862
12
Frame=382  time=191.500fs  energy=-306.19358012Ha  molecule=COOCCCHHHHHH
C      -0.1840178359     -0.4177426872     -1.2642660031
O       0.5379200434      0.4239235249     -0.6693218643
O       1.6885025677     -0.0609964857     -0.0022584909
C      -0.7958031104      1.8143833812     -0.6580884075
C       0.5453274888      2.7279086745      1.7233114127
C       0.1700602135     -1.2105633454      0.2614581570
H      -5.2174665609     -1.6049819114     -2.1462372511
H       3.9131045844      3.2814779910      5.0218351541
H      -0.3037622630      1.6474215580     -2.3785110592
H       1.5431160150      2.2030170150     -1.9132145192
H       3.1417023145     -2.9168144323      6.8522705126
H      -5.6247038745      2.7123175869      3.9854108413
12
Frame=383  time=192.000fs  energy=-306.19358012Ha  molecule=COOCCCHHHHHH
C      -0.1845250130     -0.4190841415     -1.2673343270
O       0.5360335400      0.4254535235     -0.6709711719
O       1.6874874033     -0.0634264917     -0.0023635241
C      -0.7962328143      1.8155690159     -0.6594947588
C       0.5473309776      2.7283464003      1.7275746493
C       0.1725627073     -1.2103322558      0.2619244649
H      -5.2282020636     -1.6125411141     -2.1517149628
H       3.9214866152      3.2831044087      5.0344812878
H      -0.3023860676      1.6424041862     -2.3848188134
H       1.5472781702      2.2151376709     -1.9172987819
H       3.1525793896     -2.9205655246      6.8683571511
H      -5.6352385308      2.7230709143      3.9973572741
12
Frame=384  time=192.500fs  energy=-306.19358012Ha  molecule=COOCCCHHHHHH
C      -0.1850320875     -0.4204253244     -1.2704020302
O       0.5341474182      0.4269832127     -0.6726201458
O       1.6864724441     -0.0658560061     -0.0024685361
C      -0.7966624313      1.8167544108     -0.6609008256
C       0.5493340612      2.7287840375      1.7318370235
C       0.1750646948     -1.2101012130      0.2623906784
H      -5.2389353944     -1.6200987877     -2.1571915664
H       3.9298669504      3.2847304975      5.0471248633
H      -0.3010101506      1.6373878295     -2.3911252915
H       1.5514394835      2.2272558749     -1.9213822184
H       3.1634542643     -2.9243158580      6.8844405354
H      -5.6457710560      2.7338220664      4.0093012902
12
Frame=385  time=193.000fs  energy=-306.19358012Ha  molecule=COOCCCHHHHHH
C      -0.1855390596     -0.4217662366     -1.2734691141
O       0.5322616772      0.4285125930     -0.6742687869
O       1.6854576899     -0.0682850300     -0.0025735269
C      -0.7970919615      1.8179395663     -0.6623066086
C       0.5513367404      2.7292215863      1.7360985372
C       0.1775661773     -1.2098702169      0.2628567978
H      -5.2496665585     -1.6276549356     -2.1626670644
H       3.9382455939      3.2863562580      5.0597658865
H      -0.2996345113      1.6323724853     -2.3974304966
H       1.5555999567      2.2393716325     -1.9254648305
H       3.1743269437     -2.9280654343      6.9005206729
H      -5.6563014550      2.7445710482      4.0212428951
12
Frame=386  time=193.500fs  energy=-306.19358012Ha  molecule=COOCCCHHHHHH
C      -0.1860459296     -0.4231068786     -1.2765355801
O       0.5303763161      0.4300416652     -0.6759170958
O       1.6844431401     -0.0707135646     -0.0026784965
C      -0.7975214053      1.8191244831     -0.6637121083
C       0.5533390162      2.7296590471      1.7403591924
C       0.1800671559     -1.2096392673      0.2633228233
H      -5.2603955608     -1.6352095613     -2.1681414594
H       3.9466225494      3.2879816909      5.0724043631
H      -0.2982591492      1.6273581516     -2.4037344315
H       1.5597595918      2.2514849494     -1.9295466202
H       3.1851974328     -2.9318142553      6.9165975711
H      -5.6668297327      2.7553178645      4.0331820944
12
Frame=387  time=194.000fs  energy=-306.19358012Ha  molecule=COOCCCHHHHHH
C      -0.1865526977     -0.4244472512     -1.2796014298
O       0.5284913339      0.4315704300     -0.6775650734
O       1.6834287942     -0.0731416110     -0.0027834450
C      -0.7979507627      1.8203091618     -0.6651173256
C       0.5553408894      2.7300964198      1.7446189912
C       0.1825676317     -1.2094083641      0.2637887551
H      -5.2711224063     -1.6427626683     -2.1736147539
H       3.9549978210      3.2896067971      5.0850402990
H      -0.2968840635      1.6223448258     -2.4100370991
H       1.5639183907      2.2635958312     -1.9336275893
H       3.1960657367     -2.9355623227      6.9326712374
H      -5.6773558939      2.7660625205      4.0451188936
12
Frame=388  time=194.500fs  energy=-306.19358012Ha  molecule=COOCCCHHHHHH
C      -0.1870593642     -0.4257873548     -1.2826666644
O       0.5266067300      0.4330988881     -0.6792127203
O       1.6824146519     -0.0755691703     -0.0028883725
C      -0.7983800340      1.8214936027     -0.6665222609
C       0.5573423611      2.7305337049      1.7488779354
C       0.1850676058     -1.2091775072      0.2642545934
H      -5.2818471000     -1.6503142601     -2.1790869504
H       3.9633714125      3.2912315774      5.0976737001
H      -0.2955092538      1.6173325057     -2.4163385024
H       1.5680763553      2.2757042835     -1.9377077398
H       3.2069318603     -2.9393096382      6.9487416793
H      -5.6878799435      2.7768050211      4.0570532982
12
Frame=389  time=195.000fs  energy=-306.19358012Ha  molecule=COOCCCHHHHHH
C      -0.1875659292     -0.4271271902     -1.2857312853
O       0.5247225032      0.4346270403     -0.6808600375
O       1.6814007125     -0.0779962437     -0.0029932789
C      -0.7988092193      1.8226778066     -0.6679269150
C       0.5593434321      2.7309709024      1.7531360270
C       0.1875670796     -1.2089466965      0.2647203385
H      -5.2925696467     -1.6578643402     -2.1845580515
H       3.9717433277      3.2928560323      5.1103045723
H      -0.2941347192      1.6123211890     -2.4226386442
H       1.5722334875      2.2878103119     -1.9417870735
H       3.2177958088     -2.9430562035      6.9648089041
H      -5.6984018863      2.7875453712      4.0689853138
12
Frame=390  time=195.500fs  energy=-306.19358012Ha  molecule=COOCCCHHHHHH
C      -0.1880723930     -0.4284667580     -1.2887952941
O       0.5228386529      0.4361548872     -0.6825070256
O       1.6803869757     -0.0804228323     -0.0030981644
C      -0.7992383189      1.8238617739     -0.6693312885
C       0.5613441034      2.7314080126      1.7573932681
C       0.1900660540     -1.2087159320      0.2651859906
H      -5.3032900515     -1.6654129122     -2.1900280597
H       3.9801135705      3.2944801628      5.1229329212
H      -0.2927604592      1.6073108734     -2.4289375275
H       1.5763897893      2.2999139220     -1.9458655924
H       3.2286575870     -2.9468020204      6.9808729193
H      -5.7089217273      2.7982835758      4.0809149458
12
Frame=391  time=196.000fs  energy=-306.19358012Ha  molecule=COOCCCHHHHHH
C      -0.1885787559     -0.4298060587     -1.2918586921
O       0.5209551781      0.4376824296     -0.6841536853
O       1.6793734409     -0.0828489371     -0.0032030290
C      -0.7996673330      1.8250455052     -0.6707353821
C       0.5633443758      2.7318450356      1.7616496604
C       0.1925645303     -1.2084852134      0.2656515498
H      -5.3140083193     -1.6729599793     -2.1954969774
H       3.9884821448      3.2961039695      5.1355587528
H      -0.2913864731      1.6023015565     -2.4352351552
H       1.5805452626      2.3120151193     -1.9499432982
H       3.2395172000     -2.9505470906      6.9969337322
H      -5.7194394712      2.8090196398      4.0928421998
12
Frame=392  time=196.500fs  energy=-306.19358012Ha  molecule=COOCCCHHHHHH
C      -0.1890850180     -0.4311450930     -1.2949214808
O       0.5190720780      0.4392096681     -0.6858000175
O       1.6783601078     -0.0852745593     -0.0033078727
C      -0.8000962617      1.8262290010     -0.6721391963
C       0.5653442504      2.7322819717      1.7659052061
C       0.1950625096     -1.2082545408      0.2661170164
H      -5.3247244549     -1.6805055452     -2.2009648073
H       3.9968490544      3.2977274532      5.1481820728
H      -0.2900127604      1.5972932361     -2.4415315302
H       1.5846999093      2.3241139094     -1.9540201928
H       3.2503746527     -2.9542914159      7.0129913503
H      -5.7299551229      2.8197535681      4.1047670811
12
Frame=393  time=197.000fs  energy=-306.19358012Ha  molecule=COOCCCHHHHHH
C      -0.1895911796     -0.4324838615     -1.2979836614
O       0.5171893517      0.4407366034     -0.6874460229
O       1.6773469759     -0.0876997000     -0.0034126957
C      -0.8005251053      1.8274122619     -0.6735427319
C       0.5673437279      2.7327188211      1.7701599071
C       0.1975599930     -1.2080239139      0.2665823907
H      -5.3354384634     -1.6880496132     -2.2064315518
H       4.0052143031      3.2993506146      5.1608028871
H      -0.2886393203      1.5922859099     -2.4478266552
H       1.5888537313      2.3362102979     -1.9580962782
H       3.2612299503     -2.9580349978      7.0290457809
H      -5.7404686872      2.8304853657      4.1166895952
12
Frame=394  time=197.500fs  energy=-306.19358012Ha  molecule=COOCCCHHHHHH
C      -0.1900972410     -0.4338223648     -1.3010452355
O       0.5153069983      0.4422632362     -0.6890917023
O       1.6763340446     -0.0901243603     -0.0035174978
C      -0.8009538639      1.8285952883     -0.6749459894
C       0.5693428094      2.7331555839      1.7744137652
C       0.2000569817     -1.2077933327      0.2670476727
H      -5.3461503495     -1.6955921869     -2.2118972133
H       4.0135778947      3.3009734545      5.1734212013
H      -0.2872661524      1.5872795756     -2.4541205333
H       1.5930067304      2.3483042902     -1.9621715561
H       3.2720830975     -2.9617778383      7.0450970313
H      -5.7509801689      2.8412150375      4.1286097477
12
Frame=395  time=198.000fs  energy=-306.19358012Ha  molecule=COOCCCHHHHHH
C      -0.1906032023     -0.4351606035     -1.3041062043
O       0.5134250170      0.4437895673     -0.6907370563
O       1.6753213135     -0.0925485414     -0.0036222792
C      -0.8013825378      1.8297780810     -0.6763489696
C       0.5713414958      2.7335922604      1.7786667825
C       0.2025534768     -1.2075627971      0.2675128628
H      -5.3568601182     -1.7031332696     -2.2173617945
H       4.0219398331      3.3025959736      5.1860370212
H      -0.2858932558      1.5822742309     -2.4604131673
H       1.5971589086      2.3603958918     -1.9662460285
H       3.2829340993     -2.9655199388      7.0611451088
H      -5.7614895728      2.8519425883      4.1405275439
12
Frame=396  time=198.500fs  energy=-306.19358012Ha  molecule=COOCCCHHHHHH
C      -0.1911090639     -0.4364985782     -1.3071665694
O       0.5115434069      0.4453155973     -0.6923820858
O       1.6743087822     -0.0949722442     -0.0037270400
C      -0.8018111271      1.8309606403     -0.6777516731
C       0.5733397879      2.7340288508      1.7829189609
C       0.2050494795     -1.2073323070      0.2679779611
H      -5.3675677743     -1.7106728648     -2.2228252978
H       4.0303001221      3.3042181726      5.1986503526
H      -0.2845206301      1.5772698735     -2.4667045600
H       1.6013102678      2.3724851084     -1.9703196971
H       3.2937829608     -2.9692613012      7.0771900208
H      -5.7719969036      2.8626680231      4.1524429893
12
Frame=397  time=199.000fs  energy=-306.19358012Ha  molecule=COOCCCHHHHHH
C      -0.1916148258     -0.4378362896     -1.3102263321
O       0.5096621673      0.4468413270     -0.6940267915
O       1.6732964503     -0.0973954700     -0.0038317802
C      -0.8022396321      1.8321429669     -0.6791541004
C       0.5753376866      2.7344653552      1.7871703022
C       0.2075449908     -1.2071018622      0.2684429678
H      -5.3782733228     -1.7182109759     -2.2282877256
H       4.0386587655      3.3058400523      5.2112612012
H      -0.2831482745      1.5722665012     -2.4729947144
H       1.6054608098      2.3845719453     -1.9743925640
H       3.3046296868     -2.9730019272      7.0932317745
H      -5.7825021662      2.8733913467      4.1643560892
12
Frame=398  time=199.500fs  energy=-306.19358012Ha  molecule=COOCCCHHHHHH
C      -0.1921204885     -0.4391737382     -1.3132854938
O       0.5077812971      0.4483667569     -0.6956711741
O       1.6722843171     -0.0998182198     -0.0039364997
C      -0.8026680529      1.8333250612     -0.6805562522
C       0.5773351929      2.7349017739      1.7914208085
C       0.2100400120     -1.2068714627      0.2689078832
H      -5.3889767685     -1.7257476064     -2.2337490805
H       4.0470157670      3.3074616135      5.2238695728
H      -0.2817761885      1.5672641116     -2.4792836332
H       1.6096105366      2.3966564081     -1.9784646308
H       3.3154742822     -2.9767418184      7.1092703773
H      -5.7930053654      2.8841125640      4.1762668492
12
Frame=399  time=200.000fs  energy=-306.19358012Ha  molecule=COOCCCHHHHHH
C      -0.1926260520     -0.4405109247     -1.3163440559
O       0.5059007956      0.4498918878     -0.6973152344
O       1.6712723824     -0.1022404947     -0.0040411988
C      -0.8030963897      1.8345069238     -0.6819581292
C       0.5793323077      2.7353381070      1.7956704817
C       0.2125345441     -1.2066411084      0.2693727075
H      -5.3996781162     -1.7332827596     -2.2392093649
H       4.0553711305      3.3090828568      5.2364754730
H      -0.2804043715      1.5622627026     -2.4855713193
H       1.6137594500      2.4087385022     -1.9825358994
H       3.3263167520     -2.9804809766      7.1253058363
H      -5.8035065058      2.8948316798      4.1881752745
12
Frame=400  time=200.500fs  energy=-306.19358012Ha  molecule=COOCCCHHHHHH
C      -0.1931315166     -0.4418478496     -1.3194020197
O       0.5040206619      0.4514167205     -0.6989589731
O       1.6702606456     -0.1046622958     -0.0041458774
C      -0.8035246427      1.8356885553     -0.6833597321
C       0.5813290318      2.7357743548      1.7999193236
C       0.2150285883     -1.2064107991      0.2698374409
H      -5.4103773707     -1.7408164390     -2.2446685813
H       4.0637248597      3.3107037830      5.2490789075
H      -0.2790328228      1.5572622718     -2.4918577756
H       1.6179075518      2.4208182331     -1.9866063717
H       3.3371571011     -2.9842194034      7.1413381589
H      -5.8140055922      2.9055486990      4.2000813706
12
Frame=401  time=201.000fs  energy=-306.19358012Ha  molecule=COOCCCHHHHHH
C      -0.1936368826     -0.4431845136     -1.3224593866
O       0.5021408952      0.4529412555     -0.7006023910
O       1.6692491062     -0.1070836243     -0.0042505355
C      -0.8039528122      1.8368699561     -0.6847610613
C       0.5833253663      2.7362105175      1.8041673362
C       0.2175221457     -1.2061805348      0.2703020836
H      -5.4210745369     -1.7483486479     -2.2501267322
H       4.0720769584      3.3123243929      5.2616798820
H      -0.2776615417      1.5522628170     -2.4981430048
H       1.6220548440      2.4328956063     -1.9906760496
H       3.3479953342     -2.9879571006      7.1573673521
H      -5.8245026293      2.9162636264      4.2119851428
12
Frame=402  time=201.500fs  energy=-306.19358012Ha  molecule=COOCCCHHHHHH
C      -0.1941421501     -0.4445209172     -1.3255161581
O       0.5002614946      0.4544654935     -0.7022454889
O       1.6682377639     -0.1095044811     -0.0043551732
C      -0.8043808982      1.8380511268     -0.6861621176
C       0.5853213119      2.7366465952      1.8084145215
C       0.2200152175     -1.2059503153      0.2707666357
H      -5.4317696196     -1.7558793897     -2.2555838199
H       4.0804274303      3.3139446871      5.2742784022
H      -0.2762905278      1.5472643360     -2.5044270099
H       1.6262013285      2.4449706271     -1.9947449347
H       3.3588314564     -2.9916940697      7.1733934234
H      -5.8349976220      2.9269764669      4.2238865964
12
Frame=403  time=202.000fs  energy=-306.19358012Ha  molecule=COOCCCHHHHHH
C      -0.1946473194     -0.4458570611     -1.3285723354
O       0.4983824593      0.4559894354     -0.7038882673
O       1.6672266181     -0.1119248674     -0.0044597907
C      -0.8048089011      1.8392320680     -0.6875629016
C       0.5873168695      2.7370825881      1.8126608812
C       0.2225078047     -1.2057201406      0.2712310976
H      -5.4424626236     -1.7634086679     -2.2610398470
H       4.0887762792      3.3155646663      5.2868744738
H      -0.2749197803      1.5422668264     -2.5107097936
H       1.6303470070      2.4570433010     -1.9988130291
H       3.3696654725     -2.9954303125      7.1894163798
H      -5.8454905748      2.9376872252      4.2357857369
12
Frame=404  time=202.500fs  energy=-306.19358012Ha  molecule=COOCCCHHHHHH
C      -0.1951523908     -0.4471929458     -1.3316279200
O       0.4965037884      0.4575130816     -0.7055307272
O       1.6662156685     -0.1143447843     -0.0045643878
C      -0.8052368209      1.8404127801     -0.6889634139
C       0.5893120401      2.7375184965      1.8169064174
C       0.2249999084     -1.2054900105      0.2716954694
H      -5.4531535537     -1.7709364857     -2.2664948160
H       4.0971235089      3.3171843314      5.2994681024
H      -0.2735492987      1.5372702862     -2.5169913588
H       1.6344918815      2.4691136334     -2.0028803344
H       3.3804973874     -2.9991658307      7.2054362286
H      -5.8559814925      2.9483959061      4.2476825696
12
Frame=405  time=203.000fs  energy=-306.19358012Ha  molecule=COOCCCHHHHHH
C      -0.1956573644     -0.4485285720     -1.3346829133
O       0.4946254812      0.4590364330     -0.7071728691
O       1.6652049145     -0.1167642328     -0.0046689647
C      -0.8056646579      1.8415932636     -0.6903636552
C       0.5913068246      2.7379543205      1.8211511319
C       0.2274915299     -1.2052599250      0.2721597513
H      -5.4638424147     -1.7784628467     -2.2719487291
H       4.1054691230      3.3188036830      5.3120592936
H      -0.2721790824      1.5322747130     -2.5232717082
H       1.6386359538      2.4811816297     -2.0069468525
H       3.3913272058     -3.0029006259      7.2214529769
H      -5.8664703798      2.9591025145      4.2595770998
12
Frame=406  time=203.500fs  energy=-306.19358012Ha  molecule=COOCCCHHHHHH
C      -0.1961622404     -0.4498639402     -1.3377373165
O       0.4927475367      0.4605594901     -0.7088146939
O       1.6641943557     -0.1191832141     -0.0047735214
C      -0.8060924123      1.8427735192     -0.6917636260
C       0.5933012238      2.7383900604      1.8253950266
C       0.2299826701     -1.2050298838      0.2726239436
H      -5.4745292113     -1.7859877540     -2.2774015890
H       4.1138131254      3.3204227219      5.3246480530
H      -0.2708091306      1.5272801045     -2.5295508447
H       1.6427792257      2.4932472953     -2.0110125853
H       3.4021549326     -3.0066346997      7.2374666319
H      -5.8769572414      2.9698070551      4.2714693327
12
Frame=407  time=204.000fs  energy=-306.19358012Ha  molecule=COOCCCHHHHHH
C      -0.1966670192     -0.4511990511     -1.3407911310
O       0.4908699541      0.4620822538     -0.7104562023
O       1.6631839917     -0.1216017291     -0.0048780579
C      -0.8065200843      1.8439535474     -0.6931633270
C       0.5952952387      2.7388257163      1.8296381034
C       0.2324733302     -1.2047998871      0.2730880464
H      -5.4852139484     -1.7935112112     -2.2828533979
H       4.1221555197      3.3220414487      5.3372343863
H      -0.2694394429      1.5222864587     -2.5358287711
H       1.6469216992      2.5053106356     -2.0150775345
H       3.4129805727     -3.0103680540      7.2534772007
H      -5.8874420819      2.9805095327      4.2833592738
12
Frame=408  time=204.500fs  energy=-306.19358012Ha  molecule=COOCCCHHHHHH
C      -0.1971717009     -0.4525339053     -1.3438443583
O       0.4889927326      0.4636047245     -0.7120973951
O       1.6621738220     -0.1240197791     -0.0049825743
C      -0.8069476740      1.8451333486     -0.6945627589
C       0.5972888701      2.7392612883      1.8338803642
C       0.2349635113     -1.2045699345      0.2735520599
H      -5.4958966306     -1.8010332214     -2.2883041584
H       4.1304963096      3.3236598642      5.3498182991
H      -0.2680700186      1.5172937732     -2.5421054901
H       1.6510633759      2.5173716560     -2.0191417020
H       3.4238041309     -3.0141006903      7.2694846904
H      -5.8979249060      2.9912099521      4.2952469282
12
Frame=409  time=205.000fs  energy=-306.19358012Ha  molecule=COOCCCHHHHHH
C      -0.1976762857     -0.4538685032     -1.3468969996
O       0.4871158713      0.4651269031     -0.7137382728
O       1.6611638461     -0.1264373650     -0.0050870707
C      -0.8073751816      1.8463129234     -0.6959619222
C       0.5992821189      2.7396967768      1.8381218109
C       0.2374532146     -1.2043400261      0.2740159844
H      -5.5065772627     -1.8085537882     -2.2937538729
H       4.1388354988      3.3252779691      5.3623997969
H      -0.2667008571      1.5123020458     -2.5483810046
H       1.6552042579      2.5294303617     -2.0232050895
H       3.4346256120     -3.0178326102      7.2854891082
H      -5.9084057184      3.0019083180      4.3071323013
12
Frame=410  time=205.500fs  energy=-306.19358012Ha  molecule=COOCCCHHHHHH
C      -0.1981807739     -0.4552028456     -1.3499490564
O       0.4852393695      0.4666487902     -0.7153788363
O       1.6601540637     -0.1288544879     -0.0051915471
C      -0.8078026074      1.8474922722     -0.6973608175
C       0.6012749859      2.7401321819      1.8423624454
C       0.2399424410     -1.2041101617      0.2744798200
H      -5.5172558495     -1.8160729147     -2.2992025437
H       4.1471730911      3.3268957642      5.3749788854
H      -0.2653319578      1.5073112744     -2.5546553173
H       1.6593443469      2.5414867582     -2.0272676989
H       3.4454450207     -3.0215638155      7.3014904610
H      -5.9188845237      3.0126046351      4.3190153984
12
Frame=411  time=206.000fs  energy=-306.19358012Ha  molecule=COOCCCHHHHHH
C      -0.1986851658     -0.4565369330     -1.3530005299
O       0.4833632263      0.4681703865     -0.7170190864
O       1.6591444742     -0.1312711489     -0.0052960035
C      -0.8082299515      1.8486713958     -0.6987594455
C       0.6032674722      2.7405675038      1.8466022694
C       0.2424311918     -1.2038803413      0.2749435670
H      -5.5279323956     -1.8235906044     -2.3046501733
H       4.1555090901      3.3285132501      5.3875555700
H      -0.2639633201      1.5023214566     -2.5609284310
H       1.6634836447      2.5535408507     -2.0313295319
H       3.4562623619     -3.0252943078      7.3174887561
H      -5.9293613266      3.0232989082      4.3308962246
12
Frame=412  time=206.500fs  energy=-306.19358012Ha  molecule=COOCCCHHHHHH
C      -0.1991894614     -0.4578707660     -1.3560514215
O       0.4814874408      0.4696916927     -0.7186590236
O       1.6581350773     -0.1336873491     -0.0054004399
C      -0.8086572141      1.8498502944     -0.7001578068
C       0.6052595785      2.7410027427      1.8508412850
C       0.2449194680     -1.2036505646      0.2754072256
H      -5.5386069058     -1.8311068605     -2.3100967641
H       4.1638434995      3.3301304276      5.4001298564
H      -0.2625949434      1.4973325904     -2.5672003485
H       1.6676221532      2.5655926446     -2.0353905904
H       3.4670776403     -3.0290240887      7.3334840005
H      -5.9398361316      3.0339911420      4.3427747853
12
Frame=413  time=207.000fs  energy=-306.19358012Ha  molecule=COOCCCHHHHHH
C      -0.1996936610     -0.4592043451     -1.3591017326
O       0.4796120123      0.4712127093     -0.7202986488
O       1.6571258724     -0.1361030895     -0.0055048565
C      -0.8090843954      1.8510289688     -0.7015559021
C       0.6072513057      2.7414378988      1.8550794940
C       0.2474072707     -1.2034208317      0.2758707960
H      -5.5492793848     -1.8386216864     -2.3155423185
H       4.1721763230      3.3317472973      5.4127017500
H      -0.2612268270      1.4923446735     -2.5734710725
H       1.6717598741      2.5776421453     -2.0394508761
H       3.4778908607     -3.0327531598      7.3494762012
H      -5.9503089434      3.0446813412      4.3546510856
12
Frame=414  time=207.500fs  energy=-306.19358012Ha  molecule=COOCCCHHHHHH
C      -0.2001977650     -0.4605376711     -1.3621514644
O       0.4777369399      0.4727334371     -0.7219379626
O       1.6561168591     -0.1385183713     -0.0056092533
C      -0.8095114956      1.8522074193     -0.7029537318
C       0.6092426547      2.7418729722      1.8593168982
C       0.2498946010     -1.2031911424      0.2763342783
H      -5.5599498373     -1.8461350853     -2.3209868388
H       4.1805075642      3.3333638601      5.4252712565
H      -0.2598589705      1.4873577037     -2.5797406059
H       1.6758968094      2.5896893579     -2.0435103909
H       3.4887020279     -3.0364815229      7.3654653652
H      -5.9607797666      3.0553695105      4.3665251309
12
Frame=415  time=208.000fs  energy=-306.19358012Ha  molecule=COOCCCHHHHHH
C      -0.2007017734     -0.4618707444     -1.3652006184
O       0.4758622227      0.4742538768     -0.7235769659
O       1.6551080371     -0.1409331953     -0.0057136303
C      -0.8099385149      1.8533856466     -0.7043512967
C       0.6112336264      2.7423079632      1.8635534994
C       0.2523814601     -1.2029614966      0.2767976728
H      -5.5706182679     -1.8536470606     -2.3264303276
H       4.1888372268      3.3349801165      5.4378383813
H      -0.2584913731      1.4823716789     -2.5860089512
H       1.6800329609      2.6017342879     -2.0475691364
H       3.4995111465     -3.0402091795      7.3814514996
H      -5.9712486058      3.0660556546      4.3783969262
12
Frame=416  time=208.500fs  energy=-306.19358012Ha  molecule=COOCCCHHHHHH
C      -0.2012056865     -0.4632035657     -1.3682491959
O       0.4739878601      0.4757740290     -0.7252156592
O       1.6540994057     -0.1433475628     -0.0058179876
C      -0.8103654534      1.8545636510     -0.7057485973
C       0.6132242217      2.7427428720      1.8677892997
C       0.2548678489     -1.2027318943      0.2772609797
H      -5.5812846814     -1.8611576155     -2.3318727870
H       4.1971653145      3.3365960673      5.4504031299
H      -0.2571240343      1.4773865968     -2.5922761114
H       1.6841683303      2.6137769404     -2.0516271145
H       3.5103182214     -3.0439361313      7.3974346114
H      -5.9817154656      3.0767397783      4.3902664768
12
Frame=417  time=209.000fs  energy=-306.19358012Ha  molecule=COOCCCHHHHHH
C      -0.2017095045     -0.4645361355     -1.3712971982
O       0.4721138510      0.4772938944     -0.7268540433
O       1.6530909647     -0.1457614747     -0.0059223252
C      -0.8107923114      1.8557414333     -0.7071456343
C       0.6152144414      2.7431776986      1.8720243007
C       0.2573537686     -1.2025023353      0.2777241991
H      -5.5919490824     -1.8686667534     -2.3373142197
H       4.2054918308      3.3382117132      5.4629655079
H      -0.2557569535      1.4724024552     -2.5985420891
H       1.6883029194      2.6258173207     -2.0556843270
H       3.5211232573     -3.0476623800      7.4134147075
H      -5.9921803505      3.0874218860      4.4021337879
12
Frame=418  time=209.500fs  energy=-306.19358012Ha  molecule=COOCCCHHHHHH
C      -0.2022132277     -0.4658684544     -1.3743446266
O       0.4702401949      0.4788134736     -0.7284921190
O       1.6520827136     -0.1481749322     -0.0060266431
C      -0.8112190890      1.8569189937     -0.7085424083
C       0.6172042864      2.7436124435      1.8762585044
C       0.2598392202     -1.2022728194      0.2781873314
H      -5.6026114755     -1.8761744774     -2.3427546278
H       4.2138167795      3.3398270550      5.4755255206
H      -0.2543901301      1.4674192521     -2.6048068871
H       1.6924367301      2.6378554341     -2.0597407756
H       3.5319262588     -3.0513879270      7.4293917950
H      -6.0026432651      3.0981019826      4.4139988647
12
Frame=419  time=210.000fs  energy=-306.19358012Ha  molecule=COOCCCHHHHHH
C      -0.2027168562     -0.4672005230     -1.3773914825
O       0.4683668907      0.4803327673     -0.7301298869
O       1.6510746519     -0.1505879362     -0.0061309414
C      -0.8116457864      1.8580963329     -0.7099389198
C       0.6191937575      2.7440471066      1.8804919126
C       0.2623242049     -1.2020433468      0.2786503766
H      -5.6132718654     -1.8836807910     -2.3481940138
H       4.2221401641      3.3414420932      5.4880831737
H      -0.2530235634      1.4624369852     -2.6110705080
H       1.6965697641      2.6498912859     -2.0637964621
H       3.5427272307     -3.0551127741      7.4453658808
H      -6.0131042139      3.1087800726      4.4258617124
12
Frame=420  time=210.500fs  energy=-306.19358012Ha  molecule=COOCCCHHHHHH
C      -0.2032203904     -0.4685323418     -1.3804377672
O       0.4664939377      0.4818517762     -0.7317673478
O       1.6500667791     -0.1530004879     -0.0062352202
C      -0.8120724038      1.8592734514     -0.7113351696
C       0.6211828556      2.7444816883      1.8847245271
C       0.2648087237     -1.2018139171      0.2791133351
H      -5.6239302567     -1.8911856973     -2.3536323800
H       4.2304619882      3.3430568287      5.5006384724
H      -0.2516572530      1.4574556523     -2.6173329547
H       1.7007020233      2.6619248812     -2.0678513882
H       3.5535261776     -3.0588369229      7.4613369717
H      -6.0235632016      3.1194561608      4.4377223360
12
Frame=421  time=211.000fs  energy=-306.19358012Ha  molecule=COOCCCHHHHHH
C      -0.2037238303     -0.4698639115     -1.3834834819
O       0.4646213352      0.4833705010     -0.7334045023
O       1.6490590949     -0.1554125882     -0.0063394795
C      -0.8124989415      1.8604503497     -0.7127311581
C       0.6231715817      2.7449161886      1.8889563498
C       0.2672927777     -1.2015845303      0.2795762069
H      -5.6345866541     -1.8986891996     -2.3590697289
H       4.2387822555      3.3446712621      5.5131914223
H      -0.2502911982      1.4524752514     -2.6235942298
H       1.7048335095      2.6739562252     -2.0719055557
H       3.5643231043     -3.0625603750      7.4773050749
H      -6.0340202327      3.1301302517      4.4495807407
12
Frame=422  time=211.500fs  energy=-306.19358012Ha  molecule=COOCCCHHHHHH
C      -0.2042271762     -0.4711952326     -1.3865286281
O       0.4627490822      0.4848889422     -0.7350413512
O       1.6480515989     -0.1578242382     -0.0064437193
C      -0.8129253994      1.8616270283     -0.7141268860
C       0.6251599364      2.7453506079      1.8931873825
C       0.2697763680     -1.2013551864      0.2800389923
H      -5.6452410621     -1.9061913011     -2.3645060627
H       4.2471009696      3.3462853941      5.5257420289
H      -0.2489253984      1.4474957802     -2.6298543360
H       1.7089642243      2.6859853233     -2.0759589665
H       3.5751180155     -3.0662831320      7.4932701971
H      -6.0444753116      3.1408023499      4.4614369318
12
Frame=423  time=212.000fs  energy=-306.19358012Ha  molecule=COOCCCHHHHHH
C      -0.2047304284     -0.4725263058     -1.3895732070
O       0.4608771779      0.4864071005     -0.7366778952
O       1.6470442905     -0.1602354390     -0.0065479397
C      -0.8133517780      1.8628034877     -0.7155223539
C       0.6271479208      2.7457849462      1.8974176270
C       0.2722594957     -1.2011258852      0.2805016915
H      -5.6558934854     -1.9136920051     -2.3699413838
H       4.2554181340      3.3478992255      5.5382902975
H      -0.2475598530      1.4425172366     -2.6361132761
H       1.7130941697      2.6980121805     -2.0800116221
H       3.5859109157     -3.0700051955      7.5092323452
H      -6.0549284429      3.1514724601      4.4732909142
12
Frame=424  time=212.500fs  energy=-306.19358012Ha  molecule=COOCCCHHHHHH
C      -0.2052335870     -0.4738571314     -1.3926172200
O       0.4590056217      0.4879249767     -0.7383141350
O       1.6460371694     -0.1626461915     -0.0066521407
C      -0.8137780773      1.8639797284     -0.7169175625
C       0.6291355356      2.7462192038      1.9016470852
C       0.2747421617     -1.2008966266      0.2809643047
H      -5.6665439285     -1.9211913149     -2.3753756945
H       4.2637337524      3.3495127568      5.5508362335
H      -0.2461945615      1.4375396184     -2.6423710528
H       1.7172233474      2.7100368021     -2.0840635244
H       3.5967018096     -3.0737265671      7.5251915262
H      -6.0653796311      3.1621405869      4.4851426931
12
Frame=425  time=213.000fs  energy=-306.19358012Ha  molecule=COOCCCHHHHHH
C      -0.2057366523     -0.4751877103     -1.3956606684
O       0.4571344125      0.4894425712     -0.7399500713
O       1.6450302350     -0.1650564969     -0.0067563223
C      -0.8142042975      1.8651557509     -0.7183125122
C       0.6311227818      2.7466533808      1.9058757588
C       0.2772243673     -1.2006674106      0.2814268321
H      -5.6771923961     -1.9286892335     -2.3808089973
H       4.2720478284      3.3511259888      5.5633798423
H      -0.2448295232      1.4325629235     -2.6486276687
H       1.7213517592      2.7220591933     -2.0881146751
H       3.6074907020     -3.0774472485      7.5411477470
H      -6.0758288807      3.1728067348      4.4969922736
12
Frame=426  time=213.500fs  energy=-306.19358012Ha  molecule=COOCCCHHHHHH
C      -0.2062396245     -0.4765180428     -1.3987035534
O       0.4552635498      0.4909598849     -0.7415857048
O       1.6440234871     -0.1674663562     -0.0068604847
C      -0.8146304388      1.8663315557     -0.7197072037
C       0.6331096601      2.7470874775      1.9101036497
C       0.2797061134     -1.2004382370      0.2818892739
H      -5.6878388927     -1.9361857644     -2.3862412943
H       4.2803603654      3.3527389223      5.5759211294
H      -0.2434647375      1.4275871498     -2.6548831265
H       1.7254794068      2.7340793591     -2.0921650759
H       3.6182775974     -3.0811672411      7.5571010143
H      -6.0862761962      3.1834709085      4.5088396608
12
Frame=427  time=214.000fs  energy=-306.19358012Ha  molecule=COOCCCHHHHHH
C      -0.2067425038     -0.4778481297     -1.4017458764
O       0.4533930326      0.4924769184     -0.7432210362
O       1.6430169251     -0.1698757703     -0.0069646279
C      -0.8150565014      1.8675071434     -0.7211016376
C       0.6350961715      2.7475214940      1.9143307598
C       0.2821874011     -1.2002091057      0.2823516303
H      -5.6984834229     -1.9436809106     -2.3916725880
H       4.2886713671      3.3543515578      5.5884601001
H      -0.2421002040      1.4226122952     -2.6611374289
H       1.7296062920      2.7460973049     -2.0962147287
H       3.6290625004     -3.0848865467      7.5730513350
H      -6.0967215821      3.1941331124      4.5206848598
12
Frame=428  time=214.500fs  energy=-306.19358012Ha  molecule=COOCCCHHHHHH
C      -0.2072452904     -0.4791779714     -1.4047876387
O       0.4515228601      0.4939936722     -0.7448560661
O       1.6420105486     -0.1722847404     -0.0070687519
C      -0.8154824855      1.8686825144     -0.7224958145
C       0.6370823167      2.7479554304      1.9185570907
C       0.2846682315     -1.1999800166      0.2828139014
H      -5.7091259912     -1.9511746754     -2.3971028807
H       4.2969808370      3.3559638961      5.6009967598
H      -0.2407359219      1.4176383574     -2.6673905786
H       1.7337324166      2.7581130356     -2.1002636350
H       3.6398454156     -3.0886051668      7.5889987159
H      -6.1071650428      3.2047933513      4.5325278756
12
Frame=429  time=215.000fs  energy=-306.19358012Ha  molecule=COOCCCHHHHHH
C      -0.2077479845     -0.4805075685     -1.4078288415
O       0.4496530316      0.4955101471     -0.7464907954
O       1.6410043572     -0.1746932674     -0.0071728567
C      -0.8159083913      1.8698576692     -0.7238897351
C       0.6390680966      2.7483892871      1.9227826444
C       0.2871486056     -1.1997509697      0.2832760875
H      -5.7197666022     -1.9586670620     -2.4025321746
H       4.3052887787      3.3575759379      5.6135311138
H      -0.2393718908      1.4126653344     -2.6736425782
H       1.7378577824      2.7701265564     -2.1043117967
H       3.6506263478     -3.0923231029      7.6049431639
H      -6.1176065828      3.2154516296      4.5443687133
12
Frame=430  time=215.500fs  energy=-306.19358012Ha  molecule=COOCCCHHHHHH
C      -0.2082505864     -0.4818369216     -1.4108694862
O       0.4477835463      0.4970263437     -0.7481252246
O       1.6399983504     -0.1771013524     -0.0072769424
C      -0.8163342189      1.8710326084     -0.7252833997
C       0.6410535121      2.7488230642      1.9270074226
C       0.2896285246     -1.1995219648      0.2837381888
H      -5.7304052604     -1.9661580736     -2.4079604722
H       4.3135951956      3.3591876838      5.6260631674
H      -0.2380081100      1.4076932241     -2.6798934305
H       1.7419823910      2.7821378725     -2.1083592155
H       3.6614053014     -3.0960403568      7.6208846857
H      -6.1280462065      3.2261079518      4.5562073780
12
Frame=431  time=216.000fs  energy=-306.19358012Ha  molecule=COOCCCHHHHHH
C      -0.2087530962     -0.4831660312     -1.4139095741
O       0.4459144033      0.4985422626     -0.7497593546
O       1.6389925279     -0.1795089964     -0.0073810091
C      -0.8167599684      1.8722073324     -0.7266768092
C       0.6430385640      2.7492567618      1.9312314270
C       0.2921079893     -1.1992930018      0.2842002055
H      -5.7410419703     -1.9736477134     -2.4133877756
H       4.3219000915      3.3607991346      5.6385929261
H      -0.2366445789      1.4027220243     -2.6861431380
H       1.7461062443      2.7941469889     -2.1124058931
H       3.6721822810     -3.0997569298      7.6368232881
H      -6.1384839185      3.2367623226      4.5680438746
12
Frame=432  time=216.500fs  energy=-306.19358012Ha  molecule=COOCCCHHHHHH
C      -0.2092555142     -0.4844948980     -1.4169491065
O       0.4440456019      0.5000579045     -0.7513931859
O       1.6379868892     -0.1819162005     -0.0074850567
C      -0.8171856402      1.8733818417     -0.7280699641
C       0.6450232532      2.7496903802      1.9354546596
C       0.2945870010     -1.1990640807      0.2846621378
H      -5.7516767365     -1.9811359844     -2.4188140873
H       4.3302034696      3.3624102909      5.6511203951
H      -0.2352812970      1.3977517330     -2.6923917035
H       1.7502293441      2.8061539109     -2.1164518312
H       3.6829572913     -3.1034728238      7.6527589780
H      -6.1489197230      3.2474147463      4.5798782082
12
Frame=433  time=217.000fs  energy=-306.19358012Ha  molecule=COOCCCHHHHHH
C      -0.2097578406     -0.4858235225     -1.4199880845
O       0.4421771412      0.5015732700     -0.7530267193
O       1.6369814339     -0.1843229656     -0.0075890854
C      -0.8176112344      1.8745561369     -0.7294628649
C       0.6470075804      2.7501239195      1.9396771221
C       0.2970655607     -1.1988352013      0.2851239858
H      -5.7623095634     -1.9886228901     -2.4242394095
H       4.3385053337      3.3640211534      5.6636455797
H      -0.2339182637      1.3927823479     -2.6986391296
H       1.7543516919      2.8181586433     -2.1204970315
H       3.6937303367     -3.1071880401      7.6686917619
H      -6.1593536246      3.2580652277      4.5917103839
12
Frame=434  time=217.500fs  energy=-306.19358012Ha  molecule=COOCCCHHHHHH
C      -0.2102600755     -0.4871519052     -1.4230265096
O       0.4403090206      0.5030883598     -0.7546599554
O       1.6359761615     -0.1867292927     -0.0076930951
C      -0.8180367512      1.8757302183     -0.7308555122
C       0.6489915466      2.7505573799      1.9438988163
C       0.2995436693     -1.1986063636      0.2855857498
H      -5.7729404556     -1.9961084333     -2.4296637445
H       4.3468056872      3.3656317228      5.6761684852
H      -0.2325554784      1.3878138672     -2.7048854188
H       1.7584732897      2.8301611914     -2.1245414957
H       3.7045014219     -3.1109025804      7.6846216467
H      -6.1697856276      3.2687137710      4.6035404066
12
Frame=435  time=218.000fs  energy=-306.19358012Ha  molecule=COOCCCHHHHHH
C      -0.2107622193     -0.4884800467     -1.4260643831
O       0.4384412391      0.5046031745     -0.7562928950
O       1.6349710717     -0.1891351829     -0.0077970859
C      -0.8184621906      1.8769040866     -0.7322479067
C       0.6509751525      2.7509907616      1.9481197439
C       0.3020213280     -1.1983775674      0.2860474299
H      -5.7835694175     -2.0035926175     -2.4350870947
H       4.3551045335      3.3672419997      5.6886891169
H      -0.2311929406      1.3828462885     -2.7111305740
H       1.7625941391      2.8421615601     -2.1285852256
H       3.7152705513     -3.1146164463      7.7005486392
H      -6.1802157365      3.2793603809      4.6153682812
12
Frame=436  time=218.500fs  energy=-306.19358012Ha  molecule=COOCCCHHHHHH
C      -0.2112642721     -0.4898079475     -1.4291017061
O       0.4365737960      0.5061177147     -0.7579255388
O       1.6339661639     -0.1915406373     -0.0079010579
C      -0.8188875530      1.8780777422     -0.7336400489
C       0.6529583991      2.7514240648      1.9523399068
C       0.3044985378     -1.1981488127      0.2865090264
H      -5.7941964536     -2.0110754456     -2.4405094621
H       4.3634018763      3.3688519849      5.7012074801
H      -0.2298306496      1.3778796099     -2.7173745976
H       1.7667142419      2.8541597546     -2.1326282228
H       3.7260377296     -3.1183296393      7.7164727459
H      -6.1906439556      3.2900050618      4.6271940129
12
Frame=437  time=219.000fs  energy=-306.19358012Ha  molecule=COOCCCHHHHHH
C      -0.2117662342     -0.4911356083     -1.4321384799
O       0.4347066906      0.5076319811     -0.7595578874
O       1.6329614379     -0.1939456567     -0.0080050111
C      -0.8193128385      1.8792511857     -0.7350319394
C       0.6549412871      2.7518572897      1.9565593067
C       0.3069752997     -1.1979200993      0.2869705394
H      -5.8048215684     -2.0185569209     -2.4459308493
H       4.3716977189      3.3704616790      5.7137235800
H      -0.2284686049      1.3729138292     -2.7236174923
H       1.7708335998      2.8661557799     -2.1366704891
H       3.7368029612     -3.1220421609      7.7323939736
H      -6.2010702893      3.3006478182      4.6390176065
12
Frame=438  time=219.500fs  energy=-306.19358012Ha  molecule=COOCCCHHHHHH
C      -0.2122681057     -0.4924630296     -1.4351747060
O       0.4328399220      0.5091459744     -0.7611899414
O       1.6319568931     -0.1963502422     -0.0081089456
C      -0.8197380473      1.8804244174     -0.7364235788
C       0.6569238173      2.7522904364      1.9607779454
C       0.3094516148     -1.1976914272      0.2874319692
H      -5.8154447664     -2.0260370464     -2.4513512584
H       4.3799920649      3.3720710827      5.7262374219
H      -0.2271068060      1.3679489445     -2.7298592607
H       1.7749522145      2.8781496410     -2.1407120261
H       3.7475662507     -3.1257540128      7.7483123290
H      -6.2114947421      3.3112886545      4.6508390671
12
Frame=439  time=220.000fs  energy=-306.19358012Ha  molecule=COOCCCHHHHHH
C      -0.2127698868     -0.4937902119     -1.4382103854
O       0.4309734895      0.5106596950     -0.7628217017
O       1.6309525291     -0.1987543949     -0.0082128613
C      -0.8201631795      1.8815974379     -0.7378149677
C       0.6589059907      2.7527235051      1.9649958246
C       0.3119274840     -1.1974627963      0.2878933159
H      -5.8260660519     -2.0335158254     -2.4567706917
H       4.3882849177      3.3736801967      5.7387490110
H      -0.2257452522      1.3629849535     -2.7360999055
H       1.7790700878      2.8901413429     -2.1447528355
H       3.7583276026     -3.1294651964      7.7642278187
H      -6.2219173182      3.3219275752      4.6626583995
12
Frame=440  time=220.500fs  energy=-306.19358012Ha  molecule=COOCCCHHHHHH
C      -0.2132715778     -0.4951171558     -1.4412455195
O       0.4291073923      0.5121731438     -0.7644531688
O       1.6299483456     -0.2011581157     -0.0083167584
C      -0.8205882353      1.8827702477     -0.7392061066
C       0.6608878080      2.7531564960      1.9692129461
C       0.3144029086     -1.1972342064      0.2883545797
H      -5.8366854295     -2.0409932608     -2.4621891514
H       4.3965762808      3.3752890217      5.7512583526
H      -0.2243839430      1.3580218542     -2.7423394293
H       1.7831872213      2.9021308907     -2.1487929191
H       3.7690870213     -3.1331757134      7.7801404494
H      -6.2323380220      3.3325645848      4.6744756087
12
Frame=441  time=221.000fs  energy=-306.19358012Ha  molecule=COOCCCHHHHHH
C      -0.2137731788     -0.4964438618     -1.4442801095
O       0.4272416295      0.5136863212     -0.7660843435
O       1.6289443421     -0.2035614056     -0.0084206369
C      -0.8210132150      1.8839428473     -0.7405969962
C       0.6628692700      2.7535894093      1.9734293118
C       0.3168778894     -1.1970056575      0.2888157609
H      -5.8473029035     -2.0484693560     -2.4676066399
H       4.4048661577      3.3768975582      5.7637654519
H      -0.2230228778      1.3530596445     -2.7485778345
H       1.7873036169      2.9141182893     -2.1528322785
H       3.7798445113     -3.1368855653      7.7960502277
H      -6.2427568579      3.3431996877      4.6862906997
12
Frame=442  time=221.500fs  energy=-306.19358012Ha  molecule=COOCCCHHHHHH
C      -0.2142746902     -0.4977703306     -1.4473141568
O       0.4253762005      0.5151992280     -0.7677152265
O       1.6279405181     -0.2059642657     -0.0085244967
C      -0.8214381186      1.8851152371     -0.7419876369
C       0.6648503777      2.7540222452      1.9776449232
C       0.3193524275     -1.1967771495      0.2892768595
H      -5.8579184784     -2.0559441139     -2.4730231594
H       4.4131545517      3.3785058070      5.7762703140
H      -0.2216620560      1.3480983225     -2.7548151240
H       1.7914192761      2.9261035437     -2.1568709153
H       3.7906000772     -3.1405947536      7.8119571603
H      -6.2531738302      3.3538328883      4.6981036773
12
Frame=443  time=222.000fs  energy=-306.19358012Ha  molecule=COOCCCHHHHHH
C      -0.2147761120     -0.4990965625     -1.4503476625
O       0.4235111044      0.5167118648     -0.7693458183
O       1.6269368733     -0.2083666968     -0.0086283381
C      -0.8218629464      1.8862874177     -0.7433780295
C       0.6668311317      2.7544550038      1.9818597822
C       0.3218265239     -1.1965486823      0.2897378759
H      -5.8685321585     -2.0634175376     -2.4784387121
H       4.4214414664      3.3801137688      5.7887729442
H      -0.2203014772      1.3431378860     -2.7610513001
H       1.7955342008      2.9380866590     -2.1609088313
H       3.8013537234     -3.1443032799      7.8278612537
H      -6.2635889432      3.3644641911      4.7099145465
12
Frame=444  time=222.500fs  energy=-306.19358012Ha  molecule=COOCCCHHHHHH
C      -0.2152774445     -0.5004225583     -1.4533806279
O       0.4216463405      0.5182242322     -0.7709761198
O       1.6259334073     -0.2107687001     -0.0087321609
C      -0.8222876986      1.8874593895     -0.7447681744
C       0.6688115329      2.7548876854      1.9860738905
C       0.3243001797     -1.1963202558      0.2901988102
H      -5.8791439484     -2.0708896304     -2.4838533002
H       4.4297269052      3.3817214442      5.8012733477
H      -0.2189411406      1.3381783329     -2.7672863656
H       1.7996483926      2.9500676400     -2.1649460282
H       3.8121054543     -3.1480111456      7.8437625146
H      -6.2740022012      3.3750936004      4.7217233121
12
Frame=445  time=223.000fs  energy=-306.19358012Ha  molecule=COOCCCHHHHHH
C      -0.2157786880     -0.5017483184     -1.4564130544
O       0.4197819081      0.5197363308     -0.7726061315
O       1.6249301196     -0.2131702765     -0.0088359653
C      -0.8227123752      1.8886311530     -0.7461580723
C       0.6707915822      2.7553202900      1.9902872499
C       0.3267733959     -1.1960918698      0.2906596625
H      -5.8897538523     -2.0783603952     -2.4892669261
H       4.4380108715      3.3833288339      5.8137715295
H      -0.2175810459      1.3332196613     -2.7735203230
H       1.8037618532      2.9620464918     -2.1689825075
H       3.8228552744     -3.1517183524      7.8596609495
H      -6.2844136086      3.3857211206      4.7335299791
12
Frame=446  time=223.500fs  energy=-306.19358012Ha  molecule=COOCCCHHHHHH
C      -0.2162798425     -0.5030738434     -1.4594449430
O       0.4179178062      0.5212481612     -0.7742358541
O       1.6239270098     -0.2155714270     -0.0089397513
C      -0.8231369765      1.8898027087     -0.7475477237
C       0.6727712804      2.7557528179      1.9944998621
C       0.3292461735     -1.1958635244      0.2911204331
H      -5.9003618746     -2.0858298351     -2.4946795920
H       4.4462933688      3.3849359385      5.8262674950
H      -0.2162211923      1.3282618690     -2.7797531749
H       1.8078745844      2.9740232192     -2.1730182711
H       3.8336031881     -3.1554249018      7.8755565650
H      -6.2948231697      3.3963467561      4.7453345523
12
Frame=447  time=224.000fs  energy=-306.19358012Ha  molecule=COOCCCHHHHHH
C      -0.2167809084     -0.5043991339     -1.4624762952
O       0.4160540342      0.5227597241     -0.7758652883
O       1.6229240776     -0.2179721526     -0.0090435189
C      -0.8235615027      1.8909740571     -0.7489371292
C       0.6747506282      2.7561852693      1.9987117289
C       0.3317185135     -1.1956352193      0.2915811222
H      -5.9109680198     -2.0932979532     -2.5000913000
H       4.4545744003      3.3865427588      5.8387612492
H      -0.2148615793      1.3233049540     -2.7859849238
H       1.8119865877      2.9859978273     -2.1770533205
H       3.8443492000     -3.1591307953      7.8914493676
H      -6.3052308887      3.4069705114      4.7571370365
12
Frame=448  time=224.500fs  energy=-306.19358012Ha  molecule=COOCCCHHHHHH
C      -0.2172818858     -0.5057241903     -1.4655071121
O       0.4141905914      0.5242710201     -0.7774944349
O       1.6219213224     -0.2203724543     -0.0091472682
C      -0.8239859540      1.8921451987     -0.7503262894
C       0.6767296265      2.7566176443      2.0029228519
C       0.3341904169     -1.1954069546      0.2920417299
H      -5.9215722922     -2.1007647527     -2.5055020524
H       4.4628539696      3.3881492953      5.8512527973
H      -0.2135022065      1.3183489143     -2.7922155723
H       1.8160978650      2.9979703209     -2.1810876573
H       3.8550933143     -3.1628360344      7.9073393639
H      -6.3156367699      3.4175923907      4.7689374368
12
Frame=449  time=225.000fs  energy=-306.19358012Ha  molecule=COOCCCHHHHHH
C      -0.2177827749     -0.5070490132     -1.4685373949
O       0.4123274768      0.5257820498     -0.7791232943
O       1.6209187439     -0.2227723331     -0.0092509992
C      -0.8244103304      1.8933161339     -0.7517152047
C       0.6787082762      2.7570499432      2.0071332329
C       0.3366618848     -1.1951787301      0.2925022564
H      -5.9321746960     -2.1082302365     -2.5109118515
H       4.4711320801      3.3897555487      5.8637421443
H      -0.2121430731      1.3133937479     -2.7984451230
H       1.8202084179      3.0099407050     -2.1851212834
H       3.8658355355     -3.1665406206      7.9232265604
H      -6.3260408176      3.4282123985      4.7807357577
12
Frame=450  time=225.500fs  energy=-306.19358012Ha  molecule=COOCCCHHHHHH
C      -0.2182835759     -0.5083736033     -1.4715671450
O       0.4104646899      0.5272928138     -0.7807518674
O       1.6199163417     -0.2251717899     -0.0093547120
C      -0.8248346323      1.8944868633     -0.7531038759
C       0.6806865779      2.7574821660      2.0113428737
C       0.3391329182     -1.1949505458      0.2929627020
H      -5.9427752358     -2.1156944077     -2.5163206994
H       4.4794087351      3.3913615197      5.8762292955
H      -0.2107841788      1.3084394527     -2.8046735784
H       1.8243182480      3.0219089844     -2.1891542002
H       3.8765758680     -3.1702445555      7.9391109635
H      -6.3364430361      3.4388305390      4.7925320043
12
Frame=451  time=226.000fs  energy=-306.19358012Ha  molecule=COOCCCHHHHHH
C      -0.2187842891     -0.5096979609     -1.4745963635
O       0.4086022297      0.5288033128     -0.7823801547
O       1.6189141154     -0.2275708258     -0.0094584065
C      -0.8252588597      1.8956573872     -0.7544923035
C       0.6826645325      2.7579143130      2.0155517759
C       0.3416035180     -1.1947224014      0.2934230669
H      -5.9533739158     -2.1231572694     -2.5217285984
H       4.4876839380      3.3929672090      5.8887142559
H      -0.2094255228      1.3034860267     -2.8109009411
H       1.8284273571      3.0338751641     -2.1931864095
H       3.8873143162     -3.1739478405      7.9549925799
H      -6.3468434295      3.4494468167      4.8043261814
12
Frame=452  time=226.500fs  energy=-306.19358012Ha  molecule=COOCCCHHHHHH
C      -0.2192849146     -0.5110220867     -1.4776250517
O       0.4067400956      0.5303135473     -0.7840081570
O       1.6179120645     -0.2299694416     -0.0095620830
C      -0.8256830128      1.8968277062     -0.7558804879
C       0.6846421409      2.7583463844      2.0197599413
C       0.3440736853     -1.1944942970      0.2938833511
H      -5.9639707403     -2.1306188245     -2.5271355506
H       4.4959576923      3.3945726172      5.9011970306
H      -0.2080671047      1.2985334679     -2.8171272136
H       1.8325357468      3.0458392489     -2.1972179129
H       3.8980508844     -3.1776504772      7.9708714160
H      -6.3572420023      3.4600612358      4.8161182937
12
Frame=453  time=227.000fs  energy=-306.19358012Ha  molecule=COOCCCHHHHHH
C      -0.2197854527     -0.5123459811     -1.4806532108
O       0.4048782868      0.5318235181     -0.7856358749
O       1.6169101887     -0.2323676385     -0.0096657413
C      -0.8261070918      1.8979978208     -0.7572684299
C       0.6866194038      2.7587783803      2.0239673715
C       0.3465434211     -1.1942662325      0.2943435549
H      -5.9745657137     -2.1380790763     -2.5325415583
H       4.5042300011      3.3961777449      5.9136776247
H      -0.2067089239      1.2935817742     -2.8233523984
H       1.8366434189      3.0578012437     -2.2012487120
H       3.9087855771     -3.1813524672      7.9867474782
H      -6.3676387585      3.4706738007      4.8279083460
12
Frame=454  time=227.500fs  energy=-306.19358012Ha  molecule=COOCCCHHHHHH
C      -0.2202859035     -0.5136696448     -1.4836808421
O       0.4030168025      0.5333332256     -0.7872633091
O       1.6159084875     -0.2347654173     -0.0097693815
C      -0.8265310969      1.8991677314     -0.7586561300
C       0.6885963221      2.7592103008      2.0281740684
C       0.3490127264     -1.1940382077      0.2948036785
H      -5.9851588402     -2.1455380276     -2.5379466237
H       4.5125008681      3.3977825928      5.9261560433
H      -0.2053509798      1.2886309437     -2.8295764980
H       1.8407503749      3.0697611534     -2.2052788085
H       3.9195183986     -3.1850538118      8.0026207730
H      -6.3780337024      3.4812845157      4.8396963432
12
Frame=455  time=228.000fs  energy=-306.19358012Ha  molecule=COOCCCHHHHHH
C      -0.2207862673     -0.5149930783     -1.4867079467
O       0.4011556421      0.5348426705     -0.7888904602
O       1.6149069605     -0.2371627790     -0.0098730037
C      -0.8269550283      1.9003374386     -0.7600435886
C       0.6905728965      2.7596421463      2.0323800335
C       0.3514816022     -1.1938102225      0.2952637220
H      -5.9957501242     -2.1529956815     -2.5433507489
H       4.5207702964      3.3993871616      5.9386322914
H      -0.2039932719      1.2836809743     -2.8357995151
H       1.8448566166      3.0817189828     -2.2093082040
H       3.9302493532     -3.1887545126      8.0184913068
H      -6.3884268382      3.4918933851      4.8514822899
12
Frame=456  time=228.500fs  energy=-306.19358012Ha  molecule=COOCCCHHHHHH
C      -0.2212865442     -0.5163162820     -1.4897345260
O       0.3992948046      0.5363518534     -0.7905173289
O       1.6139056073     -0.2395597247     -0.0099766080
C      -0.8273788861      1.9015069427     -0.7614308065
C       0.6925491278      2.7600739168      2.0365852686
C       0.3539500495     -1.1935822770      0.2957236857
H      -6.0063395699     -2.1604520410     -2.5487539362
H       4.5290382894      3.4009914519      5.9511063741
H      -0.2026357997      1.2787318640     -2.8420214521
H       1.8489621456      3.0936747367     -2.2133369002
H       3.9409784454     -3.1924545711      8.0343590861
H      -6.3988181702      3.5025004131      4.8632661911
12
Frame=457  time=229.000fs  energy=-306.19358012Ha  molecule=COOCCCHHHHHH
C      -0.2217867345     -0.5176392566     -1.4927605810
O       0.3974342894      0.5378607750     -0.7921439158
O       1.6129044276     -0.2419562552     -0.0100801943
C      -0.8278026704      1.9026762442     -0.7628177841
C       0.6945250169      2.7605056125      2.0407897755
C       0.3564180693     -1.1933543709      0.2961835698
H      -6.0169271817     -2.1679071092     -2.5541561876
H       4.5373048505      3.4025954644      5.9635782964
H      -0.2012785626      1.2737836109     -2.8482423115
H       1.8530669635      3.1056284201     -2.2173648986
H       3.9517056794     -3.1961539888      8.0502241173
H      -6.4092077025      3.5131056042      4.8750480515
12
Frame=458  time=229.500fs  energy=-306.19358012Ha  molecule=COOCCCHHHHHH
C      -0.2222868383     -0.5189620026     -1.4957861132
O       0.3955740958      0.5393694358     -0.7937702217
O       1.6119034209     -0.2443523715     -0.0101837626
C      -0.8282263816      1.9038453437     -0.7642045220
C       0.6965005645      2.7609372336      2.0449935557
C       0.3588856626     -1.1931265042      0.2966433744
H      -6.0275129637     -2.1753608891     -2.5595575055
H       4.5455699830      3.4041991996      5.9760480634
H      -0.1999215600      1.2688362129     -2.8544620958
H       1.8571710721      3.1175800376     -2.2213922009
H       3.9624310595     -3.1998527672      8.0660864067
H      -6.4195954393      3.5237089625      4.8868278757
12
Frame=459  time=230.000fs  energy=-306.19358012Ha  molecule=COOCCCHHHHHH
C      -0.2227868559     -0.5202845205     -1.4988111236
O       0.3937142229      0.5408778364     -0.7953962470
O       1.6109025869     -0.2467480747     -0.0102873132
C      -0.8286500197      1.9050142416     -0.7655910208
C       0.6984757714      2.7613687803      2.0491966110
C       0.3613528303     -1.1928986768      0.2971030996
H      -6.0380969203     -2.1828133835     -2.5649578920
H       4.5538336902      3.4058026583      5.9885156800
H      -0.1985647915      1.2638896681     -2.8606808076
H       1.8612744729      3.1295295942     -2.2254188088
H       3.9731545901     -3.2035509077      8.0819459607
H      -6.4299813848      3.5343104923      4.8986056686
12
Frame=460  time=230.500fs  energy=-306.19358012Ha  molecule=COOCCCHHHHHH
C      -0.2232867875     -0.5216068108     -1.5018356135
O       0.3918546701      0.5423859775     -0.7970219926
O       1.6099019250     -0.2491433657     -0.0103908459
C      -0.8290735848      1.9061829384     -0.7669772810
C       0.7004506385      2.7618002527      2.0533989431
C       0.3638195735     -1.1926708886      0.2975627458
H      -6.0486790556     -2.1902645956     -2.5703573492
H       4.5620959755      3.4074058411      6.0009811513
H      -0.1972082564      1.2589439744     -2.8668984493
H       1.8653771677      3.1414770946     -2.2294447238
H       3.9838762755     -3.2072484119      8.0978027858
H      -6.4403655432      3.5449101978      4.9103814348
12
Frame=461  time=231.000fs  energy=-306.19358012Ha  molecule=COOCCCHHHHHH
C      -0.2237866332     -0.5229288740     -1.5048595840
O       0.3899954365      0.5438938596     -0.7986474591
O       1.6089014350     -0.2515382453     -0.0104943608
C      -0.8294970773      1.9073514344     -0.7683633032
C       0.7024251664      2.7622316510      2.0576005536
C       0.3662858932     -1.1924431395      0.2980223131
H      -6.0592593741     -2.1977145283     -2.5757558793
H       4.5703568421      3.4090087486      6.0134444823
H      -0.1958519542      1.2539991299     -2.8731150235
H       1.8694791580      3.1534225436     -2.2334699475
H       3.9945961200     -3.2109452813      8.1136568882
H      -6.4507479186      3.5555080834      4.9221551791
12
Frame=462  time=231.500fs  energy=-306.19358012Ha  molecule=COOCCCHHHHHH
C      -0.2242863933     -0.5242507108     -1.5078830365
O       0.3881365215      0.5454014834     -0.8002726470
O       1.6079011163     -0.2539327147     -0.0105978580
C      -0.8299204972      1.9085197303     -0.7697490879
C       0.7043993561      2.7626629755      2.0618014443
C       0.3687517903     -1.1922154294      0.2984818016
H      -6.0698378797     -2.2051631846     -2.5811534845
H       4.5786162934      3.4106113815      6.0259056779
H      -0.1944958844      1.2490551326     -2.8793305325
H       1.8735804455      3.1653659460     -2.2374944816
H       4.0053141278     -3.2146415172      8.1295082744
H      -6.4611285152      3.5661041533      4.9339269062
12
Frame=463  time=232.000fs  energy=-306.19358012Ha  molecule=COOCCCHHHHHH
C      -0.2247860679     -0.5255723215     -1.5109059721
O       0.3862779243      0.5469088494     -0.8018975571
O       1.6069009687     -0.2563267746     -0.0107013375
C      -0.8303438447      1.9096878265     -0.7711346357
C       0.7063732083      2.7630942261      2.0660016168
C       0.3712172658     -1.1919877583      0.2989412116
H      -6.0804145769     -2.2126105675     -2.5865501669
H       4.5868743327      3.4122137404      6.0383647431
H      -0.1931400464      1.2441119805     -2.8855449789
H       1.8776810319      3.1773073065     -2.2415183276
H       4.0160303033     -3.2183371212      8.1453569505
H      -6.4715073371      3.5766984116      4.9456966209
12
Frame=464  time=232.500fs  energy=-306.19358012Ha  molecule=COOCCCHHHHHH
C      -0.2252856573     -0.5268937068     -1.5139283920
O       0.3844196442      0.5484159583     -0.8035221900
O       1.6059009917     -0.2587204262     -0.0108047994
C      -0.8307671199      1.9108557234     -0.7725199471
C       0.7083467237      2.7635254033      2.0702010727
C       0.3736823208     -1.1917601260      0.2994005432
H      -6.0909894698     -2.2200566799     -2.5919459286
H       4.5951309632      3.4138158259      6.0508216829
H      -0.1917844398      1.2391696717     -2.8917583652
H       1.8817809187      3.1892466299     -2.2455414872
H       4.0267446507     -3.2220320948      8.1612029231
H      -6.4818843885      3.5872908627      4.9574643277
12
Frame=465  time=233.000fs  energy=-306.19358012Ha  molecule=COOCCCHHHHHH
C      -0.2257851617     -0.5282148672     -1.5169502974
O       0.3825616803      0.5499228107     -0.8051465464
O       1.6049011849     -0.2611136703     -0.0109082436
C      -0.8311903232      1.9120234214     -0.7739050227
C       0.7103199032      2.7639565070      2.0743998138
C       0.3761469561     -1.1915325324      0.2998597966
H      -6.1015625625     -2.2275015249     -2.5973407719
H       4.6033861882      3.4154176387      6.0632765023
H      -0.1904290638      1.2342282042     -2.8979706939
H       1.8858801077      3.2011839210     -2.2495639620
H       4.0374571742     -3.2257264394      8.1770461982
H      -6.4922596734      3.5978815107      4.9692300313
12
Frame=466  time=233.500fs  energy=-306.19358012Ha  molecule=COOCCCHHHHHH
C      -0.2262845812     -0.5295358032     -1.5199716895
O       0.3807040321      0.5514294071     -0.8067706268
O       1.6039015480     -0.2635065080     -0.0110116703
C      -0.8316134545      1.9131909212     -0.7752898631
C       0.7122927475      2.7643875375      2.0785978418
C       0.3786111728     -1.1913049775      0.3003189720
H      -6.1121338594     -2.2349451052     -2.6027346989
H       4.6116400110      3.4170191795      6.0757292061
H      -0.1890739181      1.2292875761     -2.9041819673
H       1.8899786003      3.2131191844     -2.2535857535
H       4.0481678782     -3.2294201566      8.1928867823
H      -6.5026331961      3.6084703597      4.9809937365
12
Frame=467  time=234.000fs  energy=-306.19358012Ha  molecule=COOCCCHHHHHH
C      -0.2267839161     -0.5308565153     -1.5229925695
O       0.3788466987      0.5529357481     -0.8083944320
O       1.6029020804     -0.2658989400     -0.0111150794
C      -0.8320365142      1.9143582230     -0.7766744687
C       0.7142652575      2.7648184949      2.0827951582
C       0.3810749719     -1.1910774612      0.3007780695
H      -6.1227033646     -2.2423874240     -2.6081277116
H       4.6198924349      3.4186204488      6.0881797994
H      -0.1877190021      1.2243477853     -2.9103921880
H       1.8940763983      3.2250524250     -2.2576068634
H       4.0588767668     -3.2331132476      8.2087246816
H      -6.5130049606      3.6190574141      4.9927554479
12
Frame=468  time=234.500fs  energy=-306.19358012Ha  molecule=COOCCCHHHHHH
C      -0.2272831665     -0.5321770040     -1.5260129387
O       0.3769896794      0.5544418344     -0.8100179626
O       1.6019027819     -0.2682909675     -0.0112184711
C      -0.8324595022      1.9155253275     -0.7780588402
C       0.7162374339      2.7652493795      2.0869917648
C       0.3835383542     -1.1908499834      0.3012370895
H      -6.1332710822     -2.2498284841     -2.6135198123
H       4.6281434631      3.4202214473      6.1006282869
H      -0.1863643152      1.2194088299     -2.9166013584
H       1.8981735033      3.2369836473     -2.2616272932
H       4.0695838443     -3.2368057141      8.2245599024
H      -6.5233749709      3.6296426780      5.0045151702
12
Frame=469  time=235.000fs  energy=-306.19358012Ha  molecule=COOCCCHHHHHH
C      -0.2277823327     -0.5334972699     -1.5290327981
O       0.3751329736      0.5559476666     -0.8116412192
O       1.6009036521     -0.2706825912     -0.0113218453
C      -0.8328824189      1.9166922350     -0.7794429781
C       0.7182092774      2.7656801913      2.0911876631
C       0.3860013209     -1.1906225439      0.3016960319
H      -6.1438370165     -2.2572682885     -2.6189110030
H       4.6363930990      3.4218221756      6.1130746738
H      -0.1850098570      1.2144707080     -2.9228094810
H       1.9022699169      3.2489128563     -2.2656470446
H       4.0802891149     -3.2404975575      8.2403924509
H      -6.5337432313      3.6402261556      5.0162729079
12
Frame=470  time=235.500fs  energy=-306.19358012Ha  molecule=COOCCCHHHHHH
C      -0.2282814148     -0.5348173135     -1.5320521490
O       0.3732765803      0.5574532451     -0.8132642025
O       1.5999046905     -0.2730738123     -0.0114252021
C      -0.8333052644      1.9178589460     -0.7808268828
C       0.7201807889      2.7661109306      2.0953828549
C       0.3884638728     -1.1903951427      0.3021548971
H      -6.1544011715     -2.2647068401     -2.6243012858
H       4.6446413456      3.4234226344      6.1255189647
H      -0.1836556268      1.2095334177     -2.9290165582
H       1.9063656407      3.2608400564     -2.2696661191
H       4.0909925829     -3.2441887792      8.2562223333
H      -6.5441097458      3.6508078510      5.0280286656
