12
Frame=0  time=0.500fs  energy=-306.20593097Ha  molecule=COOCCCHHHHHH
C       0.0731652068      0.3455677291      0.0016042021
O       1.3426587356      0.3041747411      0.0009017281
O       1.9749369543     -0.8800758594     -0.0009339847
C      -0.7153611487     -0.8713050966     -0.0022633304
C      -2.0529413426     -0.8768518160      0.0033916918
C      -0.5103003920      1.7225700269     -0.0063337968
H      -0.1102138506     -1.7529024423      0.0062456356
H      -2.6245111858     -0.0111047320      0.0085621687
H      -2.6394017868     -1.8093061015     -0.0282018181
H       0.3016778685      2.4805219502      0.0142765285
H      -1.1388156956      1.8915662465      0.8666567461
H      -1.1385968638      1.8793267511     -0.8241135743
12
Frame=1  time=1.000fs  energy=-306.19207371Ha  molecule=COOCCCHHHHHH
C       0.0803989843      0.3432886683      0.0032103223
O       1.3456254870      0.3047486684      0.0017998647
O       1.9731496453     -0.8808995468     -0.0018630728
C      -0.7186882658     -0.8700742699     -0.0044561429
C      -2.0555012282     -0.8743196426      0.0067018687
C      -0.5115758821      1.7196028997     -0.0120340772
H      -0.0960703331     -1.7280000271      0.0119884857
H      -2.6109244845     -0.0439941166      0.0171299834
H      -2.6753240221     -1.8018009787     -0.0558150251
H       0.3030590077      2.4979484025      0.0278917762
H      -1.1431747727      1.8991217861      0.8513473090
H      -1.1469976173      1.8764652747     -0.7731529083
12
Frame=2  time=1.500fs  energy=-306.20451492Ha  molecule=COOCCCHHHHHH
C       0.0876368884      0.3409191083      0.0048236115
O       1.3484855222      0.3054073362      0.0027171680
O       1.9713638484     -0.8817669029     -0.0027873010
C      -0.7237633907     -0.8669282042     -0.0065710193
C      -2.0546749184     -0.8815900932      0.0099425523
C      -0.5058165352      1.7179309814     -0.0126153249
H      -0.0666319592     -1.7272310655      0.0172641868
H      -2.6524315067      0.0086933589      0.0258304847
H      -2.6897396544     -1.7612940845     -0.0830564928
H       0.2736991857      2.4872673469      0.0420794624
H      -1.1512278505      1.9072178205      0.8455581460
H      -1.2044015091      1.8857070301     -0.7938900019
12
Frame=3  time=2.000fs  energy=-306.20142572Ha  molecule=COOCCCHHHHHH
C       0.0943109201      0.3387654141      0.0064217766
O       1.3514334728      0.3060567991      0.0036238010
O       1.9696512903     -0.8826877770     -0.0037009837
C      -0.7285800197     -0.8638049894     -0.0085776366
C      -2.0540142363     -0.8888105079      0.0130493072
C      -0.4998385151      1.7163559605     -0.0127183730
H      -0.0377718367     -1.7285106683      0.0217489831
H      -2.6940232392      0.0641774362      0.0345504598
H      -2.7022609451     -1.7229166056     -0.1092907113
H       0.2443099310      2.4764374456      0.0546759736
H      -1.1591500368      1.9136739721      0.8428112801
H      -1.2626893593      1.8950635350     -0.8215243509
12
Frame=4  time=2.500fs  energy=-306.16437898Ha  molecule=COOCCCHHHHHH
C       0.1002446835      0.3367135853      0.0080006126
O       1.3544673335      0.3066837708      0.0045237802
O       1.9679838441     -0.8836705280     -0.0046072369
C      -0.7326143847     -0.8591239712     -0.0105170790
C      -2.0545283904     -0.8914976947      0.0160733341
C      -0.4940354082      1.7147260558     -0.0127357848
H      -0.0010417293     -1.7472108997      0.0257541502
H      -2.7179534269      0.0981759996      0.0432879360
H      -2.7306535634     -1.7174278992     -0.1348971911
H       0.2165241240      2.4672964553      0.0661735644
H      -1.1666803314      1.9189729516      0.8412542553
H      -1.3191287694      1.9038794713     -0.8500323485
12
Frame=5  time=3.000fs  energy=-306.16234146Ha  molecule=COOCCCHHHHHH
C       0.1026141054      0.3348333769      0.0096242085
O       1.3588449898      0.3071438726      0.0054142771
O       1.9665446855     -0.8847389889     -0.0055139603
C      -0.7235017125     -0.8661330507     -0.0124419849
C      -2.0650703920     -0.8795814765      0.0190692281
C      -0.4981616246      1.7073775762     -0.0158405000
H      -0.0597569583     -1.6218197131      0.0295772585
H      -2.6523903074     -0.0005493356      0.0520089245
H      -2.7816408335     -1.7539755200     -0.1602420427
H       0.2705983223      2.5382910264      0.0740260440
H      -1.1674699621      1.9191286872      0.8318742509
H      -1.3369495625      1.9037646357     -0.8305592250
12
Frame=6  time=3.500fs  energy=-306.15883254Ha  molecule=COOCCCHHHHHH
C       0.1022488756      0.3354948914      0.0115169281
O       1.3645624649      0.3074050051      0.0062982599
O       1.9650501879     -0.8858416133     -0.0064240041
C      -0.7273767066     -0.8561721352     -0.0143957794
C      -2.0743193745     -0.8789537760      0.0220457110
C      -0.5053142946      1.7022934040     -0.0206188108
H       0.0064022560     -1.7100098948      0.0332707441
H      -2.6178954669     -0.0338583576      0.0608562293
H      -2.7835343482     -1.7237781248     -0.1854063771
H       0.3021928234      2.5913543010      0.0697539330
H      -1.1498840497      1.9041773689      0.8162960351
H      -1.3059451812      1.8968355387     -0.7754726219
12
Frame=7  time=4.000fs  energy=-306.15088809Ha  molecule=COOCCCHHHHHH
C       0.1027960395      0.3396462463      0.0136015662
O       1.3698996753      0.3070029089      0.0071782578
O       1.9637011573     -0.8867787199     -0.0073331063
C      -0.7322369739     -0.8499168636     -0.0163696896
C      -2.0755353085     -0.8866755226      0.0250006858
C      -0.4940496215      1.7090575223     -0.0247785124
H       0.0447408051     -1.7715061570      0.0368610677
H      -2.6456280943      0.0516222277      0.0698091472
H      -2.7868415490     -1.7170925413     -0.2103974826
H       0.1722443218      2.4859361409      0.0573453519
H      -1.1637983722      1.8871152049      0.8679719905
H      -1.3010333661      1.8973051880     -0.7887936526
12
Frame=8  time=4.500fs  energy=-306.12402005Ha  molecule=COOCCCHHHHHH
C       0.1033611860      0.3452955105      0.0154513776
O       1.3750090585      0.3061158051      0.0080696434
O       1.9626371690     -0.8875812245     -0.0082294094
C      -0.7245571195     -0.8625102446     -0.0181903706
C      -2.0765489280     -0.8831877977      0.0279089310
C      -0.4953870004      1.7098690638     -0.0286597715
H      -0.0638871369     -1.6127262247      0.0395895087
H      -2.6348218908      0.0814109949      0.0785503412
H      -2.8377108776     -1.7919808939     -0.2350552744
H       0.1471969552      2.4694083342      0.0443570513
H      -1.1540314807      1.8597313247      0.8851979744
H      -1.2715094480      1.8858726838     -0.7685174459
12
Frame=9  time=5.000fs  energy=-306.12373992Ha  molecule=COOCCCHHHHHH
C       0.1037303599      0.3500999589      0.0163043165
O       1.3796975061      0.3060614340      0.0090323803
O       1.9615552486     -0.8889194106     -0.0090701167
C      -0.7290436863     -0.8557182969     -0.0188271515
C      -2.0859033263     -0.8893940708      0.0302863645
C      -0.5144833318      1.7015893371     -0.0315616028
H      -0.0303553968     -1.6955169264      0.0345916670
H      -2.6104262830      0.0785178650      0.0857450561
H      -2.7903505118     -1.7107102884     -0.2558541124
H       0.2681949634      2.5870610495      0.0294123785
H      -1.1136670113      1.8268591013      0.8501395527
H      -1.2073116826      1.8620430632     -0.6981762544
12
Frame=10  time=5.500fs  energy=-306.09604478Ha  molecule=COOCCCHHHHHH
C       0.1046370505      0.3537744130      0.0159733636
O       1.3838503973      0.3069002334      0.0101152299
O       1.9607427921     -0.8909706141     -0.0098340118
C      -0.7328593625     -0.8502949408     -0.0176654546
C      -2.0965505217     -0.8931089124      0.0312190659
C      -0.5020850197      1.7052225242     -0.0206578738
H      -0.0044980508     -1.7820505690      0.0191871291
H      -2.5814734384      0.0518326784      0.0941221621
H      -2.7261368249     -1.6201592930     -0.2685025104
H       0.1923917246      2.5227903431      0.0143456102
H      -1.1128716047      1.8121553911      0.8776498331
H      -1.2905527321      1.8754897917     -0.8469536038
12
Frame=11  time=6.000fs  energy=-305.62955768Ha  molecule=COOCCCHHHHHH
C       0.1054282378      0.3565551584      0.0148353765
O       1.3881003697      0.3082574041      0.0112595916
O       1.9604261001     -0.8934809633     -0.0105590971
C      -0.7237130609     -0.8688254155     -0.0150705119
C      -2.0861661907     -0.8833486663      0.0305424781
C      -0.4886524873      1.7103514432     -0.0089959476
H      -0.1518329513     -1.6006584694     -0.0034420298
H      -2.6398461550      0.1521931782      0.1057868108
H      -2.8078636872     -1.8010270072     -0.2728504460
H       0.1044022397      2.4450672801     -0.0021517105
H      -1.1169865283      1.8034202614      0.9095785039
H      -1.3756765017      1.8896222791     -1.0019948219
12
Frame=12  time=6.500fs  energy=-304.47462578Ha  molecule=COOCCCHHHHHH
C       0.1051062429      0.3589831616      0.0135600719
O       1.3925312521      0.3103929067      0.0122995256
O       1.9599407490     -0.8964957121     -0.0113317392
C      -0.7351353045     -0.8525364108     -0.0121478681
C      -2.0953978704     -0.8830963974      0.0288923076
C      -0.5439491820      1.6911935578     -0.0418131578
H      -0.0494640472     -1.8251150991     -0.0262538731
H      -2.6064920352      0.1073277616      0.1208855069
H      -2.7417868192     -1.7270480714     -0.2725397924
H       0.4432997063      2.7561719559     -0.0263214027
H      -1.1220644639      1.7902507764      0.9148725232
H      -1.0650294796      1.8032339799     -0.5888631544
12
Frame=13  time=7.000fs  energy=-300.47244042Ha  molecule=COOCCCHHHHHH
C       0.1068541119      0.3612190553      0.0125825606
O       1.3962102815      0.3116335538      0.0135287431
O       1.9594322577     -0.8991007861     -0.0120307761
C      -0.7320991189     -0.8551346657     -0.0091912487
C      -2.1145085095     -0.8685188477      0.0270704329
C      -0.4656630897      1.7419287100      0.0067959793
H      -0.0864457390     -1.8218152718     -0.0489398228
H      -2.4776130068     -0.0929545442      0.1379038598
H      -2.6847991542     -1.6667347907     -0.2725514302
H      -0.2922032567      2.0825333399     -0.0360267337
H      -1.0289488134      1.7674153188      0.8343965060
H      -1.3840190726      1.8840615598     -1.0825369054
12
Frame=14  time=7.500fs  energy=-283.72111634Ha  molecule=COOCCCHHHHHH
C       0.1037926037      0.3641273128      0.0116930487
O       1.3996744495      0.3131160782      0.0143123526
O       1.9596415498     -0.9016677446     -0.0127493911
C      -0.7327273109     -0.8629392852     -0.0067067954
C      -2.0671547679     -0.8807169856      0.0253753481
C      -0.6168219711      1.6368474167     -0.0470751376
H      -0.1717072478     -1.7407712798     -0.0712023503
H      -2.8166147370      0.4468715734      0.1519080908
H      -2.8485588696     -2.0117545291     -0.2699239360
H       1.1738953613      3.4183046406     -0.0641574739
H      -1.1093323475      1.7583576082      0.9201196144
H      -0.9590701363      1.7546044450     -0.4923878689
12
Frame=15  time=8.000fs  energy=-201.22306861Ha  molecule=COOCCCHHHHHH
C       0.1096355089      0.3659010011      0.0120714559
O       1.4012300082      0.3124052274      0.0150138385
O       1.9586664119     -0.9034357862     -0.0132267063
C      -0.7151844515     -0.8690936061     -0.0050434656
C      -2.1687931899     -0.8669577420      0.0236293581
C      -0.2923293413      1.8439332892      0.0216334654
H      -0.2444770979     -1.6734746699     -0.0923821656
H      -2.2400715342     -0.4761369778      0.1661784339
H      -2.3751058568     -1.2237060734     -0.2653192446
H      -1.8340600968      0.6642616802     -0.0710773405
H      -1.2720082138      1.8275974244      1.2657570910
H      -1.7091682244      1.9669445670     -1.6546412790
12
Frame=16  time=8.500fs  energy=248.93790131Ha  molecule=COOCCCHHHHHH
C       0.0939994102      0.3691159068      0.0128725608
O       1.4054506331      0.3150533730      0.0149158919
O       1.9599097308     -0.9060836789     -0.0136880638
C      -0.7573365305     -0.8406076557     -0.0043810562
C      -1.9665426098     -0.8635372268      0.0220932925
C      -1.0626838772      1.3936594058     -0.0637619332
H      -0.0889580517     -1.9788248773     -0.1126150049
H      -3.3460185011      1.3037987372      0.1752262582
H      -3.3303234776     -2.9732376589     -0.2556546545
H       4.7995485042      6.7263794348     -0.1059023511
H      -0.3467573738      1.5049640540     -0.2383595216
H       0.0092598190      1.4495189618      0.9131674871
12
Frame=17  time=9.000fs  energy=2806.88679115Ha  molecule=COOCCCHHHHHH
C       0.1277576056      0.3694449440      0.0153573684
O       1.4006796938      0.3092465519      0.0149375728
O       1.9566976043     -0.9066583271     -0.0138099927
C      -0.6791703851     -0.8744822860     -0.0045934474
C      -2.4096159693     -0.8599634009      0.0204221719
C       0.7707779671      2.4149253898      0.0713442759
H      -0.3409978404     -1.6098454796     -0.1315871192
H      -0.9517840445     -2.5616197695      0.1862021595
H      -1.1513781084      0.8391556904     -0.2446666425
H     -10.5592956643     -7.3364895612     -0.1022085312
H      -3.1283508578      2.3821648608      4.2119255057
H      -3.9468639989      2.6078833162     -5.1593546537
