12
Frame=0  time=0.500fs  energy=-306.20591017Ha  molecule=COOCCCHHHHHH
C       0.0629521915      0.3549206641     -0.0002731414
O       1.3366539855      0.2980313512      0.0022324091
O       1.9793660938     -0.8789948989     -0.0011615550
C      -0.7047362760     -0.8666897353     -0.0011482982
C      -2.0556244001     -0.8811484751     -0.0023455381
C      -0.5110629889      1.7231763299      0.0045249103
H      -0.1363760578     -1.7720995812      0.0206094437
H      -2.6206523459     -0.0100164936      0.0080944393
H      -2.6333648692     -1.8197695108      0.0169506372
H       0.3037322419      2.4785836877     -0.0223052134
H      -1.1014351735      1.8802202341      0.8478166760
H      -1.1006038023      1.8790632376     -0.8971954332
12
Frame=1  time=1.000fs  energy=-306.19200873Ha  molecule=COOCCCHHHHHH
C       0.0603116070      0.3617070315     -0.0005293366
O       1.3335988885      0.2925572250      0.0044671083
O       1.9819453460     -0.8787307225     -0.0023234684
C      -0.6979402786     -0.8609305233     -0.0022320846
C      -2.0605605480     -0.8828622442     -0.0046785508
C      -0.5130147357      1.7208730556      0.0083949005
H      -0.1472804748     -1.7654361714      0.0406545186
H      -2.6035286965     -0.0421690863      0.0158813869
H      -2.6633238811     -1.8223647769      0.0339168854
H       0.3074829710      2.4938930199     -0.0439986147
H      -1.0738564785      1.8783662551      0.8190296003
H      -1.0680790750      1.8747603929     -0.9108890003
12
Frame=2  time=1.500fs  energy=-306.20451449Ha  molecule=COOCCCHHHHHH
C       0.0578352271      0.3682927840     -0.0008003790
O       1.3304591113      0.2872013070      0.0066955966
O       1.9844970135     -0.8785024314     -0.0034901918
C      -0.6930873820     -0.8533284792     -0.0032617780
C      -2.0619858572     -0.8943451791     -0.0070173898
C      -0.5077516205      1.7198586168      0.0071172785
H      -0.1428744454     -1.7820891250      0.0602863923
H      -2.6414425119      0.0108194312      0.0234590054
H      -2.6719250550     -1.7918299229      0.0510151709
H       0.2804342807      2.4806970094     -0.0662631140
H      -1.0966539568      1.8888699200      0.8625222095
H      -1.0408411542      1.8718292511     -0.9346830433
12
Frame=3  time=2.000fs  energy=-306.20143297Ha  molecule=COOCCCHHHHHH
C       0.0555961675      0.3744196514     -0.0010307631
O       1.3273713961      0.2820609236      0.0089251825
O       1.9869922692     -0.8783150546     -0.0046560210
C      -0.6892452445     -0.8459621789     -0.0042125450
C      -2.0628241778     -0.9056659952     -0.0092825556
C      -0.5020279222      1.7190999473      0.0053390415
H      -0.1362758673     -1.7987193581      0.0790714523
H      -2.6801411482      0.0658696965      0.0303356920
H      -2.6786567557     -1.7626192107      0.0678763058
H       0.2541952923      2.4669115292     -0.0869130047
H      -1.1234724845      1.9001651008      0.9102586162
H      -1.0168667167      1.8684617482     -0.9589196278
12
Frame=4  time=2.500fs  energy=-306.16454824Ha  molecule=COOCCCHHHHHH
C       0.0536206510      0.3802903732     -0.0012325801
O       1.3243492949      0.2770658496      0.0111524987
O       1.9894266315     -0.8781392659     -0.0058199117
C      -0.6875545921     -0.8375503719     -0.0051306487
C      -2.0624395483     -0.9121861177     -0.0114826874
C      -0.4964245615      1.7183918210      0.0035411695
H      -0.1188886400     -1.8297935522      0.0974093059
H      -2.7028998947      0.0957732163      0.0367351324
H      -2.7030695577     -1.7642084518      0.0844838580
H       0.2303678051      2.4541600741     -0.1063943785
H      -1.1502454952      1.9116013731      0.9566305889
H      -0.9951133772      1.8649717031     -0.9830476383
12
Frame=5  time=3.000fs  energy=-306.16554943Ha  molecule=COOCCCHHHHHH
C       0.0537113503      0.3867779663     -0.0015166438
O       1.3207738823      0.2718635099      0.0133848740
O       1.9919300468     -0.8777854203     -0.0069797480
C      -0.6809274925     -0.8423191054     -0.0060246778
C      -2.0657236988     -0.9044400112     -0.0136653202
C      -0.5014846896      1.7120105928      0.0040048510
H      -0.1887926842     -1.7116628056      0.1156539027
H      -2.6430015274     -0.0102417275      0.0430187465
H      -2.7509015986     -1.7979629141      0.1009664769
H       0.3021767729      2.5196710653     -0.1212005967
H      -1.1502907660      1.9168065260      0.9497488752
H      -0.9726418210      1.8561072067     -0.9848726264
12
Frame=6  time=3.500fs  energy=-306.14123809Ha  molecule=COOCCCHHHHHH
C       0.0545164906      0.3921672221     -0.0020783257
O       1.3176762931      0.2670720236      0.0156316680
O       1.9941137890     -0.8774358441     -0.0081330792
C      -0.6893002348     -0.8309960153     -0.0068537492
C      -2.0665219058     -0.9069596361     -0.0158423960
C      -0.5079589397      1.7095154118      0.0082543223
H      -0.1359486704     -1.7823430000      0.1338158685
H      -2.6084119208     -0.0549533211      0.0491831305
H      -2.7501391698     -1.7710656937      0.1173218608
H       0.3557089603      2.5568830371     -0.1230481256
H      -1.1117050475      1.9170012805      0.8674975495
H      -0.9616104677      1.8383089719     -0.9669347160
12
Frame=7  time=4.000fs  energy=-306.10966508Ha  molecule=COOCCCHHHHHH
C       0.0539556029      0.3940736964     -0.0028122899
O       1.3163579179      0.2628335087      0.0178790072
O       1.9960197275     -0.8770366844     -0.0092844788
C      -0.6996094191     -0.8214409554     -0.0076454518
C      -2.0604613893     -0.9140210717     -0.0180117512
C      -0.4875970282      1.7228498262      0.0119511061
H      -0.0883143208     -1.8243551387      0.1519182839
H      -2.6235007351     -0.0021752882      0.0552153766
H      -2.7541469248     -1.7803110975      0.1336178221
H       0.1922785431      2.3950796163     -0.1177276858
H      -1.1254722123      1.9351271365      0.8595183179
H      -1.0076048853      1.8300767436     -1.0221233561
12
Frame=8  time=4.500fs  energy=-306.15937428Ha  molecule=COOCCCHHHHHH
C       0.0523924943      0.3936729144     -0.0032435462
O       1.3157563836      0.2588123104      0.0201092047
O       1.9978823711     -0.8765062231     -0.0104453078
C      -0.7029524553     -0.8230390581     -0.0084832350
C      -2.0539456821     -0.9197781929     -0.0201823592
C      -0.4999553817      1.7189711670      0.0153776317
H      -0.1115935691     -1.7325015158      0.1697646266
H      -2.6507916469      0.0662025434      0.0609867680
H      -2.7651639337     -1.8096554743      0.1502385072
H       0.2999340745      2.4850540462     -0.1119322879
H      -1.0776158715      1.9336868224      0.7557916196
H      -0.9934604157      1.8047070460     -0.9812481621
12
Frame=9  time=5.000fs  energy=-305.97079169Ha  molecule=COOCCCHHHHHH
C       0.0508799506      0.3922678863     -0.0025329135
O       1.3148774210      0.2553702642      0.0222449971
O       1.9998597177     -0.8763690102     -0.0116458327
C      -0.7050863281     -0.8257494407     -0.0092622966
C      -2.0556393023     -0.9223718528     -0.0214078088
C      -0.5039484565      1.7124925197     -0.0019945637
H      -0.1334496793     -1.6456071724      0.1815561533
H      -2.6353210453      0.0514895219      0.0586599725
H      -2.7325789177     -1.7780288153      0.1659022218
H       0.4207496959      2.5871300388     -0.1070740257
H      -1.1717222058      1.9640955407      0.8559350124
H      -0.9525868851      1.7780217808     -0.9037916310
12
Frame=10  time=5.500fs  energy=-305.05894283Ha  molecule=COOCCCHHHHHH
C       0.0502280664      0.3895220956     -0.0003395754
O       1.3134680117      0.2528118175      0.0243610552
O       2.0019453073     -0.8769269168     -0.0128521108
C      -0.7128954229     -0.8200766362     -0.0100311579
C      -2.0589585795     -0.9192938918     -0.0211230447
C      -0.4562985282      1.7355071886     -0.0048833255
H      -0.0922586030     -1.6767083328      0.1854138060
H      -2.5961853071     -0.0161009715      0.0451408243
H      -2.6909320083     -1.7483604900      0.1786609826
H       0.1092502007      2.2928853193     -0.0967008943
H      -1.2890531998      2.0034037126      1.0118927618
H      -1.0838998918      1.8056382170     -1.0736050639
12
Frame=11  time=6.000fs  energy=-302.38636407Ha  molecule=COOCCCHHHHHH
C       0.0473614109      0.3860359574      0.0028097532
O       1.3124966686      0.2512092515      0.0264693710
O       2.0044524739     -0.8781350642     -0.0140543634
C      -0.7223580179     -0.8142534604     -0.0108725115
C      -2.0534935994     -0.9172642613     -0.0194098021
C      -0.5406020600      1.7055327453      0.0035786392
H      -0.0519562325     -1.7195317991      0.1835143239
H      -2.6148340398     -0.0005754839      0.0221284786
H      -2.6712057877     -1.7764754569      0.1878441722
H       0.6939143026      2.8188363576     -0.0824780124
H      -1.0071872533      1.9321341250      0.5748119714
H      -0.9297973466      1.7561361585     -0.7981548205
12
Frame=12  time=6.500fs  energy=-291.06193661Ha  molecule=COOCCCHHHHHH
C       0.0485870689      0.3817083535      0.0058998292
O       1.3113957778      0.2497649790      0.0285451139
O       2.0066980029     -0.8796177437     -0.0152604629
C      -0.7298124369     -0.8111893392     -0.0118869543
C      -2.0512018414     -0.9124588085     -0.0169968293
C      -0.3898295382      1.7876450674     -0.0011202457
H      -0.0245071573     -1.7441020945      0.1811742560
H      -2.6138441875     -0.0247934395     -0.0042934131
H      -2.6497901934     -1.7987491941      0.1944073611
H      -0.4898102363      1.7218800389     -0.0707019103
H      -1.3193443330      2.0325509185      1.0372742551
H      -1.2516874701      1.8495076596     -1.2614924937
12
Frame=13  time=7.000fs  energy=-233.48197353Ha  molecule=COOCCCHHHHHH
C       0.0424209759      0.3791356289      0.0089401109
O       1.3120378675      0.2497540456      0.0305885311
O       2.0098779351     -0.8817769791     -0.0164765245
C      -0.7349850529     -0.8180932906     -0.0129012018
C      -2.0236992273     -0.9081161056     -0.0145753973
C      -0.6895453503      1.6224305255     -0.0185128931
H      -0.0718414076     -1.6538189346      0.1788229213
H      -2.7513713589      0.1852017102     -0.0309170647
H      -2.7541571965     -2.0449467817      0.2010770844
H       2.0658283131      4.0477846652     -0.0611903313
H      -0.8453162664      1.8920591785      0.2694459640
H      -0.6738791100      1.6743993771     -0.3397433618
12
Frame=14  time=7.500fs  energy=81.69771023Ha  molecule=COOCCCHHHHHH
C       0.0540886574      0.3735935695      0.0116998685
O       1.3111001141      0.2479469947      0.0327982275
O       2.0110548955     -0.8833507580     -0.0177308581
C      -0.7272135404     -0.8277694631     -0.0135933669
C      -2.0927073413     -0.8979643439     -0.0121895716
C      -0.0082437224      2.0027200801     -0.0244607586
H      -0.1116281568     -1.5713582038      0.1761328145
H      -2.3522191306     -0.4821790563     -0.0565313461
H      -2.4245041146     -1.5057568665      0.2064431918
H      -3.5668736469     -1.1158816312     -0.0494630632
H      -2.1395937725      2.2922970664      2.2556390025
H      -1.9676846082      2.0659193833     -2.3120814239
12
Frame=15  time=8.000fs  energy=1871.19644716Ha  molecule=COOCCCHHHHHH
C       0.0261030009      0.3746518021      0.0138087149
O       1.3165291044      0.2524065926      0.0353630554
O       2.0163776060     -0.8873909034     -0.0190798533
C      -0.7656394960     -0.8104037344     -0.0135689697
C      -1.9494353420     -0.9473060752     -0.0098721034
C      -1.6054084821      1.1377169536     -0.0130577699
H       0.0079497807     -1.7657004693      0.1726738997
H      -3.2946806161      1.0380812566     -0.0800849019
H      -2.8863543260     -2.4061421784      0.2089839656
H       9.6193394039     10.9428908443     -0.0342226095
H       0.9610809854      1.3692353145     -2.5529230062
H       0.9760304987      1.1741553275      2.2974941738
12
Frame=16  time=8.500fs  energy=12237.35113221Ha  molecule=COOCCCHHHHHH
C       0.0699607172      0.3694057027      0.0145405328
O       1.3094994756      0.2437332623      0.0382825203
O       2.0114167333     -0.8862398767     -0.0205930601
C      -0.7151287909     -0.8400148677     -0.0126199612
C      -2.2500708099     -0.8327561343     -0.0076012700
C       2.2132800647      3.2303390500     -0.0242670876
H      -0.1073461724     -1.5404191335      0.1681667685
H      -1.2934265138     -2.2355444408     -0.1018176323
H      -1.8632161701     -0.5659248715      0.2082757059
H     -21.9339750495    -17.9337201549     -0.0224794087
H      -6.1678292435      3.5360295741      8.4813701521
H      -6.1075177196      3.3253632207     -8.6574305173
