12
Frame=0  time=0.500fs  energy=-306.20601445Ha  molecule=COOCCCHHHHHH
C       0.0653504407      0.3388029998      0.0009723202
O       1.3418300615      0.2966321622     -0.0030035097
O       1.9758463798     -0.8778600622      0.0001078955
C      -0.7175507350     -0.8632762573      0.0063947970
C      -2.0426441985     -0.8752523695     -0.0021458955
C      -0.5148714459      1.7296853166     -0.0014733154
H      -0.0891667710     -1.7974802335     -0.0126462119
H      -2.6601230203      0.0403701633      0.0090065016
H      -2.6242502456     -1.8313330730      0.0059790913
H       0.2930711692      2.4854505477      0.0168382344
H      -1.0826425691      1.8694696805      0.8651471998
H      -1.1370504266      1.8772646627     -0.8830243106
12
Frame=1  time=1.000fs  energy=-306.19185787Ha  molecule=COOCCCHHHHHH
C       0.0650559604      0.3301139951      0.0019414298
O       1.3439428480      0.2896728515     -0.0060163190
O       1.9749860949     -0.8764988335      0.0002177076
C      -0.7222190287     -0.8549483805      0.0126957822
C      -2.0359986699     -0.8705948894     -0.0042207767
C      -0.5207461163      1.7335194266     -0.0033314447
H      -0.0611683703     -1.8067771100     -0.0248198884
H      -2.6749171394      0.0475119839      0.0178560431
H      -2.6441901155     -1.8421745717      0.0116659876
H       0.2868644779      2.5076923837      0.0328089212
H      -1.0365787781      1.8573927867      0.8524717548
H      -1.1401003783      1.8720687446     -0.8823691093
12
Frame=2  time=1.500fs  energy=-306.20469140Ha  molecule=COOCCCHHHHHH
C       0.0649556691      0.3217916243      0.0028895448
O       1.3459685660      0.2826510311     -0.0090444861
O       1.9742219128     -0.8751600985      0.0003238450
C      -0.7216724777     -0.8533422220      0.0189446276
C      -2.0351834827     -0.8689119698     -0.0062521303
C      -0.5202963176      1.7380134176     -0.0104180168
H      -0.0818152765     -1.7386423341     -0.0367442487
H      -2.6729484913      0.0271134958      0.0265255138
H      -2.6271617569     -1.7897118141      0.0172394836
H       0.2573146023      2.5075359740      0.0474058792
H      -1.0405160320      1.8579420605      0.9101646582
H      -1.1453795280      1.8681107987     -0.8877053333
12
Frame=3  time=2.000fs  energy=-306.20142441Ha  molecule=COOCCCHHHHHH
C       0.0649560347      0.3143000102      0.0038077981
O       1.3478600362      0.2757500018     -0.0120805643
O       1.9735672231     -0.8739926759      0.0004333126
C      -0.7205667552     -0.8521078854      0.0250382347
C      -2.0351886081     -0.8672076483     -0.0081491687
C      -0.5193908569      1.7421144609     -0.0174957798
H      -0.1044579347     -1.6704728513     -0.0478548515
H      -2.6686748708      0.0058954835      0.0349425913
H      -2.6086146465     -1.7372574434      0.0222409883
H       0.2287380851      2.5062023345      0.0601770844
H      -1.0493840390      1.8592868268      0.9703489416
H      -1.1516537674      1.8650883566     -0.8931236428
12
Frame=4  time=2.500fs  energy=-306.16394466Ha  molecule=COOCCCHHHHHH
C       0.0647757503      0.3072178985      0.0047020598
O       1.3496656844      0.2689405644     -0.0151153310
O       1.9729602442     -0.8729523097      0.0005442510
C      -0.7197076478     -0.8487594784      0.0310534299
C      -2.0358215482     -0.8621984210     -0.0099744628
C      -0.5185037564      1.7459511303     -0.0243407086
H      -0.1130634288     -1.6281117437     -0.0585563313
H      -2.6524672644     -0.0292850436      0.0432366798
H      -2.6037184291     -1.7112732687      0.0269318099
H       0.2017429775      2.5053930567      0.0719307785
H      -1.0586114179      1.8602963489      1.0283080042
H      -1.1580738382      1.8623768005     -0.8977280316
12
Frame=5  time=3.000fs  energy=-306.17841363Ha  molecule=COOCCCHHHHHH
C       0.0653759821      0.3001856561      0.0056893122
O       1.3506459702      0.2622248647     -0.0181359152
O       1.9722465925     -0.8720002440      0.0006591598
C      -0.7263964093     -0.8304016278      0.0370453500
C      -2.0295600297     -0.8600185058     -0.0117991287
C      -0.5261313268      1.7447564837     -0.0259550263
H      -0.0154393104     -1.7607641599     -0.0692234325
H      -2.6932411605      0.0415742936      0.0516513412
H      -2.6327019830     -1.7592481128      0.0315691084
H       0.2513879266      2.5702432323      0.0812544906
H      -1.0353532067      1.8496893882      1.0264111625
H      -1.1742442869      1.8626863550     -0.9036043169
12
Frame=6  time=3.500fs  energy=-306.09107955Ha  molecule=COOCCCHHHHHH
C       0.0670663676      0.2988887626      0.0069647687
O       1.3512423564      0.2541882309     -0.0211583842
O       1.9718539509     -0.8707294200      0.0007734879
C      -0.7236992767     -0.8276071303      0.0429514915
C      -2.0262654104     -0.8491861756     -0.0136044488
C      -0.5340736510      1.7429330265     -0.0265625901
H      -0.0134517451     -1.7424674553     -0.0797509181
H      -2.7026100017      0.0724933213      0.0601819210
H      -2.6851836479     -1.8639106346      0.0361621446
H       0.2908013779      2.6171901640      0.0782659022
H      -1.0093292530      1.8323898385      0.9862992866
H      -1.1799522960      1.8706800352     -0.8737649805
12
Frame=7  time=4.000fs  energy=-306.07688194Ha  molecule=COOCCCHHHHHH
C       0.0686837796      0.3044190283      0.0084293454
O       1.3518306299      0.2448252658     -0.0241805156
O       1.9718088342     -0.8693165730      0.0008869766
C      -0.7144443196     -0.8323817305      0.0488167458
C      -2.0475827269     -0.8540086747     -0.0154121157
C      -0.5197211761      1.7504150300     -0.0265876698
H      -0.0618520925     -1.6654643801     -0.0902761823
H      -2.6336750791     -0.0226179378      0.0688059551
H      -2.5576525482     -1.6590839292      0.0407957640
H       0.1546732084      2.4972032274      0.0675954349
H      -1.0295445020      1.8246059803      1.0028048343
H      -1.2268596605      1.8972278080     -0.9016690227
12
Frame=8  time=4.500fs  energy=-306.17357670Ha  molecule=COOCCCHHHHHH
C       0.0698618174      0.3116230098      0.0097636753
O       1.3512692027      0.2362542492     -0.0271955128
O       1.9723695071     -0.8686862706      0.0010004274
C      -0.7107449386     -0.8344510345      0.0545614889
C      -2.0387985404     -0.8522695092     -0.0172219951
C      -0.5274822358      1.7454395342     -0.0264854979
H      -0.0996531082     -1.6287572026     -0.0993258791
H      -2.6973824633      0.0963384933      0.0783093659
H      -2.5977437138     -1.7483736784      0.0448568178
H       0.2083320543      2.5494163553      0.0568215126
H      -1.0076186979      1.8004151614      0.9552574649
H      -1.2311459411      1.9062529138     -0.8658135985
12
Frame=9  time=5.000fs  energy=-305.80323513Ha  molecule=COOCCCHHHHHH
C       0.0703827811      0.3194295467      0.0099496131
O       1.3490587106      0.2301640703     -0.0301686245
O       1.9739759982     -0.8701541216      0.0011436939
C      -0.7138536224     -0.8270831777      0.0596786872
C      -2.0274869836     -0.8312552705     -0.0184875770
C      -0.5340808975      1.7401228565     -0.0250807562
H      -0.0693491292     -1.7060569472     -0.1015846505
H      -2.6954848588      0.1174438911      0.0896062628
H      -2.7169643602     -1.9716440619      0.0437980504
H       0.2616628149      2.6027801123      0.0434128873
H      -0.9883234054      1.7773988885      0.9054842102
H      -1.2324900426      1.9074564657     -0.8305455187
12
Frame=10  time=5.500fs  energy=-304.80978622Ha  molecule=COOCCCHHHHHH
C       0.0709719867      0.3283390497      0.0086265300
O       1.3453613072      0.2265983823     -0.0330817422
O       1.9769269101     -0.8741094019      0.0013329812
C      -0.7043514824     -0.8285904467      0.0639243025
C      -2.0721221513     -0.8450533621     -0.0184681991
C      -0.5200144955      1.7454179447     -0.0219537690
H      -0.1013444393     -1.6807152140     -0.0961065650
H      -2.5216953786     -0.1456424939      0.1002145509
H      -2.4334014805     -1.4968146158      0.0339231027
H       0.1469635440      2.4980492522      0.0267122674
H      -1.0087563751      1.7712557149      0.9114604873
H      -1.2668490143      1.9137429910     -0.8551166399
12
Frame=11  time=6.000fs  energy=-301.54797732Ha  molecule=COOCCCHHHHHH
C       0.0698257993      0.3360579036      0.0061832681
O       1.3423610830      0.2252052138     -0.0359670952
O       1.9806963531     -0.8795404832      0.0015548945
C      -0.7141964081     -0.8225608642      0.0674710541
C      -1.9987067517     -0.8419630681     -0.0169919463
C      -0.5169436632      1.7409904924     -0.0255167028
H      -0.0779755841     -1.7378055919     -0.0860091435
H      -2.9338928928      0.5277570338      0.1074101798
H      -2.7935233329     -2.1501801821      0.0158962392
H       0.1515845120      2.4956771776      0.0061526892
H      -1.0639335924      1.7778856959      0.9590073589
H      -1.2600170200      1.9069650504     -0.8273773374
12
Frame=12  time=6.500fs  energy=-286.38820502Ha  molecule=COOCCCHHHHHH
C       0.0695778618      0.3462906738      0.0036350887
O       1.3381002214      0.2244318850     -0.0388438024
O       1.9847494110     -0.8862761871      0.0017879519
C      -0.7021298191     -0.8088228870      0.0707574333
C      -2.1412971624     -0.8076240277     -0.0145884445
C      -0.5341947878      1.7263195538     -0.0289311608
H      -0.0068206406     -1.8760956267     -0.0760681548
H      -2.0303336660     -0.8811665425      0.1105704819
H      -2.2033472038     -1.1181011118     -0.0059857295
H       0.3145548844      2.6282199659     -0.0147166682
H      -1.0755182275      1.7759494034      0.9406916604
H      -1.2090970843      1.8906664561     -0.7341987655
12
Frame=13  time=7.000fs  energy=-208.37961109Ha  molecule=COOCCCHHHHHH
C       0.0675998250      0.3514512414      0.0011418515
O       1.3374722738      0.2243824800     -0.0416834129
O       1.9893332315     -0.8921912147      0.0020336400
C      -0.7138679610     -0.8427511026      0.0740409143
C      -1.8469017100     -0.8807466746     -0.0122008716
C      -0.5098173546      1.7336655387     -0.0180318668
H      -0.2616605566     -1.4849054753     -0.0661235971
H      -3.9771248292      2.2040366289      0.1139913452
H      -3.3804721561     -3.2416980424     -0.0279696362
H       0.1417398719      2.4623554340     -0.0330249400
H      -1.1159835613      1.7847673221      0.9771949862
H      -1.3150249871      1.9162162213     -0.8703503393
12
Frame=14  time=7.500fs  energy=223.63842141Ha  molecule=COOCCCHHHHHH
C       0.0707939055      0.3679264526     -0.0011110801
O       1.3306212825      0.2240928382     -0.0446252116
O       1.9928859731     -0.9008503572      0.0023164094
C      -0.6628295400     -0.7885626102      0.0770819663
C      -2.5275694405     -0.7039232310     -0.0097997502
C      -0.5545899429      1.7076137559     -0.0070885889
H       0.0948292079     -2.0942572789     -0.0559272838
H       0.4625015928     -4.7774732110      0.1168390316
H      -0.6696672491      1.5889824629     -0.0490383272
H       0.5111546705      2.7738945891     -0.0514520561
H      -0.9962470465      1.7527281171      0.7688159676
H      -1.2603743461      1.9002323669     -0.7617213555
