12
Frame=0  time=0.500fs  energy=-306.20604938Ha  molecule=COOCCCHHHHHH
C       0.0580063025      0.3477940091     -0.0003048846
O       1.3428688893      0.3018804468     -0.0037499081
O       1.9752199350     -0.8778972625      0.0022064592
C      -0.7089910743     -0.8731738708     -0.0030028056
C      -2.0527311115     -0.8818552911      0.0040304178
C      -0.4996899451      1.7209400036     -0.0012459657
H      -0.1422459426     -1.7459778143      0.0112416496
H      -2.6746004738      0.0533501327     -0.0024540688
H      -2.5779625069     -1.8398495343     -0.0108479319
H       0.3086544408      2.5124557308      0.0119703010
H      -1.1654851160      1.9098803053      0.8928532280
H      -1.1302617031      1.8648664498     -0.8720289566
12
Frame=1  time=1.000fs  energy=-306.19203955Ha  molecule=COOCCCHHHHHH
C       0.0506867861      0.3477237944     -0.0005609745
O       1.3458834571      0.3001570207     -0.0074844349
O       1.9736838905     -0.8765328558      0.0044051455
C      -0.7063660108     -0.8732984428     -0.0059637714
C      -2.0555343080     -0.8832207492      0.0080070893
C      -0.4910232223      1.7167251049     -0.0019446872
H      -0.1570653140     -1.7185453432      0.0222127259
H      -2.7024275372      0.0700195925     -0.0048181484
H      -2.5554453934     -1.8630558046     -0.0214329188
H       0.3147699507      2.5583629159      0.0234736456
H      -1.1923586444      1.9350326320      0.8967506274
H      -1.1267740457      1.8474288068     -0.8617990016
12
Frame=2  time=1.500fs  energy=-306.20480859Ha  molecule=COOCCCHHHHHH
C       0.0436396140      0.3475672286     -0.0007725166
O       1.3487921976      0.2985051457     -0.0111980828
O       1.9720666703     -0.8752094799      0.0066032144
C      -0.7078377222     -0.8667075923     -0.0089007932
C      -2.0620214753     -0.8803095584      0.0119483298
C      -0.4796036293      1.7171936583      0.0024308191
H      -0.1231572580     -1.7694694864      0.0330373060
H      -2.6893257837      0.0233140151     -0.0070430968
H      -2.5286274478     -1.8759189084     -0.0319126928
H       0.2658535780      2.5534644116      0.0355547904
H      -1.1862065621      1.9522973350      0.8559755261
H      -1.1356001623      1.8338219544     -0.8687542155
12
Frame=3  time=2.000fs  energy=-306.20195858Ha  molecule=COOCCCHHHHHH
C       0.0375009112      0.3474474465     -0.0008770181
O       1.3512986464      0.2969117803     -0.0148812693
O       1.9704796924     -0.8739465594      0.0087848803
C      -0.7098266405     -0.8599946035     -0.0117408321
C      -2.0682203419     -0.8775674405      0.0157699312
C      -0.4686255015      1.7181896697      0.0070946220
H      -0.0884108439     -1.8214120618      0.0432339830
H      -2.6754501222     -0.0251588188     -0.0090667679
H      -2.5026634840     -1.8865524872     -0.0417888796
H       0.2161676733      2.5445172682      0.0463579697
H      -1.1772869332      1.9670391102      0.8132954535
H      -1.1441143172      1.8212092845     -0.8773676130
12
Frame=4  time=2.500fs  energy=-306.15663484Ha  molecule=COOCCCHHHHHH
C       0.0321076830      0.3474081902     -0.0009177726
O       1.3535517818      0.2953455431     -0.0185446647
O       1.9689179558     -0.8726992869      0.0109554577
C      -0.7120864799     -0.8546130496     -0.0145203045
C      -2.0735652053     -0.8777511888      0.0195172178
C      -0.4581147108      1.7192708348      0.0116667885
H      -0.0618718737     -1.8587259960      0.0530421528
H      -2.6728921021     -0.0588681961     -0.0109690446
H      -2.4672376424     -1.8773879557     -0.0512924451
H       0.1689637823      2.5355827686      0.0563204533
H      -1.1683437854      1.9806709516      0.7717462761
H      -1.1517132402      1.8090788081     -0.8860186841
12
Frame=5  time=3.000fs  energy=-306.16512236Ha  molecule=COOCCCHHHHHH
C       0.0302974961      0.3472978145     -0.0008933632
O       1.3543052706      0.2936461201     -0.0222119025
O       1.9674808008     -0.8712410937      0.0131197404
C      -0.7073262804     -0.8676635870     -0.0173054016
C      -2.0683109370     -0.8805408699      0.0232550916
C      -0.4577253265      1.7155045793      0.0130021553
H      -0.1608652061     -1.6838704809      0.0627975417
H      -2.7348349436     -0.0008199325     -0.0128827938
H      -2.4673521388     -1.9250478229     -0.0607030967
H       0.2036650606      2.5971800569      0.0627075770
H      -1.1590358512      1.9914778262      0.7233760002
H      -1.1262253830      1.7902133160     -0.8461674309
12
Frame=6  time=3.500fs  energy=-305.99506999Ha  molecule=COOCCCHHHHHH
C       0.0345043009      0.3454023705     -0.0005795126
O       1.3516378385      0.2923712950     -0.0258824147
O       1.9657400926     -0.8697959798      0.0152783451
C      -0.7139711360     -0.8638413225     -0.0201310881
C      -2.0616079560     -0.8938806270      0.0269733385
C      -0.4564775045      1.7114732744      0.0130952562
H      -0.1383653995     -1.7007569340      0.0724537915
H      -2.8350400049      0.1094080314     -0.0146629314
H      -2.4342244553     -1.9045858211     -0.0699574323
H       0.2712129756      2.6730246329      0.0567986657
H      -1.1898579654      1.9974029923      0.7406874407
H      -1.1140954125      1.7759765814     -0.8476787570
12
Frame=7  time=4.000fs  energy=-305.52712236Ha  molecule=COOCCCHHHHHH
C       0.0413671459      0.3440541609     -0.0000726160
O       1.3470614799      0.2910347630     -0.0295539156
O       1.9638408486     -0.8684343241      0.0174351856
C      -0.7267628024     -0.8444341603     -0.0229986963
C      -2.0749699600     -0.8627478921      0.0306909186
C      -0.4335079561      1.7229956531      0.0138139039
H      -0.0189544622     -1.8917245821      0.0821372145
H      -2.6442777950     -0.2327710837     -0.0163478440
H      -2.4715386461     -1.9791534624     -0.0791965628
H       0.1482124865      2.5591024234      0.0428985986
H      -1.2593315820      2.0016682926      0.8322771083
H      -1.1355303032      1.7694569891     -0.9248182289
12
Frame=8  time=4.500fs  energy=-304.49079573Ha  molecule=COOCCCHHHHHH
C       0.0484941160      0.3451345452      0.0006160514
O       1.3429442755      0.2883120792     -0.0332248563
O       1.9622864611     -0.8663159208      0.0195911394
C      -0.7154264879     -0.8655576065     -0.0255986790
C      -2.0646795178     -0.9234043687      0.0343780406
C      -0.4431416731      1.7185252544      0.0143122889
H      -0.2051847578     -1.6100682845      0.0889078568
H      -2.9400436415      0.1792052030     -0.0195814256
H      -2.3006101791     -1.7118843485     -0.0872805676
H       0.2737439262      2.6663005503      0.0294516061
H      -1.2590265566      1.9845503876      0.8213570440
H      -1.0881154700      1.7429844633     -0.8989570303
12
Frame=9  time=5.000fs  energy=-298.05504014Ha  molecule=COOCCCHHHHHH
C       0.0547325225      0.3459799859      0.0024691580
O       1.3396941732      0.2859480726     -0.0369315649
O       1.9600207287     -0.8643292803      0.0217150087
C      -0.7431026826     -0.8273896128     -0.0274745348
C      -2.0465997407     -0.8130503434      0.0373784317
C      -0.4544573342      1.7205286124      0.0134828905
H       0.0262323964     -1.9914647925      0.0882530662
H      -2.5951795544     -0.3671479023     -0.0243981208
H      -2.8001064090     -2.5540284733     -0.0893936312
H       0.3243877552      2.6963798796      0.0185955573
H      -1.2124050099      1.9556771673      0.7502803961
H      -0.9997560728      1.7138692347     -0.8099147208
12
Frame=10  time=5.500fs  energy=-257.38389086Ha  molecule=COOCCCHHHHHH
C       0.0635684213      0.3491687693      0.0058764430
O       1.3370268403      0.2828091702     -0.0406738078
O       1.9592671043     -0.8627010752      0.0237943425
C      -0.6865496001     -0.9032887882     -0.0284402202
C      -2.1019194435     -1.0715746390      0.0389522297
C      -0.4190957222      1.7475931479      0.0180469508
H      -0.5659424534     -1.0442016039      0.0798646962
H      -3.2910406892      0.6420620127     -0.0278321935
H      -1.6088982345     -0.5330343803     -0.0822067845
H      -0.0165677825      2.3586084230      0.0124430242
H      -1.2225019748      1.9465024856      0.7853764818
H      -1.0389469437      1.7319357352     -0.9100634888
12
Frame=11  time=6.000fs  energy=24.01554006Ha  molecule=COOCCCHHHHHH
C       0.0646919783      0.3483167574      0.0103578866
O       1.3346743181      0.2853594938     -0.0444554232
O       1.9563642386     -0.8638727860      0.0258288425
C      -0.8487016414     -0.6760632306     -0.0287962496
C      -1.9841609471     -0.4388590717      0.0390625419
C      -0.4790645591      1.6940501946      0.0213754593
H       1.0149178102     -3.5718064928      0.0677633581
H      -1.4241368717     -2.1609861942     -0.0274480759
H      -4.5056626484     -5.4021044189     -0.0670502935
H       0.7057903871      2.9737732954      0.0087597549
H      -1.1853524973      1.9104128948      0.7335409749
H      -1.0358021804      1.7315036126     -0.9203904022
12
Frame=12  time=6.500fs  energy=2086.04824499Ha  molecule=COOCCCHHHHHH
C       0.0826612421      0.3586100918      0.0149090392
O       1.3326606385      0.2784096314     -0.0482394770
O       1.9616515917     -0.8623460068      0.0278498660
C      -0.4443934581     -1.2457722062     -0.0289168673
C      -2.2435255303     -2.1576859025      0.0383394396
C      -0.3585752651      1.7843352816      0.0230982000
H      -3.1246823945      3.0625960305      0.0557893522
H      -6.7570558156      5.7973996335     -0.0234768655
H       2.9817214237      7.2082527234     -0.0484230600
H      -0.5093090888      1.8350938337      0.0050840926
H      -1.2892343577      1.9409249473      0.9392461973
H      -1.1607775991      1.7951461414     -1.1697679036
