12
Frame=0  time=0.500fs  energy=-306.20578259Ha  molecule=COOCCCHHHHHH
C       0.0599340407      0.3445703237     -0.0006507852
O       1.3436610461      0.3058758728      0.0020081047
O       1.9776262423     -0.8785049372     -0.0014281778
C      -0.7019881019     -0.8732577511      0.0000720983
C      -2.0553354023     -0.8771885802     -0.0006493168
C      -0.5083919450      1.7260314813      0.0071921577
H      -0.1466404815     -1.7551784581      0.0062311482
H      -2.6687114544      0.0002314533      0.0027703526
H      -2.5711209285     -1.7939050322     -0.0322767302
H       0.2947167330      2.4426596207     -0.0216622594
H      -1.1514172731      1.8629523255      0.8902587290
H      -1.1611886947      1.8673235913     -0.9255975486
12
Frame=1  time=1.000fs  energy=-306.19263624Ha  molecule=COOCCCHHHHHH
C       0.0543866490      0.3413920208     -0.0013087031
O       1.3474083648      0.3080931976      0.0040287159
O       1.9784702270     -0.8777092153     -0.0028572357
C      -0.6924629994     -0.8734554736      0.0002306740
C      -2.0598247178     -0.8741166026     -0.0013669293
C      -0.5090820266      1.7260754513      0.0136700498
H      -0.1656862134     -1.7367662627      0.0119185722
H      -2.6961309210     -0.0261249152      0.0056371048
H      -2.5450689138     -1.7783508333     -0.0640518475
H       0.2932070391      2.4269695540     -0.0426054715
H      -1.1671399685      1.8431381460      0.8945302319
H      -1.1821009807      1.8504910043     -0.9577859569
12
Frame=2  time=1.500fs  energy=-306.20464356Ha  molecule=COOCCCHHHHHH
C       0.0487839538      0.3381290000     -0.0020028323
O       1.3510810247      0.3103823415      0.0060511241
O       1.9792375585     -0.8769257067     -0.0042914404
C      -0.6878490734     -0.8672937111      0.0004513259
C      -2.0588963336     -0.8677983404     -0.0021196797
C      -0.5156081706      1.7254039733      0.0151511262
H      -0.1385835048     -1.7922611663      0.0172509138
H      -2.7369735915     -0.0290302298      0.0085044103
H      -2.5555582676     -1.8256687578     -0.0955183287
H       0.3126036736      2.4314096989     -0.0640045726
H      -1.1799745061      1.8223208948      0.8917739854
H      -1.1564219984      1.8219823679     -0.9227371866
12
Frame=3  time=2.000fs  energy=-306.20146323Ha  molecule=COOCCCHHHHHH
C       0.0438901149      0.3351303043     -0.0026075767
O       1.3543982172      0.3126270076      0.0080568057
O       1.9800050282     -0.8761157974     -0.0057222784
C      -0.6841551664     -0.8610774411      0.0007199421
C      -2.0573313361     -0.8618192635     -0.0029703759
C      -0.5224417460      1.7244163041      0.0161062393
H      -0.1102835166     -1.8486166853      0.0220321810
H      -2.7773711977     -0.0288435593      0.0113467584
H      -2.5667030054     -1.8740001881     -0.1260594324
H       0.3313536085      2.4369264276     -0.0836255428
H      -1.1914351373      1.8032659040      0.8881347036
H      -1.1282234160      1.7937143486     -0.8829227601
12
Frame=4  time=2.500fs  energy=-306.17425583Ha  molecule=COOCCCHHHHHH
C       0.0398442396      0.3323937369     -0.0031352402
O       1.3575079792      0.3148385192      0.0100422923
O       1.9807810983     -0.8752525875     -0.0071491804
C      -0.6814809806     -0.8568039759      0.0009908126
C      -2.0546215288     -0.8599549312     -0.0038713883
C      -0.5292324088      1.7232845237      0.0170156952
H      -0.0925510164     -1.8848946997      0.0265940575
H      -2.8305931106     -0.0107488855      0.0141270475
H      -2.5615849710     -1.8916069172     -0.1560399245
H       0.3486531472      2.4416966462     -0.1020629855
H      -1.2021968313      1.7856966243      0.8845382873
H      -1.1010949535      1.7664548861     -0.8441575413
12
Frame=5  time=3.000fs  energy=-306.18356790Ha  molecule=COOCCCHHHHHH
C       0.0398294565      0.3306023666     -0.0037232973
O       1.3590386958      0.3167416632      0.0120264039
O       1.9816235927     -0.8741520523     -0.0085725661
C      -0.6733112760     -0.8678786567      0.0012744035
C      -2.0572049272     -0.8548955039     -0.0047790413
C      -0.5303247302      1.7255196508      0.0192254415
H      -0.1721050272     -1.7520924210      0.0311333440
H      -2.8340202945     -0.0718869182      0.0168736623
H      -2.5296326108     -1.8651071337     -0.1859310995
H       0.3142543406      2.3966994804     -0.1166387221
H      -1.2157019979      1.7736375152      0.8900604725
H      -1.0932079337      1.7440619212     -0.8332872087
12
Frame=6  time=3.500fs  energy=-306.17956483Ha  molecule=COOCCCHHHHHH
C       0.0445260432      0.3301302218     -0.0045521041
O       1.3578761428      0.3187572340      0.0140280939
O       1.9824608556     -0.8731180507     -0.0099858142
C      -0.6744260482     -0.8704227307      0.0016204501
C      -2.0593828085     -0.8559122222     -0.0057060470
C      -0.5300199079      1.7235836681      0.0287771667
H      -0.1795226622     -1.7297333586      0.0355886639
H      -2.8468423605     -0.0942750886      0.0196002862
H      -2.4649110239     -1.8066972076     -0.2157548270
H       0.2822257744      2.3676658820     -0.1175630709
H      -1.1992158248      1.7735496362      0.8661753060
H      -1.1373462963      1.7375247521     -0.8921989427
12
Frame=7  time=4.000fs  energy=-306.13131191Ha  molecule=COOCCCHHHHHH
C       0.0501746757      0.3300552746     -0.0055476625
O       1.3555738648      0.3212925345      0.0160276851
O       1.9833843428     -0.8724576304     -0.0113968730
C      -0.6865128352     -0.8584873680      0.0020050816
C      -2.0564318119     -0.8513818016     -0.0066407750
C      -0.5293990362      1.7184714974      0.0377198165
H      -0.0976703219     -1.8682103493      0.0399807442
H      -2.8395100531     -0.1236455922      0.0222192957
H      -2.4374684299     -1.8206767293     -0.2454696182
H       0.2437156979      2.3510453153     -0.1108995884
H      -1.1775427827      1.7878354151      0.8408777072
H      -1.1810952337      1.7365600716     -0.9483483125
12
Frame=8  time=4.500fs  energy=-306.12872470Ha  molecule=COOCCCHHHHHH
C       0.0559377345      0.3298430029     -0.0064915511
O       1.3536971850      0.3231243089      0.0179742465
O       1.9841731335     -0.8712257543     -0.0128263283
C      -0.6926816176     -0.8560962695      0.0024947857
C      -2.0428710530     -0.8430780011     -0.0075681660
C      -0.5456550775      1.7037833985      0.0261481715
H      -0.1078337600     -1.8731437553      0.0430788909
H      -2.8642927914     -0.0865905059      0.0237713813
H      -2.4849433025     -1.9595200051     -0.2744311676
H       0.3411819474      2.4581314891     -0.1075591038
H      -1.2159692664      1.8176325555      0.8922513184
H      -1.1034931425      1.7078831385     -0.8326035511
12
Frame=9  time=5.000fs  energy=-305.91527715Ha  molecule=COOCCCHHHHHH
C       0.0622295571      0.3303143554     -0.0062994902
O       1.3526966866      0.3239946945      0.0198947622
O       1.9847438953     -0.8693695563     -0.0142762042
C      -0.6913641722     -0.8630774975      0.0035342043
C      -2.0349728200     -0.8627597892     -0.0089484498
C      -0.5454347982      1.6977868049      0.0206105822
H      -0.1913900553     -1.7524715172      0.0398337262
H      -2.9606388717      0.0666593978      0.0234622513
H      -2.4168407903     -1.8903615866     -0.2987969761
H       0.2971362757      2.4303230289     -0.1005029733
H      -1.2513014145      1.8471652646      0.9519667642
H      -1.0929125334      1.7033669858     -0.8111642265
12
Frame=10  time=5.500fs  energy=-305.41651875Ha  molecule=COOCCCHHHHHH
C       0.0683700045      0.3319312116     -0.0044885389
O       1.3518191532      0.3244215120      0.0218452148
O       1.9850005343     -0.8672512660     -0.0157379104
C      -0.6962843795     -0.8541439117      0.0054454604
C      -2.0568013993     -0.8390026948     -0.0116053676
C      -0.5481895413      1.6893483432      0.0497997336
H      -0.1634326698     -1.7968407314      0.0288549405
H      -2.7118770638     -0.3024937062      0.0243503770
H      -2.3770062337     -1.8372409806     -0.3148547075
H       0.2781276115      2.4235078466     -0.0837228460
H      -1.1127623673      1.8280517463      0.7801993787
H      -1.2407377680      1.7410331557     -0.9983099655
12
Frame=11  time=6.000fs  energy=-304.76283538Ha  molecule=COOCCCHHHHHH
C       0.0741359488      0.3336993529     -0.0018366921
O       1.3509082676      0.3248994075      0.0235914476
O       1.9854280463     -0.8649899838     -0.0173007098
C      -0.7051657417     -0.8516396152      0.0080784698
C      -2.0134287664     -0.8541879552     -0.0156501454
C      -0.5434467885      1.6837066261      0.0086096449
H      -0.1769835690     -1.7631997082      0.0128809206
H      -2.9677299390      0.1289284313      0.0270880976
H      -2.5269922372     -2.1189255133     -0.3219642750
H       0.2072583960      2.3754555802     -0.0767212841
H      -1.2951142240      1.8796142052      1.0526294749
H      -1.0966912377      1.7079357057     -0.7842477312
12
Frame=12  time=6.500fs  energy=-302.97373373Ha  molecule=COOCCCHHHHHH
C       0.0806627194      0.3372637352      0.0012211469
O       1.3493979828      0.3252011464      0.0255107837
O       1.9856802470     -0.8628253400     -0.0188044883
C      -0.7040225299     -0.8457049368      0.0109773577
C      -2.0744150104     -0.8554667617     -0.0207317105
C      -0.5511648787      1.6717251556      0.0446914969
H      -0.1628218611     -1.7722830947     -0.0028182833
H      -2.5878491357     -0.4383333803      0.0354691794
H      -2.2240455451     -1.5864573640     -0.3257054849
H       0.2410087767      2.4271565921     -0.0556328304
H      -1.1036780163      1.8362117092      0.8100025570
H      -1.2715887313      1.7491855190     -0.9986400317
12
Frame=13  time=7.000fs  energy=-295.31298264Ha  molecule=COOCCCHHHHHH
C       0.0867380992      0.3388734217      0.0041624511
O       1.3497657760      0.3260594144      0.0272129942
O       1.9858715040     -0.8603700432     -0.0203468835
C      -0.7203079373     -0.8475643827      0.0137471448
C      -1.9635259830     -0.8817352442     -0.0257702967
C      -0.5462668613      1.6670409112      0.0136635358
H      -0.1914658332     -1.7114209969     -0.0184269797
H      -3.2568360836      0.6560474612      0.0424317281
H      -2.6833117440     -2.4014199649     -0.3282158889
H       0.1733970472      2.3932343565     -0.0465289453
H      -1.2418713865      1.8734003876      1.0204513526
H      -1.1758565684      1.7248634348     -0.8478456367
12
Frame=14  time=7.500fs  energy=-256.52833707Ha  molecule=COOCCCHHHHHH
C       0.0948431763      0.3444485647      0.0078025773
O       1.3486776227      0.3271575175      0.0287234968
O       1.9857946605     -0.8590343465     -0.0217662147
C      -0.7095628316     -0.8302206970      0.0159238639
C      -2.1798652280     -0.8387882401     -0.0307897453
C      -0.5715101308      1.6481666404      0.0140753225
H      -0.0840914180     -1.8771746544     -0.0333247472
H      -1.8433436711     -1.5341898206      0.0485496345
H      -1.7908612638     -0.8017008667     -0.3287994893
H       0.3432861261      2.5719008670     -0.0322511208
H      -1.1746483791      1.8604924014      0.9385649873
H      -1.1536300306      1.7167756303     -0.7867298887
12
Frame=15  time=8.000fs  energy=-46.18624452Ha  molecule=COOCCCHHHHHH
C       0.0998460991      0.3415822898      0.0124054588
O       1.3531266796      0.3295414625      0.0298754151
O       1.9860737059     -0.8562967490     -0.0230250180
C      -0.7620619747     -0.8511954258      0.0171960272
C      -1.6946742931     -0.9262805541     -0.0357572704
C      -0.5337890632      1.6632981296      0.0335556191
H      -0.2242251391     -1.6356828912     -0.0471813437
H      -4.8252389568      3.2193967328      0.0528517853
H      -3.8812833201     -4.5070837243     -0.3261875089
H      -0.0033366811      2.2939670044     -0.0151889369
H      -1.1591057255      1.8655198560      0.9480147891
H      -1.3503848103      1.7650704161     -1.0475518730
12
Frame=16  time=8.500fs  energy=1147.75102015Ha  molecule=COOCCCHHHHHH
C       0.1134086976      0.3584146432      0.0178158824
O       1.3466042293      0.3298349368      0.0304812227
O       1.9857188410     -0.8573748369     -0.0241693746
C      -0.6542087952     -0.8103942881      0.0174781356
C      -2.8241285377     -0.7845315301     -0.0406086707
C      -0.6315831782      1.6103447408      0.0071933051
H       0.0332684157     -2.0612448242     -0.0599806183
H       2.0279236610     -7.5774733843      0.0539469302
H       1.1370006304      4.4126589696     -0.3194952807
H       0.7286943336      2.9715389385     -0.0068928119
H      -1.0466506110      1.8416110350      0.7751492828
H      -1.0371220718      1.6816451210     -0.5653020127
